C9 H18
1.0
       13.2600002289         0.0000000000         0.0000000000
        0.0000000000        20.7800006866         0.0000000000
       -2.1469393187         0.0000000000        12.8296034735
    C
  144
Cartesian
     1.521292628        10.078300333         1.289375149
     9.591768282        10.701700354        11.540228324
    11.201972771        20.468300676         1.918025719
     0.984557799         0.311700010         4.496776017
     0.447822969        10.078300333         7.704176886
    10.665237941        10.701700354         5.125426588
    10.128503111        20.468300676         8.332827456
    -0.088911861         0.311700010        10.911577754
     8.151292743        10.078300333         1.289375149
     2.961768167        10.701700354        11.540228324
     4.571972656        20.468300676         1.918025719
     7.614557913         0.311700010         4.496776017
     7.077823084        10.078300333         7.704176886
     4.035237827        10.701700354         5.125426588
     3.498502997        20.468300676         8.332827456
     6.541088254         0.311700010        10.911577754
     1.134350565         8.623700285         1.699922460
     9.978710345        12.156300402        11.129681013
    11.588914834        19.013700628         1.507478408
     0.597615735         1.766300058         4.907323329
     0.060880905         8.623700285         8.114724197
    11.052180005        12.156300402         4.714879277
    10.515445175        19.013700628         7.922280145
    -0.475853924         1.766300058        11.322125065
     7.764350679         8.623700285         1.699922460
     3.348710231        12.156300402        11.129681013
     4.958914720        19.013700628         1.507478408
     7.227615850         1.766300058         4.907323329
     6.690881020         8.623700285         8.114724197
     4.422179890        12.156300402         4.714879277
     3.885445061        19.013700628         7.922280145
     6.154146190         1.766300058        11.322125065
     0.879938255         8.623700285         3.220230472
    10.233122655        12.156300402         9.609373002
     9.696387825        19.013700628        12.816773870
     0.343203426         1.766300058         6.427631340
    -0.193531404         8.623700285         9.635032209
    11.306592314        12.156300402         3.194571265
    10.769857484        19.013700628         6.401972133
     1.416673085         1.766300058         0.012829603
     7.509938370         8.623700285         3.220230472
     3.603122540        12.156300402         9.609373002
     3.066387711        19.013700628        12.816773870
     6.973203540         1.766300058         6.427631340
     6.436468711         8.623700285         9.635032209
     4.676592200        12.156300402         3.194571265
     4.139857370        19.013700628         6.401972133
     8.046673200         1.766300058         0.012829603
     5.781087733         6.815840225         3.091934437
     5.331973177        13.964160461         9.737669036
     6.942177666        17.205840569         0.115466431
     5.244352903         3.574160118         6.299335305
     4.707618074         6.815840225         9.506736174
     6.405442837        13.964160461         3.322867300
     5.868708007        17.205840569         6.530268168
     4.170883244         3.574160118        12.714137042
    12.411087847         6.815840225         3.091934437
    -1.298026937        13.964160461         9.737669036
     0.312177552        17.205840569         0.115466431
    11.874353018         3.574160118         6.299335305
    11.337618188         6.815840225         9.506736174
    -0.224557278        13.964160461         3.322867300
    -0.761292108        17.205840569         6.530268168
    10.800883358         3.574160118        12.714137042
     0.460602920         7.252220240         3.784733025
    10.652457990        13.527780447         9.044870449
    10.115723161        17.642220583        12.252271317
    -0.076131910         3.137780104         6.992133893
    -0.612866740         7.252220240        10.199534761
    11.725927650        13.527780447         2.630068712
    11.189192820        17.642220583         5.837469580
     0.997337750         3.137780104         0.577332156
     7.090603034         7.252220240         3.784733025
     4.022457876        13.527780447         9.044870449
     3.485723046        17.642220583        12.252271317
     6.553868205         3.137780104         6.992133893
     6.017133375         7.252220240        10.199534761
     5.095927535        13.527780447         2.630068712
     4.559192706        17.642220583         5.837469580
     7.627337864         3.137780104         0.577332156
     0.206190611         7.252220240         5.305041036
    10.906870300        13.527780447         7.524562437
    10.370135470        17.642220583        10.731963306
    -0.330544219         3.137780104         8.512441905
    -0.867279049         7.252220240        11.719842773
    11.980339959        13.527780447         1.109760700
    11.443605129        17.642220583         4.317161569
     0.742925440         3.137780104         2.097640168
     6.836190725         7.252220240         5.305041036
     4.276870185        13.527780447         7.524562437
     3.740135355        17.642220583        10.731963306
     6.299455895         3.137780104         8.512441905
     5.762721066         7.252220240        11.719842773
     5.350339844        13.527780447         1.109760700
     4.813605015        17.642220583         4.317161569
     7.372925555         3.137780104         2.097640168
     2.585788793         6.670380220         5.863128787
     8.527272117        14.109620466         6.966474686
     7.990537288        17.060380564        10.173875554
     2.049053963         3.719620123         9.070529656
     1.512319134         6.670380220        12.277930524
     9.600741777        14.109620466         0.551672949
     9.064006947        17.060380564         3.759073818
     3.122523623         3.719620123         2.655727919
     9.215788907         6.670380220         5.863128787
     1.897272003        14.109620466         6.966474686
     1.360537173        17.060380564        10.173875554
     8.679054078         3.719620123         9.070529656
     8.142319248         6.670380220        12.277930524
     2.970741662        14.109620466         0.551672949
     2.434006832        17.060380564         3.759073818
     9.752523737         3.719620123         2.655727919
     1.431346109         7.667820253         6.145380064
     9.681714801        13.112180433         6.684223410
     9.144979972        18.057820597         9.891624278
     0.894611279         2.722180090         9.352780932
     0.357876449         7.667820253        12.560181801
    10.755184461        13.112180433         0.269421673
    10.218449631        18.057820597         3.476822541
     1.968080938         2.722180090         2.937979195
     8.061346223         7.667820253         6.145380064
     3.051714687        13.112180433         6.684223410
     2.514979857        18.057820597         9.891624278
     7.524611394         2.722180090         9.352780932
     6.987876564         7.667820253        12.560181801
     4.125184346        13.112180433         0.269421673
     3.588449517        18.057820597         3.476822541
     8.598081053         2.722180090         2.937979195
     2.250403459         7.667820253         1.250886339
     8.862657451        13.112180433        11.578717135
    10.472861940        18.057820597         1.956514530
     1.713668629         2.722180090         4.458287207
     1.176933800         7.667820253         7.665688075
     9.936127111        13.112180433         5.163915398
     9.399392281        18.057820597         8.371316266
     0.640198970         2.722180090        10.873088944
     8.880403573         7.667820253         1.250886339
     2.232657337        13.112180433        11.578717135
     3.842861826        18.057820597         1.956514530
     8.343668744         2.722180090         4.458287207
     7.806933914         7.667820253         7.665688075
     3.306126996        13.112180433         5.163915398
     2.769392167        18.057820597         8.371316266
     7.270199084         2.722180090        10.873088944
