ITEM: TIMESTEP
0
ITEM: NUMBER OF ATOMS
340
ITEM: BOX BOUNDS pp pp pp
0.0000000000000000e+00 1.8779726265758935e+01
0.0000000000000000e+00 1.8779726265758935e+01
0.0000000000000000e+00 1.3145808386031254e+01
ITEM: ATOMS id type x y z
126 4 4.68539 3.13983 5.80077
239 4 8.21545 1.66504 2.00705
5 3 2.58329 1.64062 1.82773
279 4 1.84187 1.80114 3.91472
1 3 7.26472 2.68146 3.9866
127 4 8.66036 3.6357 6.11942
326 4 4.68176 1.81476 3.23357
92 5 3.51673 0.209715 5.83228
19 2 0.848205 0.245427 1.94839
332 4 0.197752 0.76532 5.51403
76 5 5.92591 0.37686 2.96764
29 2 6.4495 0.451921 5.94912
55 5 6.05144 2.54039 1.29023
144 4 8.45157 0.58099 4.21923
10 3 9.03211 0.0338664 0.17526
262 4 3.75455 3.61055 0.691502
321 4 2.05695 0.964524 12.5132
130 4 5.61374 2.68491 11.2993
245 4 0.838792 0.177995 9.05793
309 4 5.98955 3.39603 8.76573
192 4 4.81809 1.15937 7.48557
75 5 7.63142 2.19878 9.69909
105 5 1.00971 2.68575 9.56132
133 4 3.28099 2.08825 9.63697
232 4 7.35423 1.78888 7.53962
95 5 3.03136 3.09346 12.1757
271 4 8.67289 0.99072 11.2077
73 5 4.32656 1.03521 10.8874
222 4 6.31204 0.359686 10.0594
230 4 7.22718 1.6716 12.8812
281 4 2.54763 1.50147 6.77373
4 3 0.10945 2.23809 7.45186
134 4 1.69165 3.5758 8.44962
191 4 4.6584 1.41832 13.1308
110 5 5.58515 3.25861 6.57834
242 4 1.59683 3.25002 13.0561
336 4 0.649055 5.56662 0.945192
27 2 1.26958 4.37966 3.28803
280 4 1.38288 6.24631 3.99275
26 2 4.80971 6.82084 0.879336
188 4 8.51587 6.39276 3.56845
168 4 3.39402 4.22305 3.19815
138 4 5.84922 5.55765 5.04053
61 5 7.92552 4.95052 4.85149
243 4 3.60738 6.84857 5.53375
334 4 5.48945 7.36169 3.06365
212 4 6.02947 4.69757 2.31046
87 5 7.74604 7.1903 1.63824
297 4 3.08017 5.93162 1.31324
34 2 8.45468 4.23846 2.31754
141 4 1.60762 3.77382 5.41938
51 5 6.16364 7.43578 3.74125
121 5 2.17809 5.8016 0.180899
296 4 4.23337 4.92145 9.74776
48 5 5.81292 5.54332 9.20528
275 4 1.21057 5.71444 7.28826
244 4 8.54131 7.03985 8.67665
273 4 2.06266 4.51962 10.7235
68 5 2.2099 7.32775 10.1099
9 3 7.96846 4.44877 8.23437
165 4 8.28769 4.29882 12.9349
72 5 7.9052 6.72414 6.6929
235 4 5.24658 5.17705 7.5272
13 2 8.5249 6.76151 11.7436
109 5 5.4759 4.22269 12.549
154 4 6.22388 7.39861 11.4819
111 5 2.32228 5.67635 7.37917
193 4 0.343641 6.14896 11.8168
153 4 6.80017 5.04403 11.0667
283 4 8.93319 4.73705 10.2966
186 4 2.70789 10.5513 3.9246
278 4 2.34286 8.31053 2.67959
94 5 7.57358 10.6115 4.53924
135 4 2.30791 9.3916 6.3479
28 2 5.04658 7.89268 6.1619
164 4 8.52413 9.13219 2.63878
231 4 4.15713 9.35175 0.989895
122 4 2.22513 7.71414 0.0944147
218 4 0.553352 7.91327 6.01343
292 4 6.39085 8.13785 0.847488
299 4 8.60269 7.8764 0.404407
172 4 1.65766 10.6992 1.29106
227 4 4.92005 9.0868 4.56067
203 4 8.46164 7.9071 5.82278
65 5 5.33829 10.5223 2.56586
163 4 7.04011 10.4553 0.338205
44 5 0.166666 10.7419 3.738
50 5 2.41494 10.3829 0.094167
2 3 4.1132 8.29064 12.2266
3 3 5.50609 10.3387 6.64091
40 5 8.25727 9.03083 9.84759
253 4 4.02178 8.23932 8.18383
64 5 4.75254 8.70991 9.54154
284 4 3.0135 9.35483 10.2994
234 4 1.08518 7.85989 8.74847
274 4 0.518159 10.054 9.73989
293 4 6.75106 11.0252 9.66174
120 5 8.34512 10.0627 7.19981
20 2 2.85901 10.829 7.59277
90 5 5.95343 10.4513 12.2998
237 4 9.21155 9.25091 11.4457
194 4 8.56413 9.49955 9.60945
145 4 1.0718 8.23031 11.1885
312 4 7.75497 10.7119 6.5974
220 4 1.33339 14.6851 1.33283
100 5 4.89071 13.8664 0.526044
270 4 6.42033 12.4524 4.64286
258 4 4.02811 12.9307 2.64048
325 4 4.07256 11.6173 5.63431
119 5 5.0052 13.7805 4.89643
290 4 0.0878845 12.02 0.0520676
330 4 6.17252 12.9058 1.88001
300 4 8.36829 11.4084 3.36184
201 4 1.71972 13.1895 3.69303
303 4 8.38538 14.1121 2.70571
77 5 8.4791 14.0463 4.71537
260 4 1.08008 11.7 5.76015
101 5 2.39796 14.396 3.72574
180 4 6.10647 14.9266 3.56367
137 4 7.82035 13.4575 7.95684
333 4 1.40222 14.6574 9.53054
158 4 6.91522 13.2867 10.7667
181 4 4.17354 11.7892 9.6141
23 2 9.21495 14.9806 7.61791
85 5 5.91535 12.9839 10.9551
59 5 8.7789 12.4497 11.172
99 5 2.70053 13.366 6.79478
277 4 4.84406 12.7593 7.13804
113 5 2.606 12.4402 10.6118
152 4 5.01767 14.1216 9.49143
224 4 0.649986 12.2689 8.01773
263 4 0.807045 14.3588 12.3509
11 3 9.1364 14.6938 12.5519
143 4 2.92841 12.5224 12.8782
248 4 4.86083 11.3243 13.0653
49 5 1.40222 14.6574 9.53054
207 4 8.063 12.698 13.1355
93 5 0.566203 16.7774 5.27467
264 4 7.79295 17.386 5.11981
324 4 3.15741 17.9043 0.821834
329 4 1.8733 15.6133 5.81864
22 2 8.28715 17.2644 2.67046
118 5 6.38894 16.251 0.862855
32 2 3.08396 18.0882 3.41739
81 5 2.0691 16.1127 1.70728
210 4 5.05387 17.2767 2.96145
214 4 6.77535 15.5489 0.641966
249 4 3.77273 17.0719 5.00488
307 4 6.13425 15.1711 5.80417
208 4 3.94435 15.2145 1.81879
171 4 0.0882079 17.1873 7.00508
107 5 7.94139 17.278 11.3169
169 4 7.90771 17.4635 9.79089
54 5 6.0777 16.4016 9.36853
52 5 2.68446 17.2886 10.5553
129 4 4.98612 18.0116 11.8994
200 4 5.24839 18.0187 7.223
261 4 6.72002 16.2799 8.28115
211 4 3.06556 15.4276 10.7061
147 4 2.35636 16.4666 9.18786
179 4 8.90679 15.1312 10.0698
58 5 1.15836 16.1468 12.6669
289 4 2.37518 16.063 12.873
272 4 4.19353 15.5694 7.46811
24 2 8.29542 18.144 7.81739
116 5 3.94558 18.1961 8.03493
328 4 5.9501 15.3334 11.6728
238 4 2.71711 18.218 6.71277
161 4 18.1016 0.498612 3.24208
38 5 11.6335 1.07405 3.9821
265 4 13.5106 2.46905 0.308918
213 4 9.45403 3.1034 3.94842
317 4 16.6282 2.0654 0.822165
117 5 18.6904 2.77004 5.37241
331 4 14.6308 1.7876 3.00848
285 4 13.3759 1.20036 5.6252
21 2 9.84314 1.25122 6.27926
295 4 10.1475 3.50706 1.26584
178 4 18.7313 2.04101 1.43048
306 4 16.0377 1.14412 4.68344
112 5 11.6955 3.58604 5.99281
339 1 16.4318 2.2694 3.27932
74 5 11.1031 1.19776 1.54659
173 4 12.7151 0.122078 1.88498
15 2 18.6301 1.92814 12.3844
57 5 14.9561 1.58333 7.00467
108 5 12.1177 2.11202 12.3336
276 4 16.4822 2.83573 8.48601
160 4 11.4286 3.45261 10.6736
313 4 15.7933 2.463 11.3533
294 4 12.9363 2.35618 7.72772
33 2 14.6435 1.58225 9.44427
189 4 13.216 0.805431 12.1424
182 4 10.1844 0.644987 8.71699
84 5 9.54946 2.53857 11.2623
256 4 11.0415 0.925755 11.7949
327 4 9.44829 2.85471 8.64865
149 4 16.8292 0.714941 7.63092
291 4 17.5334 0.643663 10.4467
255 4 18.1645 3.65222 10.5604
318 4 12.9368 0.104662 9.72754
301 4 14.4252 0.197005 7.63328
46 5 15.2216 0.269176 11.3457
170 4 13.3407 4.01654 5.32963
247 4 11.2841 5.99055 4.50483
115 5 17.4669 4.95712 2.17336
223 4 17.8556 6.81693 2.3911
139 4 15.4605 5.99945 5.50959
66 5 13.2603 6.09508 3.94014
315 4 17.4065 5.02462 4.46685
155 4 12.5036 4.49248 0.983701
202 4 15.7095 5.75305 2.85837
215 4 10.5281 6.35867 1.15505
8 3 14.2217 3.8561 2.78446
196 4 15.2848 4.47761 0.783418
226 4 11.8141 3.75809 3.51329
131 4 13.9484 7.18328 1.11196
287 4 16.7412 6.59782 0.575702
204 4 13.2135 7.02092 5.65264
63 5 15.8341 4.20171 5.23098
89 5 13.063 7.33595 0.0532649
148 4 17.6522 3.94858 6.67288
286 4 16.2343 5.06808 11.8366
209 4 13.2798 6.97312 8.61124
320 4 15.947 5.86845 9.52136
102 5 17.3499 4.08177 12.5511
6 3 18.7241 5.84645 9.3645
219 4 11.9302 4.45453 7.28449
62 5 15.3056 5.04208 7.69496
83 5 10.7649 5.1264 11.821
340 1 13.4549 4.14391 12.028
305 4 13.8055 4.20442 9.73897
157 4 10.8864 6.13528 9.83705
71 5 14.7771 6.33143 10.6195
308 4 17.3929 6.81365 7.65041
225 4 9.9167 6.29716 6.63285
197 4 17.3863 10.8576 5.42789
79 5 13.3588 8.6264 2.72872
316 4 13.6348 9.89222 1.36774
250 4 18.5801 9.2007 3.41876
319 4 11.2904 10.9965 3.10534
42 5 16.5342 8.35667 3.14167
198 4 11.0754 8.26382 3.75434
31 2 9.64375 11.0868 1.31117
229 4 16.9601 8.41837 5.34577
177 4 17.9658 10.2651 1.35239
335 4 14.5766 9.03206 4.74548
199 4 15.9246 10.8381 2.88983
91 5 12.1211 10.9056 5.40243
150 4 11.4564 9.03712 1.39285
175 4 9.46629 10.0232 5.0095
82 5 18.5517 7.81467 0.776832
35 5 11.047 8.263 5.56488
78 5 11.4676 8.67198 8.39019
56 5 11.0002 8.49721 11.4772
288 4 14.3632 8.23499 12.1192
17 2 18.6165 10.006 12.2117
103 5 15.4064 8.27708 9.19843
132 4 9.86152 9.94336 7.48764
18 2 18.4928 9.45587 6.82612
146 4 12.1536 9.43032 12.0973
140 4 12.6347 9.15419 7.44673
236 4 12.6907 8.25584 10.4059
124 4 14.5791 10.6533 9.83689
69 5 18.4182 8.11448 9.45072
67 5 15.1223 10.2656 11.8159
206 4 15.245 8.54921 7.89749
104 5 16.6606 11.2403 8.70059
302 4 12.3041 11.1313 8.18402
114 5 14.6071 10.785 7.14693
159 4 16.9262 8.00973 11.2974
252 4 16.2507 9.54675 13.0982
268 4 16.0221 14.8052 6.3512
254 4 10.4678 13.2586 1.01176
88 5 14.4468 14.1208 4.2213
125 4 14.1655 13.7424 1.67695
216 4 12.7271 12.7654 5.68135
282 4 18.7269 14.4277 2.87001
310 4 16.6986 12.8839 4.00675
70 5 17.1509 12.8837 2.52994
106 5 12.755 12.1371 0.739948
190 4 10.2372 13.2281 4.03602
259 4 14.5859 11.7654 5.59683
16 2 13.8757 11.5544 3.23383
185 4 15.2645 11.953 0.866792
14 2 11.6166 14.1602 2.85927
12 2 18.2635 13.3791 5.88473
43 5 18.3 14.6977 1.10337
251 4 11.828 14.4296 8.22767
241 4 16.1018 14.169 12.7717
195 4 11.6356 14.7446 11.1313
60 5 13.4069 14.787 6.64752
174 4 18.7483 12.6847 10.8489
136 4 10.0062 12.5617 9.46898
323 4 15.4115 13.444 10.8167
45 5 17.1586 14.4608 10.3786
36 5 16.9128 12.0176 13.0081
311 4 11.3358 12.4263 12.1939
176 4 12.6547 12.6068 10.2994
80 5 13.2342 14.5558 11.9377
322 4 16.5175 11.8739 7.64123
7 3 17.7935 13.153 8.7456
166 4 14.7157 13.2096 8.51234
337 4 14.0256 11.4092 12.0394
269 4 18.3897 14.6818 7.88003
156 4 9.83559 12.8358 6.60968
86 5 11.4727 11.3373 10.0679
304 4 14.0757 16.2536 0.335689
240 4 11.9763 18.2157 4.44425
142 4 12.0219 15.3947 4.56011
298 4 18.5595 17.0896 2.13706
267 4 9.49192 16.4914 1.12211
167 4 11.9815 16.3248 1.72197
37 5 15.554 17.9939 3.44094
205 4 16.3719 15.1723 3.69265
184 4 14.2215 16.2801 3.38546
246 4 15.7656 18.5625 0.516968
221 4 18.6814 15.8577 5.13263
266 4 17.2519 17.6511 4.73532
97 5 10.0523 17.0612 4.93241
338 4 16.8122 15.9569 1.05818
257 4 14.2362 17.1759 5.79113
162 4 10.4656 18.3975 2.64227
41 5 16.7423 18.4617 0.840154
183 4 9.4027 16.0417 3.77911
228 4 10.8573 16.3898 6.55826
233 4 15.2925 17.0148 9.82643
314 4 13.5884 16.8853 11.4452
53 5 11.9813 17.8147 12.9498
96 5 16.2961 16.8512 7.11839
217 4 13.2059 16.4441 8.37564
47 5 15.4513 16.3648 11.4765
123 4 16.4567 15.0773 9.31234
39 5 13.5712 15.0336 9.24937
30 2 12.1962 18.208 7.35489
187 4 17.7031 17.4674 9.96594
128 4 10.4795 16.9011 9.30255
151 4 9.64731 17.1805 12.0002
98 5 18.179 18.4903 10.1656
25 2 11.0741 15.5586 13.0161
