LAMMPS (22 Jul 2025 - Update 3)
  using 8 OpenMP thread(s) per MPI task
# ------------------------------------------------------------------
# 1. INITIALIZATION
# ------------------------------------------------------------------
units           metal          # eV and Angstroms (Matches Deng/Du paper)
atom_style      charge
boundary        p p p
read_data       SlabV3.data
Reading data file ...
  orthogonal box = (0 0 0) to (18.779726 18.779726 13.145808)
  2 by 5 by 2 MPI processor grid
  reading atom labelmap ...
  reading atoms ...
  340 atoms
  read_data CPU = 0.004 seconds

# ------------------------------------------------------------------
# 2. ASSIGN CHARGES (From Deng & Du 2016)
# ------------------------------------------------------------------
# 1=Al, 2=B, 3=Na, 4=O, 5=Si

set type 5 charge  1.890   # Si
Setting atom values ...
  87 settings made for charge
set type 4 charge -0.945   # O
Setting atom values ...
  217 settings made for charge
set type 2 charge  1.418   # B
Setting atom values ...
  23 settings made for charge
set type 3 charge  0.473   # Na
Setting atom values ...
  11 settings made for charge
set type 1 charge  1.418   # Al
Setting atom values ...
  2 settings made for charge
mass 5 28.086	# Si
mass 4 15.999	# O
mass 2 10.811	# B
mass 3 22.990	# Na
mass 1 26.982	# Al

# ------------------------------------------------------------------
# 3. FIX DENSITY & OVERLAPS (The Soft Ramp Method)
# ------------------------------------------------------------------

# A. DEFINE SOFT POTENTIAL
# Start with a "Soft" potential with cutoff 2.5 Angstroms
pair_style      soft 2.5
pair_coeff      * * 0.0 2.5   # Start with Energy A = 0.0 (Ghost atoms)

# B. RAMP REPULSION
# We ramp the pre-factor 'A' from 0.0 to 100.0 eV.
# This slowly "inflates" the atoms, pushing overlapping ones apart gently.
variable        prefactor equal ramp(0.0,100.0)
fix             1 all adapt 1 pair soft a * * v_prefactor

# C. INITIALIZE VELOCITIES
velocity        all create 300.0 12345 dist gaussian
timestep        0.001
thermo          100

print "--- STARTING SOFT RAMP ---"
--- STARTING SOFT RAMP ---

# D. Run with NVE to let them push apart
fix             2 all nve
run             10000

CITE-CITE-CITE-CITE-CITE-CITE-CITE-CITE-CITE-CITE-CITE-CITE-CITE

Your simulation uses code contributions which should be cited:

- Type Label Framework: https://doi.org/10.1021/acs.jpcb.3c08419

@Article{Gissinger24,
 author = {Jacob R. Gissinger, Ilia Nikiforov, Yaser Afshar, Brendon Waters, Moon-ki Choi, Daniel S. Karls, Alexander Stukowski, Wonpil Im, Hendrik Heinz, Axel Kohlmeyer, and Ellad B. Tadmor},
 title = {Type Label Framework for Bonded Force Fields in LAMMPS},
 journal = {J. Phys. Chem. B},
 year =    2024,
 volume =  128,
 number =  13,
 pages =   {3282--3297}
}

CITE-CITE-CITE-CITE-CITE-CITE-CITE-CITE-CITE-CITE-CITE-CITE-CITE

Generated 0 of 10 mixed pair_coeff terms from geometric mixing rule
Neighbor list info ...
  update: every = 1 steps, delay = 0 steps, check = yes
  max neighbors/atom: 2000, page size: 100000
  master list distance cutoff = 4.5
  ghost atom cutoff = 4.5
  binsize = 2.25, bins = 9 9 6
  1 neighbor lists, perpetual/occasional/extra = 1 0 0
  (1) pair soft, perpetual
      attributes: half, newton on
      pair build: half/bin/atomonly/newton
      stencil: half/bin/3d
      bin: standard
Per MPI rank memory allocation (min/avg/max) = 9.364 | 9.364 | 9.365 Mbytes
   Step          Temp          E_pair         E_mol          TotEng         Press     
         0   300            0              0              13.145757      3028.5788    
       100   2530.7002      95.474798      0              206.36803      102068.41    
       200   3346.309       137.57108      0              284.20363      171448.36    
       300   4203.4088      160.67131      0              344.86128      232586.32    
       400   4775.7358      185.26807      0              394.53694      286293.18    
       500   5312.4147      204.92419      0              437.70989      338636.59    
       600   5955.8354      215.05364      0              476.03351      387610.28    
       700   6404.8181      230.55597      0              511.2099       427769.85    
       800   6557.7837      256.48599      0              543.84276      479078.15    
       900   6542.5866      287.55428      0              574.24512      526702.7     
      1000   7079.1188      293.17028      0              603.37152      569745.32    
      1100   7370.373       307.68943      0              630.65319      599361.32    
      1200   7750.3166      317.41198      0              657.02457      632043.07    
      1300   8544.7303      307.5751       0              681.99825      674991.35    
      1400   8578.7905      329.93321      0              705.84885      735009.89    
      1500   9149.9714      328.26164      0              729.20596      757388.31    
      1600   9488.5629      335.27613      0              751.05727      787220.66    
      1700   9617.7142      350.25857      0              771.699        810401.53    
      1800   10008.287      353.28957      0              791.84459      869162.46    
      1900   10072.301      370.94316      0              812.30321      857341.12    
      2000   10428.611      374.55307      0              831.52637      916767.61    
      2100   10275.138      400.50037      0              850.74857      960234.72    
      2200   10399.486      413.63568      0              869.33274      1024464.2    
      2300   10819.479      413.28616      0              887.38697      1016896      
      2400   10790.476      431.91531      0              904.74521      1042446.5    
      2500   11676.549      410.46378      0              922.1207       1080333.5    
      2600   12015.932      411.95808      0              938.48647      1094273.3    
      2700   11834.571      437.00085      0              955.58214      1152295.1    
      2800   12261.006      434.02537      0              971.29271      1152149.8    
      2900   12042.009      459.41185      0              987.08291      1209687.1    
      3000   12813.345      441.37579      0              1002.8462      1201665.2    
      3100   12850.66       454.17558      0              1017.2811      1253400.7    
      3200   12900.11       466.70511      0              1031.9775      1302968.2    
      3300   12832.651      484.11424      0              1046.4306      1339264      
      3400   12086.513      532.01372      0              1061.6349      1411884.8    
      3500   14017.131      460.11836      0              1074.3377      1348839      
      3600   13283.835      507.30246      0              1089.3893      1413342.9    
      3700   13455.572      512.30508      0              1101.9173      1442726.3    
      3800   13694.034      515.64128      0              1115.7028      1426951.5    
      3900   14266.834      503.05477      0              1128.2159      1518385.4    
      4000   13475.823      552.66666      0              1143.1663      1546224.5    
      4100   14123.748      537.32632      0              1156.2175      1578972.2    
      4200   15510.459      488.29895      0              1167.9547      1509718.1    
      4300   14951.576      527.06362      0              1182.2296      1604407.9    
      4400   14811.745      546.8513       0              1195.89        1655948      
      4500   14480.482      575.64971      0              1210.1727      1694931.3    
      4600   15192.138      554.89622      0              1220.6034      1644182.4    
      4700   15681.122      545.32486      0              1232.4589      1682680.1    
      4800   15571.918      564.05128      0              1246.4001      1678159.3    
      4900   15762.686      569.02489      0              1259.733       1713945.1    
      5000   16259.145      559.04837      0              1271.5109      1745865.4    
      5100   16580.817      555.3195       0              1281.8775      1750177.4    
      5200   16330.801      577.13342      0              1292.7359      1786138.6    
      5300   16076.186      599.99436      0              1304.4398      1829883.4    
      5400   17301.258      558.00226      0              1316.1294      1851133.3    
      5500   15929.064      631.42371      0              1329.4224      1895426.3    
      5600   16744.574      608.59071      0              1342.3243      1916527.7    
      5700   16680.791      621.55047      0              1352.4892      1942053.9    
      5800   17291.238      606.8348       0              1364.5228      1942541.5    
      5900   17056.292      625.19072      0              1372.5836      2002963.6    
      6000   16828.02       647.82276      0              1385.213       2030516.1    
      6100   17032.675      648.41805      0              1394.7761      2072072.6    
      6200   17689.459      630.53542      0              1405.6732      2017537.4    
      6300   16621.582      687.92932      0              1416.2736      2173860.1    
      6400   18705.735      606.90967      0              1426.5798      2050990.9    
      6500   16981.122      690.43517      0              1434.5342      2166923.1    
      6600   18844.392      620.26694      0              1446.0129      2117404.4    
      6700   18659.873      640.83524      0              1458.4957      2147078.3    
      6800   19365.157      621.38709      0              1469.9526      2142755.5    
      6900   19108.388      645.85893      0              1483.173       2206369.3    
      7000   17536.547      724.83106      0              1493.2683      2290715.9    
      7100   18464.033      698.92396      0              1508.0029      2296755.4    
      7200   19909.486      646.28577      0              1518.7033      2260360.4    
      7300   19428.992      675.36271      0              1526.7254      2289711.8    
      7400   19621.434      677.31285      0              1537.1082      2327575      
      7500   19264.382      706.4226       0              1550.5722      2375421      
      7600   19160.5        721.33324      0              1560.9308      2415702.6    
      7700   19085.067      732.29699      0              1568.5892      2400189.6    
      7800   20257.694      693.30083      0              1580.9766      2418137.8    
      7900   20977.628      669.04999      0              1588.2726      2363587.1    
      8000   21244.342      666.12499      0              1597.0348      2409710.1    
      8100   20799.809      697.86626      0              1609.297       2455100.3    
      8200   19876.752      749.60468      0              1620.5878      2513034.7    
      8300   21825.483      674.95493      0              1631.3299      2571593.8    
      8400   21738.076      685.18553      0              1637.7304      2464341.7    
      8500   20423.117      755.44433      0              1650.3688      2596281.9    
      8600   21374.09       721.10428      0              1657.6996      2597906.8    
      8700   20114.765      790.25752      0              1671.6702      2624845      
      8800   22351.799      698.22943      0              1677.6672      2606491.1    
      8900   20874.405      782.23257      0              1696.9321      2689676.6    
      9000   21546.737      770.93904      0              1715.0996      2672057.5    
      9100   22095.507      765.32571      0              1733.5329      2783710.2    
      9200   22689.295      745.17248      0              1739.399       2728509      
      9300   23824.637      710.40068      0              1754.377       2706777      
      9400   21911.166      807.77227      0              1767.9018      2852025.8    
      9500   22454.25       790.99067      0              1774.9177      2837646.3    
      9600   21754.772      838.41765      0              1791.6941      2905744      
      9700   22672.447      813.92324      0              1807.4115      2809742.8    
      9800   23077.248      809.69589      0              1820.9222      2810825      
      9900   23098.957      817.27385      0              1829.4514      2796631.6    
     10000   23428.772      813.65593      0              1840.2857      2974752.4    
Loop time of 241.803 on 160 procs for 10000 steps with 340 atoms

Performance: 3.573 ns/day, 6.717 hours/ns, 41.356 timesteps/s, 14.061 katom-step/s
39.4% CPU use with 20 MPI tasks x 8 OpenMP threads

MPI task timing breakdown:
Section |  min time  |  avg time  |  max time  |%varavg| %total
---------------------------------------------------------------
Pair    | 0.047769   | 0.05002    | 0.053042   |   0.7 |  0.02
Neigh   | 0.017382   | 0.021603   | 0.044294   |   6.1 |  0.01
Comm    | 196.07     | 198.54     | 200.35     |  11.0 | 82.11
Output  | 0.0020956  | 0.0029249  | 0.012756   |   4.2 |  0.00
Modify  | 0.027467   | 0.031064   | 0.055441   |   3.4 |  0.01
Other   |            | 43.16      |            |       | 17.85

Nlocal:             17 ave          19 max          14 min
Histogram: 1 0 0 0 7 0 3 0 8 1
Nghost:         249.35 ave         256 max         241 min
Histogram: 1 1 3 2 2 1 1 3 4 2
Neighs:         220.95 ave         262 max         174 min
Histogram: 1 0 2 2 2 6 3 2 1 1

Total # of neighbors = 4419
Ave neighs/atom = 12.997059
Neighbor list builds = 864
Dangerous builds = 0
unfix           1
unfix           2

print "--- SOFT RAMP COMPLETE ---"
--- SOFT RAMP COMPLETE ---

# ------------------------------------------------------------------
# 2. REAL POTENTIAL (Buckingham)
# ------------------------------------------------------------------

# Set Buckingham Potential back from Soft
pair_style      buck/coul/long 10.0
kspace_style    pppm 1.0e-4

# (Deng & Du Parameters)
pair_coeff 1 2  45296.72   0.161   46.1395
pair_coeff 4 2  120360.22  0.170    0.0000
pair_coeff 2 2   9027.03   0.265   85.0321
pair_coeff 5 2  28287.00   0.172   34.7600
pair_coeff 3 2  197810.14  0.1245  35.0020
pair_coeff 5 5    351.94   0.360    0.0000
pair_coeff 5 4    175.21   0.130    0.0000
pair_coeff 5 1    646.67   0.120    0.0000
pair_coeff 5 3    137.58   0.479    0.0000
pair_coeff 1 1    834.40   0.290    0.0000
pair_coeff 1 3    337.70   0.290    0.0000
pair_coeff 3 3    121.10   0.350    0.0000
pair_coeff 4 4      0.00   1.000    0.0000
pair_coeff 1 4      0.00   1.000    0.0000
pair_coeff 3 4      0.00   1.000    0.0000

# Safety minimization
minimize 1.0e-4 1.0e-6 100 1000
PPPM initialization ...
WARNING: System is not charge neutral, net charge = 0.018
For more information see https://docs.lammps.org/err0029 (src/kspace.cpp:330)
  using 12-bit tables for long-range coulomb
  G vector (1/distance) = 0.29520851
  grid = 15 15 10
  stencil order = 5
  estimated absolute RMS force accuracy = 0.00093146502
  estimated relative force accuracy = 6.4686666e-05
  using double precision KISS FFT
  3d grid and FFT values/proc = 1680 135
Generated 0 of 10 mixed pair_coeff terms from geometric mixing rule
Neighbor list info ...
  update: every = 1 steps, delay = 0 steps, check = yes
  max neighbors/atom: 2000, page size: 100000
  master list distance cutoff = 12
  ghost atom cutoff = 12
  binsize = 6, bins = 4 4 3
  1 neighbor lists, perpetual/occasional/extra = 1 0 0
  (1) pair buck/coul/long, perpetual
      attributes: half, newton on
      pair build: half/bin/atomonly/newton
      stencil: half/bin/3d
      bin: standard
Per MPI rank memory allocation (min/avg/max) = 11.05 | 11.05 | 11.05 Mbytes
   Step          Temp          E_pair         E_mol          TotEng         Press     
     10000   23428.772     -959.53343      0              67.096352      167973.7     
     10036   23428.772     -1.019789e+16   0             -1.019789e+16  -7.1928603e+17
Loop time of 0.561158 on 160 procs for 36 steps with 340 atoms

66.5% CPU use with 20 MPI tasks x 8 OpenMP threads

Minimization stats:
  Stopping criterion = energy tolerance
  Energy initial, next-to-last, final = 
     -959.533427681808 -1.01978898568546e+16 -1.01978898568546e+16
  Force two-norm initial, final = 235.12786 5.7186068e+30
  Force max component initial, final = 29.835184 2.8481993e+30
  Final line search alpha, max atom move = 2.4947087e-46 7.1054274e-16
  Iterations, force evaluations = 36 675

MPI task timing breakdown:
Section |  min time  |  avg time  |  max time  |%varavg| %total
---------------------------------------------------------------
Pair    | 0.10239    | 0.12246    | 0.14165    |   3.0 | 21.82
Kspace  | 0.091933   | 0.1112     | 0.13145    |   3.2 | 19.82
Neigh   | 0.00013264 | 0.00015263 | 0.00017948 |   0.0 |  0.03
Comm    | 0.23979    | 0.24938    | 0.27733    |   2.9 | 44.44
Output  | 0          | 0          | 0          |   0.0 |  0.00
Modify  | 0          | 0          | 0          |   0.0 |  0.00
Other   |            | 0.07796    |            |       | 13.89

Nlocal:             17 ave          20 max          14 min
Histogram: 2 0 0 7 0 4 2 0 4 1
Nghost:         2056.5 ave        2076 max        2042 min
Histogram: 3 3 4 1 1 2 1 2 0 3
Neighs:         4506.7 ave        5233 max        3820 min
Histogram: 1 2 4 2 1 3 1 2 3 1

Total # of neighbors = 90134
Ave neighs/atom = 265.1
Neighbor list builds = 1
Dangerous builds = 0
reset_timestep  0

# ------------------------------------------------------------------
# 5. MELT AND QUENCH PROTOCOL
# ------------------------------------------------------------------

# Output settings (Save log info every 1000 steps)
thermo          1000
thermo_style    custom step temp press vol density pe

# Define a trajectory file so you can watch simulation later
# Saves a snapshot every 5000 steps
dump            1 all custom 5000 evolution.lammpstrj id type x y z

# ==========================================================
#
# ==========================================================

# A. Relax at 300K (60ps)
print "--- RELAXING AT 300K FOR 60ps ---"
--- RELAXING AT 300K FOR 60ps ---
fix     1 all nvt temp 300.0 300.0 0.1
run     60000
PPPM initialization ...
  using 12-bit tables for long-range coulomb
  G vector (1/distance) = 0.29520851
  grid = 15 15 10
  stencil order = 5
  estimated absolute RMS force accuracy = 0.00093146502
  estimated relative force accuracy = 6.4686666e-05
  using double precision KISS FFT
  3d grid and FFT values/proc = 1680 135
Generated 0 of 10 mixed pair_coeff terms from geometric mixing rule
Per MPI rank memory allocation (min/avg/max) = 9.926 | 9.928 | 9.929 Mbytes
   Step          Temp          Press          Volume        Density         PotEng    
         0   23428.772     -7.1928603e+17  4636.239       2.3176046     -1.019789e+16 
ERROR: Lost atoms: original 340 current 200
For more information see https://docs.lammps.org/err0008 (src/thermo.cpp:526)
