(written by ASE)

340 atoms
5 atom types

0.0      18.779726265758935  xlo xhi
0.0      18.779726265758935  ylo yhi
0.0      13.145808386031254  zlo zhi

Atom Type Labels

1 Al
2 B
3 Na
4 O
5 Si

Masses

1      26.981538493059151 # Al
2      10.809999997219188 # B
3      22.989769274086012 # Na
4      15.998999995884349 # O
5      28.084999992775295 # Si

Atoms # charge

     1   3   1.0      7.6436649426849357      13.955000318966063      5.0212165909482982
     2   3   1.0      9.7206052792506821      3.7502673686512731      4.8818618895245187
     3   3   1.0      3.8053746340183463      8.6741585944029858      3.8972860933738369
     4   3   1.0      1.8460015310336153       6.722779193967261      10.845111732874111
     5   3   1.0      14.354205214598796      9.6587176011192639      12.573204032173333
     6   3   1.0      4.6599869477119551      10.852805662850162     0.86500412295657525
     7   3   1.0      11.602734085950129      7.1769854003320317      0.1615803068602657
     8   3   1.0      7.4729503944978761      3.9089710321993381       2.114074635881988
     9   3   1.0      3.9050801498450314      18.743096932844082      12.142915553224864
    10   3   1.0      1.5855873986088052      11.681750020110201       1.760242289164913
    11   3   1.0      15.412769981496654      6.1258146282519643      6.6937540977868331
    12   2   3.0      5.9644161630147794      11.478445820353864      3.6165779782036598
    13   2   3.0      1.6710722176896737      13.237866305843836      4.7307702677356351
    14   2   3.0      3.1495979399948637       16.93687072979429      9.5146923276485875
    15   2   3.0        14.4706977459222      10.300915941762549       3.200161398600212
    16   2   3.0      18.314404244626989      6.9914629600033003      5.3152648577812975
    17   2   3.0      7.7693454863586187      16.963384729580991      5.6247142190866253
    18   2   3.0      7.1006406362871939      16.712797183292771       3.117531788196239
    19   2   3.0      2.6053510528668831      1.9666214903195052      4.3582343053390042
    20   2   3.0      11.127523596781927     0.58472922905045732      3.4676967253309541
    21   2   3.0      11.324709550135653      5.9060766084973153      12.588346840017573
    22   2   3.0   0.0087607071787543008      11.173327771884157      5.8511726142397666
    23   2   3.0      4.8776613595213343      13.782960393809825      6.9075970277437131
    24   2   3.0      10.333725320553768       6.430250386868094      10.066261722159439
    25   2   3.0       7.903782240635632      1.3237317077307653      8.6165526362284837
    26   2   3.0      12.030621393990433      5.3323929843582993      7.0984381206305942
    27   2   3.0      12.610534084759363      12.290598204538767      6.3895953514215194
    28   2   3.0      16.209346575713454      14.022730327659723      4.5234757182437706
    29   2   3.0      15.415285463977385      14.310695019604971      9.3377720512390798
    30   2   3.0       5.478606092327805      17.866437248401649       1.205446965932562
    31   2   3.0       10.00869365272905      17.621687534232088      10.858160968483663
    32   2   3.0      15.624897618443216      7.7652187114853817      1.0042458899042581
    33   2   3.0      16.056209842407807     0.99311007237984228      4.2166095377215758
    34   2   3.0      7.2821753075871118      9.6904554407810384      1.9233920345890816
    35   5   4.0      17.911291979282073      4.3124323759606957      3.1010515685934017
    36   5   4.0      3.7307462836643466      9.6176322848615072      7.6548994185504924
    37   5   4.0     0.63135378100643946      14.883083977918494      6.8276454610289319
    38   5   4.0      3.0916572574721051      2.4895521992480756       9.694563652422767
    39   5   4.0       8.204346904739797      10.863962655135504      5.6121756259352393
    40   5   4.0      4.8928622423827823      12.387125186658395      11.885699665820134
    41   5   4.0      8.7432336056242264      11.183971238836209      8.4798602038638613
    42   5   4.0      17.938102767108948      15.202233585735961      2.4825405166431813
    43   5   4.0      16.657138012029176      17.651872338878768      6.6201979460877274
    44   5   4.0      14.015514267519693      12.305665342009695      1.1402814214757431
    45   5   4.0       11.38025243257254      15.355592623732251      11.129537198735003
    46   5   4.0      5.9806077461842913      17.479777092272165      9.5326848512286428
    47   5   4.0      13.377684358100726      16.595276220605552      2.2521761126335154
    48   5   4.0      6.6816807325412553      8.1842011040770206      11.889720419012569
    49   5   4.0      2.3321933656015728      1.4095287573326039      12.204013042942977
    50   5   4.0      14.784330604378697      1.5955371399166476      1.6862873338291242
    51   5   4.0      3.3522814742934042      7.3359322058102601      0.9732813874165811
    52   5   4.0      9.3766742999972585       5.719083678519719      7.7233146015156606
    53   5   4.0      13.616676776687303      4.1566736358275653      4.9922357934400008
    54   5   4.0      10.343792882141521      4.7686723212264193      1.8850069428069345
    55   5   4.0      18.718940433948891      14.234034875417787      10.584527473356658
    56   5   4.0      6.6087005386342996      4.9593764623604626      12.009381325225268
    57   5   4.0      14.332080369907356      16.550175156372294       10.87324225074566
    58   5   4.0       11.12977021522862      14.739099649533571      3.4737773728431556
    59   5   4.0      17.552671755172959      7.0514319980245501      11.280773226061477
    60   5   4.0      17.627527672158823      10.561647023809815      7.4770390837068854
    61   5   4.0      1.4999700463505596      15.090710514496219      12.671816193541042
    62   5   4.0       10.52696995187468       7.066837555546396      3.7477784814372952
    63   5   4.0      9.7476654155750015      15.610784385638627      1.0882994348248414
    64   5   4.0      14.400014548881135      14.601217173240336       6.620291560760311
    65   5   4.0      1.4525393437096492      17.825052249773957      5.7564755890713748
    66   5   4.0      2.3605427749079659      1.9234961164127855      1.5714669295180479
    67   5   4.0      12.805879893525352      11.308785574015667      9.2270868259592635
    68   5   4.0      1.0866637658495109      14.981360595686219      2.5001509668874631
    69   5   4.0      17.280627295979748      2.6041776135169248     0.42921784661072626
    70   5   4.0      15.280604935783765       2.582055617172522      6.5802484875300831
    71   5   4.0      10.811891675293696      1.8429959755342709      8.5808104571805313
    72   5   4.0      6.2946540583925632      6.8861854611056774      1.5589522617732892
    73   5   4.0      4.8489462550933835      16.462658200701981      5.8079513314515472
    74   5   4.0      6.1224478719962567      3.5152456565694727      9.3240773025799548
    75   5   4.0      3.3519788585207664      4.7895836140720194      4.9897513413417727
    76   5   4.0      2.0368669705614653      4.6948782260967317      7.6745724509228443
    77   5   4.0      10.200227055182093      9.5403024881658052      1.8735644320222091
    78   5   4.0      3.8755204321492447      11.545666051024424      5.2769000635641063
    79   5   4.0       6.011186957880744      10.354156916108119      9.7452857306986278
    80   5   4.0      15.616219698333074      14.900536440347144     0.83556534093605161
    81   5   4.0       16.65876490755759      11.138760106461161      4.7743210911192815
    82   5   4.0      17.338791310380461      11.993171969902116      12.243593981691363
    83   5   4.0      6.3882293510923818      5.7368547110456429      4.3658479383841708
    84   5   4.0      13.456132902414369      7.6161290873577956      3.2685163504690387
    85   5   4.0      6.8433445486795126      14.519960265263197      8.8724053602055424
    86   5   4.0      11.921947558984266      1.6373280878008136      5.7958287154112034
    87   5   4.0      18.547425453069415      15.411197023951834      7.9399703359652065
    88   5   4.0      13.676994773842686      4.7757094134492268      12.530013918667544
    89   5   4.0       1.386738051098197      6.6851595479538402      3.2524945140779296
    90   5   4.0      12.270408361816266      12.628950379055793      12.014414179846593
    91   5   4.0       2.917410244322185       14.13850763121664      10.284578205419614
    92   5   4.0      9.4442953423538203      9.3451119196764978      12.338095861032363
    93   5   4.0       13.54836677574035      17.590841436654436      7.0966316031213372
    94   5   4.0      15.847283486789163      4.6885570983232645      10.268647363946126
    95   5   4.0      10.652473210939421      9.2740175915157632      9.6073421198314115
    96   5   4.0      6.7431992653195385      16.817683078482187      12.317807512560067
    97   5   4.0      1.7191248295630999      7.5321973251186067      8.0192911793536243
    98   5   4.0      11.585656554950228      17.832187744137407     0.17022340719029663
    99   5   4.0       3.821455324532347      16.278980181645998      2.7753813626402155
   100   5   4.0        7.45790813182193      13.788323141890595      11.865206391274471
   101   5   4.0      11.496926381034093      2.6149955510484939      11.464186564218323
   102   5   4.0      2.1107133908279692      11.428864184914774      9.6686179661638949
   103   5   4.0      15.823297941220819      11.555627002565529      9.9399178859488746
   104   5   4.0      17.545865094273271      17.825017224870944      3.7059892808227528
   105   5   4.0      11.000888037159598      11.574555199845676      4.0728802345251829
   106   5   4.0      13.401597146749817      4.1491005989945622      1.8972422573861218
   107   5   4.0      10.310825052639464      15.682819049127486      6.3496281522609284
   108   5   4.0      18.759496023090474       18.57393106084287      12.016828386169658
   109   5   4.0      2.5893961280576256      10.659503883610853       12.75636230282411
   110   5   4.0      5.8710282037339372       14.18563846624162      2.3449322614401669
   111   5   4.0      8.2260439322806747      7.7318127381062602      5.8063038907709883
   112   5   4.0      11.061337193043109      18.119771753910062      8.1766707862293462
   113   5   4.0      7.2348363422610431      1.4830301094666418      4.8106502082446934
   114   5   4.0      15.371528629781359       1.841486013029372      10.680617106852646
   115   5   4.0      16.239580968674087      6.7715804057896865      3.5872972372070691
   116   5   4.0      4.8969558434493088      1.4732027492184943      2.9341698264290317
   117   5   4.0      18.611027463453883      8.2322722626997979      9.0090959380042932
   118   5   4.0      9.0808939574469836      1.7688208830809369      2.3013800190238238
   119   5   4.0     0.11490536921869218      4.0796789341928053      2.0637800834607081
   120   5   4.0      9.9138633757982504      13.995711232942366      8.6275160459817197
   121   5   4.0      18.142805853302399      2.5470586827875108      7.8748853691981839
   122   4  -2.0      2.2765365210783912      15.981505579780526      2.8691258934122064
   123   4  -2.0      4.4053493155029324      17.490488297871213      9.9070279945154311
   124   4  -2.0      12.844991556310672      5.1842475114738988      5.9820567308420962
   125   4  -2.0      7.9752066774086332      17.054648271122012      4.1350362928910078
   126   4  -2.0      18.132879227479094      5.9895035696445209      6.3312746269400613
   127   4  -2.0      6.6321274233004228      4.3990598776315819      10.524439476170333
   128   4  -2.0      10.613784572226788      7.6931293260645743      9.6233592664023462
   129   4  -2.0      15.169738603359407      17.814204596347544      7.1542459925925259
   130   4  -2.0      13.508243980601195      7.1391390304857616      1.7391888476448212
   131   4  -2.0      8.8224760378345533      4.3300810492185144      7.2336762115160838
   132   4  -2.0      13.391751173252381       13.43875981351488      6.1975076191037459
   133   4  -2.0       13.65873944907392      17.478463138923043      3.4983726307738618
   134   4  -2.0      10.456397475559793      17.021332377337149     0.91608609573959565
   135   4  -2.0       15.49552862933497      1.4136093912914736      5.5386941336468096
   136   4  -2.0      6.9477099214746394      13.828674890505711      10.334668487494039
   137   4  -2.0      8.1191856584541249      1.5939024287892667      1.0925623267507509
   138   4  -2.0        6.77990430389299      17.634327823718234      10.910068881996963
   139   4  -2.0      10.888680718826389      9.5515488955994368     0.42087617923336812
   140   4  -2.0      15.529420973322326      1.4644438548742713      12.186257766673423
   141   4  -2.0      7.4946322481549563      10.799602866245875      9.3525223767999517
   142   4  -2.0       16.56773290379045      18.530268803808358      2.6302047513422844
   143   4  -2.0     0.44360131571622202      14.155329603181197      8.2028918612465542
   144   4  -2.0      16.701231541557231      5.2370803602666109      3.5440908244661045
   145   4  -2.0      8.0634296772098608      9.3184510645660641      5.9355588264998485
   146   4  -2.0      9.8064388937555176      3.2352954400800074      2.1095149023433528
   147   4  -2.0      11.741504766457499      1.0825906932508804      11.979245811454392
   148   4  -2.0     0.61523223955789463       4.285822470801377      7.0742646311120518
   149   4  -2.0      2.2092370254594358      7.5345730247882168      2.1211803213876301
   150   4  -2.0     0.68141848255867743      7.5408922110560788      6.7486972743859148
   151   4  -2.0      17.210428929300488      15.194397779106756      1.0282992890666776
   152   4  -2.0      15.119339012587263      15.436862364813694      10.111819814093923
   153   4  -2.0      10.744901195331733      16.817641449894499      7.2745119027269851
   154   4  -2.0      2.9209794062871186      6.1651178146917118     0.03066685605219565
   155   4  -2.0      16.855541584840335      5.8469732671129178      10.477851912878327
   156   4  -2.0      4.8137430929448932      5.3148833946952774      4.5508929117692691
   157   4  -2.0      6.9516491983670896      2.1240087491054065      9.2375466234616752
   158   4  -2.0      9.3604654127715037      18.665137012125079      11.536397282643607
   159   4  -2.0      2.6300243778496437      10.486070552458992      8.5287257177528826
   160   4  -2.0      15.042930792999439      3.9439731683176702      5.6832469340978253
   161   4  -2.0     0.46779867333295827      7.6276739286369617      4.1894347928686244
   162   4  -2.0      18.554359178524546      3.4679423217984717      4.2730911278968957
   163   4  -2.0      10.960788231932218      10.533485072608356      2.8830942852716843
   164   4  -2.0     0.23141704203371957      9.7845476556761231      5.7553721608997046
   165   4  -2.0       1.233696454346616       16.33439222548672      6.4830052338555859
   166   4  -2.0      18.026590223735347      14.601653855890666      9.2328179623900812
   167   4  -2.0      4.3929922085008677      14.818626065074836        2.26233213649114
   168   4  -2.0      5.8858505456313681      17.039563850613821    0.087963013160201706
   169   4  -2.0      3.2757019164467573      1.0064977120793601      5.1609008193083588
   170   4  -2.0      15.724975101831927     0.59297894502096804      9.7648622251786623
   171   4  -2.0      13.635048699890977      4.5323355529905367      3.4314096807473469
   172   4  -2.0        4.44568235340736      15.071215770377837       6.522345043201585
   173   4  -2.0      18.376607032942392      15.365203448741761      11.737743404864103
   174   4  -2.0      18.505878991772317       4.093735398139426      8.1127147912833628
   175   4  -2.0      3.7591592595678351      10.257115761077488      6.1978151072832084
   176   4  -2.0      8.1565688176133069      11.685317422943619      7.0134949592217479
   177   4  -2.0      12.310571295379589      12.216907867340566      10.468189545718685
   178   4  -2.0      17.569812542445597      3.3903495975114692      1.8467015160531952
   179   4  -2.0      10.660951159905579      14.488373226302143     0.29549879663371559
   180   4  -2.0      10.325971166261818      16.444332392435847      11.509227203091427
   181   4  -2.0      17.407565071951723      16.407346406730401      7.3407364802996247
   182   4  -2.0      17.282094773573164       7.471239421612891      4.5970830784336618
   183   4  -2.0       4.613660996781098       2.997210242429234      9.7325558804177508
   184   4  -2.0      14.855819800799424      17.989215015766774      10.436462892282385
   185   4  -2.0      13.017945069586823      18.447403168607472      5.7935804143565948
   186   4  -2.0       7.247615475765854       4.550647298361052      4.9885823855015072
   187   4  -2.0      6.9247980351286014      11.359633288389386      4.7764904757083109
   188   4  -2.0      3.3084842865285324      2.1402689905727357     0.34508887217961748
   189   4  -2.0      18.251737752765287      16.644551751914449      2.9439319054343347
   190   4  -2.0      15.245587324481683      9.0927096474004951     0.95215260504147048
   191   4  -2.0      6.7589317539727514      15.389542034544029      2.9010688254355173
   192   4  -2.0      5.1148911179058141         10.030344611816      8.3860990098005193
   193   4  -2.0       16.71512381112634      17.410890340681679      5.0497623839408625
   194   4  -2.0      11.027010251889985      15.453211994152017      4.9465400513780367
   195   4  -2.0      6.4580355480365546       6.582781274013163      11.850416273222693
   196   4  -2.0      17.502334676001233      1.2059008244698977      4.2634985803959387
   197   4  -2.0      8.4311505481648688      6.8474787534203561      7.1849079874591482
   198   4  -2.0      12.696239783028771      18.023001285909292      8.3520376540990515
   199   4  -2.0      2.4709867506621044      3.4599232465732328      8.5493959223117759
   200   4  -2.0      10.334536294665444      17.861423170919323       9.524581234672306
   201   4  -2.0       7.371995693105454      15.325018538140556       12.25443600042121
   202   4  -2.0     0.58576693562638871      11.743450564502309      9.4322037662111313
   203   4  -2.0      12.737641260942905     0.30620940849673689      6.0308003668270524
   204   4  -2.0      18.189026758645884      12.890048002834108      11.186649229015142
   205   4  -2.0      2.8627248974241684      12.851179413625077      9.3571723406337171
   206   4  -2.0      16.311493121834584      7.3706610235879397       2.127446524404629
   207   4  -2.0      1.3136559709520625      3.0975485681644379      1.6169330626830642
   208   4  -2.0      1.3709471267090507     0.15825302647976269      11.781693710278587
   209   4  -2.0      6.3076319880030187      13.691345872511157     0.87020905434777629
   210   4  -2.0      8.8585323033178582      13.097667945815434      12.086627739219711
   211   4  -2.0      11.587850675012168     0.40197616197941083      8.6944709272660017
   212   4  -2.0      15.745908424302691      10.270613751252275      3.7463595357642498
   213   4  -2.0      12.351119446098542      4.6227449516012804      8.2547367739453428
   214   4  -2.0      18.085035949744306      9.0374034071320413      7.7650199466584668
   215   4  -2.0      14.663791924707906      4.9973809351422362      11.372719085443995
   216   4  -2.0     0.61789865175611425      5.5337131881350929      2.3721205672761703
   217   4  -2.0      5.1475987005873121      11.400981103405755      10.612976950891779
   218   4  -2.0      14.753241091658197      15.890223372778388      1.6472966180194173
   219   4  -2.0      14.363747052853093      11.089705874883569      9.4955333200406447
   220   4  -2.0      4.2029930412246168       17.39170538817886       1.719449318129548
   221   4  -2.0      6.1428931991920646      15.999876957869169      9.0001108584149669
   222   4  -2.0       2.952086314816849      15.585390636828411      9.5619464352333026
   223   4  -2.0       5.877010908615329      13.672285386202613      7.8769875435262886
   224   4  -2.0      2.3263494742847119      10.921923209479685      11.141058121850673
   225   4  -2.0      16.289564788098005      11.128899435974201      11.411301556044496
   226   4  -2.0      3.8346313860729921      0.7522254076177789       12.09689813756254
   227   4  -2.0     0.31761888553257128     0.20958522679552616      8.2238365438259518
   228   4  -2.0      12.628680524328054      3.6028009276256232      12.123417119244941
   229   4  -2.0      18.222592962425352      11.131088151761347       4.423654838356895
   230   4  -2.0       10.29031416032387      8.1156029242346772      2.5502735364153839
   231   4  -2.0      1.2807345851046783      14.281933864998461      1.0756543863380108
   232   4  -2.0      3.2566898722928808      1.7673381690760739      2.9008776420800388
   233   4  -2.0       9.835673167985199      15.178503828980356      2.6758568752686567
   234   4  -2.0      6.1488087786208574      18.568371817721985      8.4406920568253234
   235   4  -2.0      18.083601620684949      1.2273292779792113     0.36383075125235609
   236   4  -2.0      4.6073081309967883      11.081139776577386      3.9658927873532388
   237   4  -2.0      8.3675517046448533        2.00210352812051      3.7625607115451705
   238   4  -2.0      3.1297102425891965      8.1579419599237699       7.635746728320024
   239   4  -2.0      8.3635786477545633      15.751659495793216     0.37985016137863448
   240   4  -2.0      0.1189673635756882      17.945111046017647      4.9394956300575972
   241   4  -2.0       16.54460867386555      2.5646553949297308      7.5543291515048132
   242   4  -2.0      11.308736616763095      2.6600853607208563      9.9042156112083894
   243   4  -2.0      18.679308985452632        1.64022012778875      9.1084201276053633
   244   4  -2.0      2.7383661379674358     0.96203381953884204       9.369645447784011
   245   4  -2.0      10.234052723969423     0.69509121078064262      2.4114038094238355
   246   4  -2.0      14.066401868902766      11.421092720825172      2.4692603604248964
   247   4  -2.0      15.755671524249868      13.126548263322046      9.9964514694952431
   248   4  -2.0      12.524453968591805      11.930068766985331      7.7356808616258732
   249   4  -2.0      10.848941738141058      6.0645572385596909      7.0638926944752614
   250   4  -2.0       9.464641476712444      5.6856446077864611       9.271670794957652
   251   4  -2.0      14.719123592916608      7.0145884691982321      4.1425507355747486
   252   4  -2.0      12.061497177943769       7.116746276331523      3.9947731402075575
   253   4  -2.0      15.099437028955817      14.245034110999413      7.9806112388095807
   254   4  -2.0      3.0839636284828518      5.0467562856209902      6.5087816832790351
   255   4  -2.0      6.1342039655170399      4.2077612268533189       7.852079632920125
   256   4  -2.0      5.5747325781726502      2.3041745012049892      1.8461366451487844
   257   4  -2.0      16.212956747466773      12.658233313451147      4.6742178288010319
   258   4  -2.0      12.814553611443396      2.7998343804615811      5.0853984007385575
   259   4  -2.0      9.5721639286829419      5.5835905729662754     0.73586827589826598
   260   4  -2.0      12.536940139481093      12.753285680403364     0.79990981000832684
   261   4  -2.0      13.958420652074564      2.5682502332210149      7.4335810883873608
   262   4  -2.0      16.571206787270331      10.636355644872825       6.284988162627549
   263   4  -2.0      11.830311265688493      14.215944003150968      12.061802916703025
   264   4  -2.0       10.18833092546404      3.1120019706773148      12.303077786410856
   265   4  -2.0      5.8716821766878082      12.864692790506787       3.250975238610188
   266   4  -2.0      7.4020508812669812    0.066928923974870075      8.2025718795036298
   267   4  -2.0      5.8101262071868867       1.906672263355393      4.2485997756163707
   268   4  -2.0      15.132469350721834      13.461816016658268      1.1356422336356249
   269   4  -2.0      10.893896829376116      1.2020300914278934      4.6695095557410413
   270   4  -2.0      10.486050150574714      14.220525013527576      7.1331629631205695
   271   4  -2.0      1.0083177561140881      8.3171582163907694      9.2104613279314052
   272   4  -2.0      16.247655791876571      18.451097341243333     0.10194958810844991
   273   4  -2.0      9.7008992150274516      9.8887978806890864      8.4755214464532891
   274   4  -2.0      6.0638301665246361      8.9953639166338792      10.660057988421327
   275   4  -2.0       14.27847635551174     0.11947367502355868      1.4010572367181109
   276   4  -2.0      1.6188996928247807      14.430700413121127      11.233344557596734
   277   4  -2.0      1.1510907348699828      1.6509617674644441       4.144113119167069
   278   4  -2.0      6.7506671117832067      6.0551420386726544      2.8155487021076016
   279   4  -2.0      2.1710242308192855      17.876478881754895      9.2273897004926848
   280   4  -2.0      4.3760635012581801      17.865537022013612      6.7437587864236255
   281   4  -2.0      2.5825038386051138      18.325881982481878      4.7505946432602979
   282   4  -2.0      13.613117156218113      9.1990454570753908      3.3140128204587067
   283   4  -2.0      7.4359520186327188       2.064620856430806      6.2837791001723469
   284   4  -2.0      6.4507895067053616      10.631141497326972      2.5176135270982525
   285   4  -2.0      12.063508974262685      9.8652040398950991      9.3072095029050192
   286   4  -2.0      6.4360846939212202       16.44497061350171      5.8245969991399882
   287   4  -2.0       9.542093260928274      11.328637730777341      4.8719433971752224
   288   4  -2.0      2.8183455952767473      3.3415316028108974      4.5849385615538214
   289   4  -2.0      8.7457566925986221      15.908756564971872      6.0805561757011599
   290   4  -2.0      13.554847614159751      15.979003007073457       6.842366755791093
   291   4  -2.0      15.461794300288231      1.7072734778572334      3.1323692051619538
   292   4  -2.0      18.724891917473986      9.9455119793196456      2.1908170929562805
   293   4  -2.0      12.475043520176179      15.324612823159482      2.6966820099973612
   294   4  -2.0      2.2861676455424149      2.6085778461873494      11.125537788168351
   295   4  -2.0       10.80981926188325      14.736906964644771      9.6896341754287008
   296   4  -2.0      13.510292323206311      2.5631617061119538       1.741277790745001
   297   4  -2.0      9.5028951560584947      7.4707864454915587      4.8699410821307936
   298   4  -2.0      14.004838117940206      2.4313233657808864      10.083827150428855
   299   4  -2.0      1.8325008253039821     0.36697237384967762      1.2234140784398098
   300   4  -2.0      11.232812800125961      2.3181613061942614      7.1000505377998993
   301   4  -2.0      8.6540603909184277      9.9151879692478566      1.7678225159737453
   302   4  -2.0      8.3809969252970351      14.603937776201215      8.4643513144760512
   303   4  -2.0      6.8721233255927965      8.4051333598933766      1.6153152048291017
   304   4  -2.0      5.0489946176206768     0.22029787684782653      6.8980986299077429
   305   4  -2.0      9.2456765322108474      1.5301227554314929      8.7088060961395932
   306   4  -2.0      1.8985943688667923      6.0422112472746559      8.4955399506524216
   307   4  -2.0       9.591544441594797      12.474490366950812      9.0105971267728826
   308   4  -2.0      10.211087946622433      5.5115153426847154      3.2993159825111813
   309   4  -2.0        15.0285649370034      4.7111145976389484      8.8870856046092666
   310   4  -2.0      12.865703746109142      17.510150132288434      1.0620895953151825
   311   4  -2.0      10.860898751127978       5.914681064939094      11.260200193624074
   312   4  -2.0      16.778483703588631      14.599481345394851      3.4049318021879662
   313   4  -2.0      11.139292118331294      13.107051350434984      3.5540757696877785
   314   4  -2.0      4.4840726708882048      16.388010354675469       4.250805267474222
   315   4  -2.0      4.6917644554562852       7.191542911246203      1.7763219015469038
   316   4  -2.0      12.774594960698289      16.252075621324725      10.681137510709821
   317   4  -2.0      7.9518204466265781      18.278029677108666      6.2447978109486941
   318   4  -2.0       11.90857813621102      4.6077108576151948      1.5638639829928032
   319   4  -2.0      4.1111003448538401      13.746599478297789      11.271060265292695
   320   4  -2.0      6.3732535099649033      6.0701121408458087     0.19707447625967303
   321   4  -2.0      6.8331808465710058      7.1534245662573142      5.0598924807915155
   322   4  -2.0      8.2675584853640061      8.4007042399281922      11.769457563977955
   323   4  -2.0      17.571187079133438      8.2749170509609602       10.27939736181894
   324   4  -2.0      15.418098785178371       14.76591378489054       5.392793738615083
   325   4  -2.0      1.5314311420275175      13.898013607173935      5.9375684826301605
   326   4  -2.0      16.900823664182401      11.111120864557517      8.8035797531240796
   327   4  -2.0       15.71031040379105      2.2287312315920351     0.47974345099463628
   328   4  -2.0      3.5409204406895007      8.6579919636923606   0.0056788889646127152
   329   4  -2.0      6.5146058155289568      17.669115167833528      2.3146311767953311
   330   4  -2.0      10.119859416810151      9.9559564078755081       11.04845388825372
   331   4  -2.0      4.5276984796687092      12.706997107839126      6.1355759123729543
   332   4  -2.0      18.748025808956292      2.0351859264653269       6.478551094092154
   333   4  -2.0       1.050845404758193      13.799556978554723      3.6021289117491446
   334   4  -2.0       2.440435002979418      12.119601962696253      4.7158556373187546
   335   4  -2.0      14.437663566102074      4.7567294575043668     0.83492248031858218
   336   4  -2.0      16.315256722383335      3.1756195529603843      10.498514493546811
   337   4  -2.0      12.004165318892491      11.558943221386262      5.3394166516340551
   338   4  -2.0      2.3793509143530276       5.843377860747859       4.156012597500867
   339   1   3.0      13.549105166226578      3.5039172802493619      8.8228219910233232
   340   1   3.0      7.2850051701975396      3.7401047682500153      6.6511395761061145
