Date              = Sun Feb 15 12:46:01 PM PST 2026
Hostname          = compute073
Working Directory = /home/sabeel/VOCC_Simulation/structures/BorosilicateGlassSlab/Trial2
--- Starting Simulation ---
LAMMPS (22 Jul 2025 - Update 3)
OMP_NUM_THREADS environment is not set. Defaulting to 1 thread.
  using 1 OpenMP thread(s) per MPI task
Reading data file ...
  orthogonal box = (0 0 0) to (12 12 15.023781)
  2 by 2 by 5 MPI processor grid
  reading atoms ...
  162 atoms
  read_data CPU = 0.005 seconds
Setting atom values ...
  1 settings made for charge
Setting atom values ...
  8 settings made for charge
Setting atom values ...
  40 settings made for charge
Setting atom values ...
  102 settings made for charge
Setting atom values ...
  11 settings made for charge
--- STARTING SOFT RAMP ---
Generated 0 of 10 mixed pair_coeff terms from geometric mixing rule
Neighbor list info ...
  update: every = 1 steps, delay = 0 steps, check = yes
  max neighbors/atom: 2000, page size: 100000
  master list distance cutoff = 4.5
  ghost atom cutoff = 4.5
  binsize = 2.25, bins = 6 6 7
  1 neighbor lists, perpetual/occasional/extra = 1 0 0
  (1) pair soft, perpetual
      attributes: half, newton on
      pair build: half/bin/atomonly/newton
      stencil: half/bin/3d
      bin: standard
Setting up Verlet run ...
  Unit style    : metal
  Current step  : 0
  Time step     : 0.001
Per MPI rank memory allocation (min/avg/max) = 3.193 | 3.193 | 3.193 Mbytes
   Step          Temp          E_pair         E_mol          TotEng         Press     
         0   300            0              0              6.243265       3082.401     
       100   2502.4855      46.527886      0              98.60682       102640.44    
       200   3457.4308      64.622062      0              136.57425      177006.08    
       300   4246.5683      77.810905      0              166.18574      252064.4     
       400   4346.475       99.978082      0              190.43207      310084.49    
       500   5172.1369      104.60506      0              212.2418       361504.81    
       600   5694.9379      113.16482      0              231.68151      400910.99    
       700   6691.363       109.55649      0              248.80966      468906.04    
       800   6613.1231      127.65758      0              265.28251      489160.23    
       900   6665.7798      142.2153       0              280.93607      573784.88    
      1000   7140.4157      147.24131      0              295.83967      618544.2     
      1100   8081.1416      141.28958      0              309.46527      638815.37    
      1200   7840.6173      159.09071      0              322.26088      671096.02    
      1300   9161.7607      144.12728      0              334.79161      704500.2     
      1400   7992.4361      180.76298      0              347.09263      795239.06    
      1500   9383.4469      163.46139      0              358.73921      793839.37    
      1600   8940.4777      184.04731      0              370.10655      853604.69    
      1700   9057.4994      192.87197      0              381.36654      890627.27    
      1800   9882.0405      186.38106      0              392.03505      962271.98    
      1900   9567.9658      203.49448      0              402.6123       1030638.6    
      2000   10409.727      195.68712      0              412.32273      1005908.9    
      2100   10135.788      211.31936      0              422.25406      1056126.4    
      2200   11178.949      199.30958      0              431.95339      1042426.8    
      2300   10618.041      219.89728      0              440.8681       1125099.9    
      2400   11275.438      215.4997       0              450.15152      1144767.4    
      2500   11008.771      230.1236       0              459.22584      1173165.2    
      2600   12085.366      215.85567      0              467.36282      1225432.4    
      2700   12640.247      212.72873      0              475.78343      1202989      
      2800   12128.041      231.46306      0              483.85831      1281614.8    
      2900   12125.615      239.34438      0              491.68914      1269509.8    
      3000   13478.877      218.72756      0              499.23488      1296296.7    
      3100   13546.402      224.83039      0              506.74298      1381931.2    
      3200   12544.15       254.35788      0              515.41272      1436703.8    
      3300   12925.091      254.59305      0              523.57561      1427473.4    
      3400   14361.723      230.92123      0              529.80137      1398422.5    
      3500   13487.461      256.98558      0              537.67156      1496431.8    
      3600   14387.552      245.61563      0              545.03329      1502029.9    
      3700   13368.133      274.31718      0              552.51984      1583056.5    
      3800   13872.369      271.59069      0              560.28693      1572755.8    
      3900   13623.281      283.35797      0              566.87048      1658530.3    
      4000   15210.248      257.87812      0              574.41682      1593252.6    
      4100   14648.622      276.14767      0              580.99844      1716894.6    
      4200   14953.003      276.89221      0              588.07741      1728325.1    
      4300   15183.198      279.306        0              595.28177      1724785.2    
      4400   13882.846      312.55227      0              601.46656      1845320.1    
      4500   14771.047      300.0901       0              607.48863      1823320.9    
      4600   15175.738      298.78019      0              614.6007       1836724.5    
      4700   16108.695      285.68172      0              620.91789      1857186.2    
      4800   15900.776      297.7071       0              628.61629      1888593.3    
      4900   15465.219      313.73184      0              635.5767       1921212.2    
      5000   15599.123      315.9696       0              640.60112      2017574.6    
      5100   16487.849      302.19815      0              645.32486      1960142.7    
      5200   16414.349      310.05944      0              651.65653      2067625.2    
      5300   17336.561      297.30718      0              658.09632      2050136.6    
      5400   18073.671      287.85043      0              663.9795       1935163.2    
      5500   16618.81       323.47405      0              669.32617      2110103.9    
      5600   17416.299      311.96034      0              674.40891      2104116.2    
      5700   17395.578      320.68281      0              682.70014      2155965.9    
      5800   18477.733      301.97979      0              686.51773      2108326.2    
      5900   17081.175      337.03904      0              692.51339      2250767.3    
      6000   18605.536      313.2023       0              700.39993      2181085.8    
      6100   17004.03       354.3105       0              708.17938      2339210.2    
      6200   19372.649      309.74818      0              712.91013      2141821.4    
      6300   18354.489      337.73223      0              719.70535      2236969.4    
      6400   18385.126      341.51113      0              724.12185      2270941.1    
      6500   18507.865      345.74533      0              730.91035      2369987.9    
      6600   19042.833      340.78741      0              737.08559      2402791.9    
      6700   18832.868      352.71514      0              744.64375      2391001      
      6800   19997.909      332.10455      0              748.2787       2382963.8    
      6900   18653.592      366.29053      0              754.48826      2540353.2    
      7000   19578.293      353.67947      0              761.12105      2525365.3    
      7100   17022.471      412.17043      0              766.42309      2732903.8    
      7200   19728.23       361.80992      0              772.37181      2470141.3    
      7300   18843.456      388.21705      0              780.36601      2663463      
      7400   22228.556      324.87687      0              787.47276      2480132.4    
      7500   21299.302      349.59598      0              792.85327      2554971.1    
      7600   19852.907      385.46479      0              798.62133      2648301.2    
      7700   19217.991      406.43226      0              806.37563      2728248.6    
      7800   21662.711      361.10663      0              811.92677      2505242.3    
      7900   20913.549      384.49129      0              819.72072      2758978.5    
      8000   21947.072      370.07764      0              826.81559      2647414.8    
      8100   21972.919      376.70857      0              833.98442      2747605.8    
      8200   21646.128      393.1806       0              843.65564      2855117.6    
      8300   20590.837      422.8377       0              851.35121      2890581.1    
      8400   20691.635      421.37546      0              851.98666      2985736.2    
      8500   22663.802      384.62575      0              856.2795       2849146.8    
      8600   22643.674      388.44732      0              859.68217      2842999      
      8700   21154.936      427.79194      0              868.04483      2982659      
      8800   22189.728      408.94918      0              870.73703      3036171      
      8900   22096.575      421.46375      0              881.31298      2975331.8    
      9000   24663.013      372.79585      0              886.05493      2859554.5    
      9100   21141.259      454.15098      0              894.11926      3190562.8    
      9200   23865.344      404.0311       0              900.68999      2960430.3    
      9300   23167.4        428.31876      0              910.45282      3129510.1    
      9400   22056.459      454.55589      0              913.57029      3236818.5    
      9500   23526.14       435.7754       0              925.37514      3117122.8    
      9600   24075.618      433.30308      0              934.33797      3116484.2    
      9700   23724.788      449.09977      0              942.83357      3280100.7    
      9800   23405.109      467.15482      0              954.23582      3256852.6    
      9900   24969.861      442.97732      0              962.62218      3215390.4    
     10000   25057.395      445.71798      0              967.18451      3470792.6    
Loop time of 0.299741 on 20 procs for 10000 steps with 162 atoms

Performance: 2882.493 ns/day, 0.008 hours/ns, 33362.189 timesteps/s, 5.405 Matom-step/s
98.5% CPU use with 20 MPI tasks x 1 OpenMP threads

MPI task timing breakdown:
Section |  min time  |  avg time  |  max time  |%varavg| %total
---------------------------------------------------------------
Pair    | 0.024476   | 0.025952   | 0.027531   |   0.5 |  8.66
Neigh   | 0.0084341  | 0.0088409  | 0.0091147  |   0.2 |  2.95
Comm    | 0.19218    | 0.1989     | 0.20526    |   0.8 | 66.36
Output  | 0.0017968  | 0.0022701  | 0.010097   |   3.8 |  0.76
Modify  | 0.022297   | 0.024241   | 0.03186    |   1.3 |  8.09
Other   |            | 0.03954    |            |       | 13.19

Nlocal:            8.1 ave          10 max           6 min
Histogram: 2 0 4 0 0 6 0 6 0 2
Nghost:          191.1 ave         204 max         175 min
Histogram: 1 0 1 3 3 5 1 4 1 1
Neighs:         107.35 ave         132 max          79 min
Histogram: 1 0 1 5 3 3 1 3 1 2

Total # of neighbors = 2147
Ave neighs/atom = 13.253086
Neighbor list builds = 795
Dangerous builds = 0
--- SOFT RAMP COMPLETE ---
PPPM initialization ...
WARNING: System is not charge neutral, net charge = 114.894
For more information see https://docs.lammps.org/err0029 (src/kspace.cpp:330)
  using 12-bit tables for long-range coulomb
  G vector (1/distance) = 0.28421045
  grid = 8 8 10
  stencil order = 5
  estimated absolute RMS force accuracy = 0.00091225394
  estimated relative force accuracy = 6.335253e-05
  using double precision KISS FFT
  3d grid and FFT values/proc = 1089 32
Generated 0 of 10 mixed pair_coeff terms from geometric mixing rule
Neighbor list info ...
  update: every = 1 steps, delay = 0 steps, check = yes
  max neighbors/atom: 2000, page size: 100000
  master list distance cutoff = 12
  ghost atom cutoff = 12
  binsize = 6, bins = 2 2 3
  1 neighbor lists, perpetual/occasional/extra = 1 0 0
  (1) pair buck/coul/long, perpetual
      attributes: half, newton on
      pair build: half/bin/atomonly/newton
      stencil: half/bin/3d
      bin: standard
Setting up cg style minimization ...
  Unit style    : metal
  Current step  : 10000
Per MPI rank memory allocation (min/avg/max) = 4.814 | 4.816 | 4.818 Mbytes
   Step          Temp          E_pair         E_mol          TotEng         Press     
     10000   25057.395     -781.72609      0             -260.25956      1363555.5    
     10074   25057.395     -1072.1916      0             -550.72503      1317062.7    
Loop time of 0.0373792 on 20 procs for 74 steps with 162 atoms

97.3% CPU use with 20 MPI tasks x 1 OpenMP threads

Minimization stats:
  Stopping criterion = energy tolerance
  Energy initial, next-to-last, final = 
     -781.726094370832   -1072.1157036253  -1072.19155443804
  Force two-norm initial, final = 60.879882 5.8500347
  Force max component initial, final = 11.414262 2.487913
  Final line search alpha, max atom move = 0.04738369 0.1178865
  Iterations, force evaluations = 74 119

MPI task timing breakdown:
Section |  min time  |  avg time  |  max time  |%varavg| %total
---------------------------------------------------------------
Pair    | 0.0059515  | 0.010513   | 0.014242   |   2.4 | 28.13
Kspace  | 0.014486   | 0.018325   | 0.022953   |   1.8 | 49.03
Neigh   | 0.00019122 | 0.00025331 | 0.00030052 |   0.0 |  0.68
Comm    | 0.0065937  | 0.0067044  | 0.0068312  |   0.1 | 17.94
Output  | 0          | 0          | 0          |   0.0 |  0.00
Modify  | 0          | 0          | 0          |   0.0 |  0.00
Other   |            | 0.001583   |            |       |  4.23

Nlocal:            8.1 ave          11 max           5 min
Histogram: 1 3 0 3 0 5 3 0 4 1
Nghost:         1814.4 ave        1862 max        1786 min
Histogram: 1 6 3 0 4 2 2 1 0 1
Neighs:         2195.3 ave        2904 max        1391 min
Histogram: 2 3 1 1 2 0 3 2 4 2

Total # of neighbors = 43906
Ave neighs/atom = 271.02469
Neighbor list builds = 3
Dangerous builds = 0
--- RELAXING AT 300K FOR 60ps ---
PPPM initialization ...
  using 12-bit tables for long-range coulomb
  G vector (1/distance) = 0.28421045
  grid = 8 8 10
  stencil order = 5
  estimated absolute RMS force accuracy = 0.00091225394
  estimated relative force accuracy = 6.335253e-05
  using double precision KISS FFT
  3d grid and FFT values/proc = 1089 32
Generated 0 of 10 mixed pair_coeff terms from geometric mixing rule
Setting up Verlet run ...
  Unit style    : metal
  Current step  : 0
  Time step     : 0.001
Per MPI rank memory allocation (min/avg/max) = 3.689 | 3.691 | 3.694 Mbytes
   Step          Temp          Press          Volume        Density         PotEng    
         0   25057.395      1317062.7      2163.4245      2.4794205     -1072.1916    
      1000   298.84016      1054773.5      2163.4245      2.4794205     -1082.0577    
      2000   278.40844      1053143.5      2163.4245      2.4794205     -1083.1612    
      3000   293.93544      1038211.7      2163.4245      2.4794205     -1085.5158    
      4000   261.03694      1043677        2163.4245      2.4794205     -1085.3431    
      5000   292.7793       1042256.9      2163.4245      2.4794205     -1086.6793    
      6000   304.3852       1046939.9      2163.4245      2.4794205     -1087.9054    
      7000   269.49038      1043181.7      2163.4245      2.4794205     -1087.5934    
      8000   308.58441      1046936.5      2163.4245      2.4794205     -1087.4678    
      9000   252.78697      1042900        2163.4245      2.4794205     -1087.8744    
     10000   333.24115      1049766.3      2163.4245      2.4794205     -1089.2522    
     11000   277.72997      1041249.5      2163.4245      2.4794205     -1088.7936    
     12000   309.19273      1039260.7      2163.4245      2.4794205     -1089.138     
     13000   297.2207       1043383.3      2163.4245      2.4794205     -1089.4618    
     14000   311.30522      1032097.5      2163.4245      2.4794205     -1089.4377    
     15000   293.99475      1036829.8      2163.4245      2.4794205     -1088.9336    
     16000   301.76621      1043098.2      2163.4245      2.4794205     -1090.0698    
     17000   286.89935      1038608.6      2163.4245      2.4794205     -1089.0635    
     18000   277.93925      1033880.9      2163.4245      2.4794205     -1089.4212    
     19000   280.68278      1041560.2      2163.4245      2.4794205     -1089.7829    
     20000   290.44502      1032770.9      2163.4245      2.4794205     -1090.2791    
     21000   306.76366      1036708.2      2163.4245      2.4794205     -1089.3594    
     22000   283.61586      1035235.3      2163.4245      2.4794205     -1090.3181    
     23000   275.67636      1031215        2163.4245      2.4794205     -1089.6639    
     24000   302.19797      1035374        2163.4245      2.4794205     -1089.1783    
     25000   295.89263      1033712.3      2163.4245      2.4794205     -1090.4805    
     26000   286.71112      1033314.2      2163.4245      2.4794205     -1090.2231    
     27000   293.28466      1043788.4      2163.4245      2.4794205     -1090.1597    
     28000   331.85043      1037282.5      2163.4245      2.4794205     -1090.3301    
     29000   322.74917      1035003        2163.4245      2.4794205     -1090.6113    
     30000   305.50947      1034864.4      2163.4245      2.4794205     -1090.1439    
     31000   300.06769      1038410.2      2163.4245      2.4794205     -1089.6842    
     32000   273.66061      1037028.8      2163.4245      2.4794205     -1090.2234    
     33000   284.7742       1031350.4      2163.4245      2.4794205     -1089.1043    
     34000   302.74806      1037227.7      2163.4245      2.4794205     -1089.6796    
     35000   263.81724      1037114        2163.4245      2.4794205     -1089.7934    
     36000   287.05645      1037040.3      2163.4245      2.4794205     -1089.4709    
     37000   288.52727      1035621        2163.4245      2.4794205     -1094.1745    
     38000   308.90462      1034818.1      2163.4245      2.4794205     -1093.6298    
     39000   319.39478      1031575.8      2163.4245      2.4794205     -1096.0352    
     40000   331.28514      1032565.4      2163.4245      2.4794205     -1095.3924    
     41000   285.20094      1030409.8      2163.4245      2.4794205     -1095.8579    
     42000   331.76975      1032585.8      2163.4245      2.4794205     -1095.1604    
     43000   279.4029       1027369.3      2163.4245      2.4794205     -1095.5493    
     44000   293.49119      1030495.3      2163.4245      2.4794205     -1095.6976    
     45000   310.12962      1034280.9      2163.4245      2.4794205     -1095.5106    
     46000   340.61331      1029377.6      2163.4245      2.4794205     -1095.8827    
     47000   264.84539      1031106        2163.4245      2.4794205     -1096.5144    
     48000   294.19531      1027288.9      2163.4245      2.4794205     -1095.0196    
     49000   310.05069      1033886.5      2163.4245      2.4794205     -1095.2475    
     50000   303.98096      1035745.6      2163.4245      2.4794205     -1095.5958    
     51000   276.56616      1034560.6      2163.4245      2.4794205     -1095.3298    
     52000   294.18103      1034722.2      2163.4245      2.4794205     -1094.8703    
     53000   296.03148      1033884.4      2163.4245      2.4794205     -1095.6083    
     54000   293.63997      1031089.5      2163.4245      2.4794205     -1095.8708    
     55000   284.2721       1032698.2      2163.4245      2.4794205     -1095.1684    
     56000   276.11641      1032917.4      2163.4245      2.4794205     -1095.1267    
     57000   317.46897      1036616.9      2163.4245      2.4794205     -1095.9492    
     58000   289.49901      1036298.3      2163.4245      2.4794205     -1096.3317    
     59000   279.32095      1034738.5      2163.4245      2.4794205     -1096.3215    
     60000   320.05504      1032542.8      2163.4245      2.4794205     -1096.48      
Loop time of 14.9964 on 20 procs for 60000 steps with 162 atoms

Performance: 345.682 ns/day, 0.069 hours/ns, 4000.952 timesteps/s, 648.154 katom-step/s
99.6% CPU use with 20 MPI tasks x 1 OpenMP threads

MPI task timing breakdown:
Section |  min time  |  avg time  |  max time  |%varavg| %total
---------------------------------------------------------------
Pair    | 2.6404     | 3.7274     | 4.7043     |  32.1 | 24.86
Kspace  | 6.4519     | 7.4137     | 8.4833     |  22.9 | 49.44
Neigh   | 0.035792   | 0.042443   | 0.049117   |   1.8 |  0.28
Comm    | 3.3096     | 3.3449     | 3.3912     |   1.2 | 22.30
Output  | 0.0029139  | 0.0035784  | 0.0087898  |   2.1 |  0.02
Modify  | 0.20985    | 0.23625    | 0.25717    |   2.5 |  1.58
Other   |            | 0.2281     |            |       |  1.52

Nlocal:            8.1 ave          11 max           5 min
Histogram: 1 3 0 3 0 6 2 0 3 2
Nghost:        1810.65 ave        1860 max        1766 min
Histogram: 2 1 3 0 5 3 1 3 1 1
Neighs:         2200.4 ave        2828 max        1462 min
Histogram: 2 3 2 1 1 1 2 1 3 4

Total # of neighbors = 44008
Ave neighs/atom = 271.65432
Neighbor list builds = 507
Dangerous builds = 0
--- RELAXING STRUCTURE WITH NVT AND NVE ---
PPPM initialization ...
  using 12-bit tables for long-range coulomb
  G vector (1/distance) = 0.28421045
  grid = 8 8 10
  stencil order = 5
  estimated absolute RMS force accuracy = 0.00091225394
  estimated relative force accuracy = 6.335253e-05
  using double precision KISS FFT
  3d grid and FFT values/proc = 1089 32
Generated 0 of 10 mixed pair_coeff terms from geometric mixing rule
Setting up Verlet run ...
  Unit style    : metal
  Current step  : 60000
  Time step     : 0.001
Per MPI rank memory allocation (min/avg/max) = 4.94 | 4.942 | 4.944 Mbytes
   Step          Temp          Press          Volume        Density         PotEng    
     60000   320.05504      1032542.8      2163.4245      2.4794205     -1096.48      
     61000   330.77057      1034998.7      2163.4245      2.4794205     -1095.9375    
     62000   273.327        1032451.4      2163.4245      2.4794205     -1096.0427    
     63000   314.41222      1033186.1      2163.4245      2.4794205     -1096.22      
     64000   292.44303      1032792.8      2163.4245      2.4794205     -1096.3392    
     65000   299.65439      1033244.8      2163.4245      2.4794205     -1095.7916    
     66000   287.1937       1037667.8      2163.4245      2.4794205     -1095.9098    
     67000   288.12436      1035808.5      2163.4245      2.4794205     -1095.495     
     68000   305.92949      1032946        2163.4245      2.4794205     -1095.7763    
     69000   287.52291      1034526.8      2163.4245      2.4794205     -1097.0314    
     70000   296.13122      1032908.2      2163.4245      2.4794205     -1097.2916    
     71000   309.08969      1033314.9      2163.4245      2.4794205     -1096.4995    
     72000   268.0549       1027657.6      2163.4245      2.4794205     -1097.2857    
     73000   301.52107      1031955.1      2163.4245      2.4794205     -1097.1714    
     74000   315.65582      1029941.9      2163.4245      2.4794205     -1096.9195    
     75000   283.01983      1036300.2      2163.4245      2.4794205     -1096.9943    
     76000   334.72436      1032348.7      2163.4245      2.4794205     -1097.4442    
     77000   321.58622      1033123.7      2163.4245      2.4794205     -1096.5237    
     78000   321.7312       1032302.5      2163.4245      2.4794205     -1097.1106    
     79000   323.44376      1033486.9      2163.4245      2.4794205     -1097.029     
     80000   261.02456      1032172.3      2163.4245      2.4794205     -1096.8619    
     81000   271.62605      1034527.9      2163.4245      2.4794205     -1096.9996    
     82000   319.05544      1032787.5      2163.4245      2.4794205     -1097.0267    
     83000   286.2135       1031523.3      2163.4245      2.4794205     -1096.0423    
     84000   306.59785      1029473.3      2163.4245      2.4794205     -1097.1979    
     85000   255.68055      1032098.2      2163.4245      2.4794205     -1097.6864    
     86000   312.1757       1031976.2      2163.4245      2.4794205     -1097.8752    
     87000   319.49402      1030940.8      2163.4245      2.4794205     -1097.4663    
     88000   271.16076      1028793.3      2163.4245      2.4794205     -1097.1611    
     89000   284.05531      1035630.3      2163.4245      2.4794205     -1096.5       
     90000   321.33123      1032704.2      2163.4245      2.4794205     -1096.9251    
     91000   306.03594      1032725.8      2163.4245      2.4794205     -1096.8483    
     92000   278.96113      1033342.8      2163.4245      2.4794205     -1096.5144    
     93000   294.14515      1031744        2163.4245      2.4794205     -1096.9076    
     94000   283.67641      1029773.8      2163.4245      2.4794205     -1096.6664    
     95000   304.14185      1033095        2163.4245      2.4794205     -1096.7989    
     96000   286.84792      1034484.9      2163.4245      2.4794205     -1096.6288    
     97000   326.68197      1032489.1      2163.4245      2.4794205     -1096.5953    
     98000   310.19092      1029267.5      2163.4245      2.4794205     -1096.7317    
     99000   275.6797       1033535.4      2163.4245      2.4794205     -1097.456     
    100000   322.74823      1034604.1      2163.4245      2.4794205     -1096.8213    
    101000   296.18679      1034388.9      2163.4245      2.4794205     -1096.9095    
    102000   323.96173      1028700.2      2163.4245      2.4794205     -1096.4536    
    103000   301.98272      1034647.5      2163.4245      2.4794205     -1097.5903    
    104000   309.0016       1032313.9      2163.4245      2.4794205     -1097.2228    
    105000   299.24168      1033061        2163.4245      2.4794205     -1096.7845    
    106000   304.94542      1031950.9      2163.4245      2.4794205     -1097.288     
    107000   309.38157      1033633.9      2163.4245      2.4794205     -1096.9329    
    108000   262.49048      1030154.3      2163.4245      2.4794205     -1097.98      
    109000   284.35718      1033534.6      2163.4245      2.4794205     -1096.3094    
    110000   303.69705      1030303.2      2163.4245      2.4794205     -1097.6579    
Loop time of 12.9537 on 20 procs for 50000 steps with 162 atoms

Performance: 333.495 ns/day, 0.072 hours/ns, 3859.892 timesteps/s, 625.302 katom-step/s
99.6% CPU use with 20 MPI tasks x 1 OpenMP threads

MPI task timing breakdown:
Section |  min time  |  avg time  |  max time  |%varavg| %total
---------------------------------------------------------------
Pair    | 2.2139     | 3.0702     | 4.6878     |  35.1 | 23.70
Kspace  | 5.0391     | 6.6599     | 7.5099     |  23.7 | 51.41
Neigh   | 0.032616   | 0.037882   | 0.048744   |   2.0 |  0.29
Comm    | 2.7667     | 2.7935     | 2.8315     |   1.0 | 21.57
Output  | 0.0023983  | 0.0029371  | 0.0072314  |   1.9 |  0.02
Modify  | 0.16452    | 0.19969    | 0.22345    |   3.1 |  1.54
Other   |            | 0.1895     |            |       |  1.46

Nlocal:            8.1 ave          10 max           6 min
Histogram: 1 0 6 0 0 6 0 4 0 3
Nghost:        1808.15 ave        1832 max        1777 min
Histogram: 1 1 0 2 4 2 4 3 2 1
Neighs:         2194.4 ave        3278 max        1496 min
Histogram: 2 4 4 1 3 2 1 1 1 1

Total # of neighbors = 43888
Ave neighs/atom = 270.91358
Neighbor list builds = 456
Dangerous builds = 0
PPPM initialization ...
  using 12-bit tables for long-range coulomb
  G vector (1/distance) = 0.28421045
  grid = 8 8 10
  stencil order = 5
  estimated absolute RMS force accuracy = 0.00091225394
  estimated relative force accuracy = 6.335253e-05
  using double precision KISS FFT
  3d grid and FFT values/proc = 1089 32
Generated 0 of 10 mixed pair_coeff terms from geometric mixing rule
Setting up Verlet run ...
  Unit style    : metal
  Current step  : 110000
  Time step     : 0.001
Per MPI rank memory allocation (min/avg/max) = 4.94 | 4.943 | 4.949 Mbytes
   Step          Temp          Press          Volume        Density         PotEng    
    110000   303.69705      1030303.2      2163.4245      2.4794205     -1097.6579    
    111000   287.23215      1029535        2163.4245      2.4794205     -1097.3184    
    112000   285.48081      1027735.1      2163.4245      2.4794205     -1097.2761    
    113000   292.27687      1032520.2      2163.4245      2.4794205     -1097.423     
    114000   296.42097      1031563.5      2163.4245      2.4794205     -1097.5043    
    115000   272.99855      1034336        2163.4245      2.4794205     -1097.0137    
    116000   311.18505      1031322.9      2163.4245      2.4794205     -1097.8121    
    117000   303.95261      1033912.6      2163.4245      2.4794205     -1097.6643    
    118000   279.14841      1028175.3      2163.4245      2.4794205     -1097.1499    
    119000   307.40926      1033766.7      2163.4245      2.4794205     -1097.7354    
    120000   294.23676      1030940.2      2163.4245      2.4794205     -1097.4555    
    121000   268.17965      1034587.5      2163.4245      2.4794205     -1096.9218    
    122000   289.90725      1028602.9      2163.4245      2.4794205     -1097.3723    
    123000   291.81136      1030595.9      2163.4245      2.4794205     -1097.4157    
    124000   288.72623      1029084.1      2163.4245      2.4794205     -1097.3451    
    125000   274.69244      1031678.3      2163.4245      2.4794205     -1097.0545    
    126000   296.41907      1030504.2      2163.4245      2.4794205     -1097.5049    
    127000   286.64722      1030459.6      2163.4245      2.4794205     -1097.3003    
    128000   279.15363      1032566.4      2163.4245      2.4794205     -1097.1478    
    129000   296.63599      1030372.5      2163.4245      2.4794205     -1097.514     
    130000   266.52008      1028492.6      2163.4245      2.4794205     -1096.8862    
    131000   302.47317      1034175.1      2163.4245      2.4794205     -1097.6312    
    132000   286.49169      1029493.8      2163.4245      2.4794205     -1097.2945    
    133000   307.92263      1028628.4      2163.4245      2.4794205     -1097.7382    
    134000   284.16677      1031757.6      2163.4245      2.4794205     -1097.2417    
    135000   302.50478      1030942.3      2163.4245      2.4794205     -1097.6284    
    136000   284.11016      1031042.8      2163.4245      2.4794205     -1097.2425    
    137000   315.04604      1036492.8      2163.4245      2.4794205     -1097.8901    
    138000   278.17855      1028639        2163.4245      2.4794205     -1097.1196    
    139000   282.33004      1030627.3      2163.4245      2.4794205     -1097.2015    
    140000   273.3656       1031559.7      2163.4245      2.4794205     -1097.0194    
    141000   304.40439      1032445.6      2163.4245      2.4794205     -1097.6658    
    142000   275.39027      1032216.6      2163.4245      2.4794205     -1097.0652    
    143000   301.3623       1029973.2      2163.4245      2.4794205     -1097.603     
    144000   292.42666      1034836.4      2163.4245      2.4794205     -1097.4129    
    145000   296.56427      1032765.8      2163.4245      2.4794205     -1097.4977    
    146000   297.43195      1025321.8      2163.4245      2.4794205     -1097.5172    
    147000   272.01836      1028964.3      2163.4245      2.4794205     -1096.9774    
    148000   298.61336      1031999.7      2163.4245      2.4794205     -1097.5414    
    149000   285.86058      1033037.9      2163.4245      2.4794205     -1097.2735    
    150000   278.04514      1031057        2163.4245      2.4794205     -1097.1088    
    151000   266.38177      1033451.6      2163.4245      2.4794205     -1096.8701    
    152000   290.90906      1030362.7      2163.4245      2.4794205     -1097.3789    
    153000   299.12212      1032052.6      2163.4245      2.4794205     -1097.5435    
    154000   289.93572      1036550.9      2163.4245      2.4794205     -1097.3611    
    155000   288.18363      1029806.4      2163.4245      2.4794205     -1097.3216    
    156000   305.08985      1034172.1      2163.4245      2.4794205     -1097.6702    
    157000   302.39752      1029471.5      2163.4245      2.4794205     -1097.6137    
    158000   311.6418       1031315        2163.4245      2.4794205     -1097.8028    
    159000   279.24028      1030469.2      2163.4245      2.4794205     -1097.1275    
    160000   274.55837      1032929.2      2163.4245      2.4794205     -1097.0331    
Loop time of 12.8598 on 20 procs for 50000 steps with 162 atoms

Performance: 335.931 ns/day, 0.071 hours/ns, 3888.089 timesteps/s, 629.870 katom-step/s
99.6% CPU use with 20 MPI tasks x 1 OpenMP threads

MPI task timing breakdown:
Section |  min time  |  avg time  |  max time  |%varavg| %total
---------------------------------------------------------------
Pair    | 2.1554     | 3.0678     | 4.9392     |  37.4 | 23.86
Kspace  | 4.8307     | 6.7041     | 7.599      |  25.1 | 52.13
Neigh   | 0.029975   | 0.035986   | 0.047648   |   2.1 |  0.28
Comm    | 2.7451     | 2.7807     | 2.8355     |   1.3 | 21.62
Output  | 0.0023366  | 0.0028504  | 0.0070818  |   1.9 |  0.02
Modify  | 0.018871   | 0.021702   | 0.02583    |   1.2 |  0.17
Other   |            | 0.2466     |            |       |  1.92

Nlocal:            8.1 ave          11 max           5 min
Histogram: 1 2 0 4 0 5 5 0 1 2
Nghost:        1813.15 ave        1858 max        1772 min
Histogram: 2 2 2 2 3 1 3 2 2 1
Neighs:         2194.5 ave        3711 max        1639 min
Histogram: 6 4 4 2 0 0 3 0 0 1

Total # of neighbors = 43890
Ave neighs/atom = 270.92593
Neighbor list builds = 433
Dangerous builds = 0
System init for write_data ...
PPPM initialization ...
  using 12-bit tables for long-range coulomb
  G vector (1/distance) = 0.28421045
  grid = 8 8 10
  stencil order = 5
  estimated absolute RMS force accuracy = 0.00091225394
  estimated relative force accuracy = 6.335253e-05
  using double precision KISS FFT
  3d grid and FFT values/proc = 1089 32
Generated 0 of 10 mixed pair_coeff terms from geometric mixing rule
WARNING: Not all mixed pair coeffs generated from mixing. Use write_data with 'pair ij' option to store all pair coeffs. (src/write_data.cpp:364)
--- SIMULATION COMPLETE ---
Total wall time: 0:00:41
--- Simulation finished ---
