Na B  Si O 
1.0
       10.0000000000         0.0000000000         0.0000000000
        0.0000000000        10.0000000000         0.0000000000
        0.0000000000         0.0000000000        10.0000000000
    O
   32
Cartesian
     0.053300000         1.339700000         9.998500000
     5.053300000         6.339700000         9.998500000
     9.946700000         8.660300000         0.001500000
     4.946700000         3.660300000         0.001500000
     5.784800000         9.788100000         2.719000000
     0.784800000         4.788100000         2.719000000
     4.215200000         0.211900000         7.281000000
     9.215200000         5.211900000         7.281000000
     8.485900000         0.877200000         2.171100000
     3.485900000         5.877200000         2.171100000
     1.514100000         9.122800000         7.828900000
     6.514100000         4.122800000         7.828900000
     8.110900000         8.334200000         2.334100000
     3.110900000         3.334200000         2.334100000
     1.889100000         1.665800000         7.665900000
     6.889100000         6.665800000         7.665900000
     9.925300000         2.722400000         2.722900000
     4.925300000         7.722400000         2.722900000
     0.074700000         7.277600000         7.277100000
     5.074700000         2.277600000         7.277100000
     0.268600000         6.787800000         1.987500000
     5.268600000         1.787800000         1.987500000
     9.731400000         3.212200000         8.012500000
     4.731400000         8.212200000         8.012500000
     2.002300000         1.216000000         3.836100000
     7.002300000         6.216000000         3.836100000
     7.997700000         8.784000000         6.163900000
     2.997700000         3.784000000         6.163900000
     1.949900000         8.690100000         4.148100000
     6.949900000         3.690100000         4.148100000
     8.050100000         1.309900000         5.851900000
     3.050100000         6.309900000         5.851900000
