Na B  Si O 
1.0
       10.0000000000         0.0000000000         0.0000000000
        0.0000000000        10.0000000000         0.0000000000
        0.0000000000         0.0000000000        10.0000000000
    O   
   32
Direct
     0.005330000         0.133970000         0.999850000
     0.505330000         0.633970000         0.999850000
     0.994670000         0.866030000         0.000150000
     0.494670000         0.366030000         0.000150000
     0.578480000         0.978810000         0.271900000
     0.078480000         0.478810000         0.271900000
     0.421520000         0.021190000         0.728100000
     0.921520000         0.521190000         0.728100000
     0.848590000         0.087720000         0.217110000
     0.348590000         0.587720000         0.217110000
     0.151410000         0.912280000         0.782890000
     0.651410000         0.412280000         0.782890000
     0.811090000         0.833420000         0.233410000
     0.311090000         0.333420000         0.233410000
     0.188910000         0.166580000         0.766590000
     0.688910000         0.666580000         0.766590000
     0.992530000         0.272240000         0.272290000
     0.492530000         0.772240000         0.272290000
     0.007470000         0.727760000         0.727710000
     0.507470000         0.227760000         0.727710000
     0.026860000         0.678780000         0.198750000
     0.526860000         0.178780000         0.198750000
     0.973140000         0.321220000         0.801250000
     0.473140000         0.821220000         0.801250000
     0.200230000         0.121600000         0.383610000
     0.700230000         0.621600000         0.383610000
     0.799770000         0.878400000         0.616390000
     0.299770000         0.378400000         0.616390000
     0.194990000         0.869010000         0.414810000
     0.694990000         0.369010000         0.414810000
     0.805010000         0.130990000         0.585190000
     0.305010000         0.630990000         0.585190000
