O 
 1.0000000000000000
    10.0000000000000000    0.0000000000000000    0.0000000000000000
     0.0000000000000000   10.0000000000000000    0.0000000000000000
     0.0000000000000000    0.0000000000000000   10.0000000000000000
 O  
  32
Cartesian
 -9.9984999999999999  1.3397000000000001  0.0533000000000000
 -9.9984999999999999  6.3397000000000006  5.0532999999999992
 -0.0015000000000000  8.6602999999999994  9.9466999999999999
 -0.0015000000000000  3.6603000000000003  4.9466999999999999
 -2.7189999999999999  9.7881000000000000  5.7847999999999997
 -2.7189999999999999  4.7881000000000000  0.7847999999999999
 -7.2809999999999997  0.2119000000000000  4.2152000000000003
 -7.2809999999999997  5.2119000000000000  9.2151999999999994
 -2.1711000000000000  0.8772000000000001  8.4858999999999991
 -2.1711000000000000  5.8772000000000002  3.4859000000000000
 -7.8289000000000000  9.1227999999999998  1.5141000000000000
 -7.8289000000000000  4.1227999999999998  6.5141000000000009
 -2.3341000000000003  8.3342000000000009  8.1108999999999991
 -2.3341000000000003  3.3342000000000001  3.1109000000000000
 -7.6658999999999997  1.6657999999999999  1.8891000000000000
 -7.6658999999999997  6.6657999999999991  6.8891000000000000
 -2.7228999999999997  2.7223999999999999  9.9253000000000000
 -2.7228999999999997  7.7224000000000004  4.9253000000000000
 -7.2770999999999999  7.2775999999999996  0.0747000000000000
 -7.2770999999999999  2.2776000000000001  5.0747000000000000
 -1.9875000000000000  6.7878000000000007  0.2686000000000000
 -1.9875000000000000  1.7877999999999998  5.2686000000000002
 -8.0124999999999993  3.2122000000000002  9.7314000000000007
 -8.0124999999999993  8.2121999999999993  4.7313999999999998
 -3.8361000000000001  1.2160000000000000  2.0023000000000000
 -3.8361000000000001  6.2160000000000002  7.0023000000000000
 -6.1638999999999999  8.7839999999999989  7.9977000000000000
 -6.1638999999999999  3.7840000000000003  2.9977000000000000
 -4.1481000000000003  8.6900999999999993  1.9499000000000000
 -4.1481000000000003  3.6901000000000002  6.9498999999999995
 -5.8518999999999997  1.3098999999999998  8.0501000000000005
 -5.8518999999999997  6.3099000000000007  3.0501000000000000
