Na B  Si O 
1.0
       10.0000000000         0.0000000000         0.0000000000
        0.0000000000        10.0000000000         0.0000000000
        0.0000000000         0.0000000000        10.0000000000
   Na    B   Si    O   Al
    4   12   38   99    2
Direct
     0.254130000         0.008960000         0.129960000
     0.754130000         0.508960000         0.129960000
     0.745870000         0.991040000         0.870040000
     0.245870000         0.491040000         0.870040000
     0.158120000         0.011830000         0.650000000
     0.158120000         0.988170000         0.450000000
     0.658120000         0.511830000         0.550000000
     0.841880000         0.988170000         0.650000000
     0.841880000         0.011830000         0.450000000
     0.341880000         0.488170000         0.550000000
     0.011830000         0.158120000         0.420190000
     0.988170000         0.158120000         0.220190000
     0.511830000         0.658120000         0.220190000
     0.988170000         0.841880000         0.479810000
     0.011830000         0.841880000         0.779810000
     0.488170000         0.341880000         0.779810000
     0.450808186         0.256308186         0.576065752
     0.950808186         0.756308186         0.576065752
     0.842085033         0.036585033         0.838147810
     0.342085033         0.536585033         0.838147810
     0.423560000         0.842920000         0.394120000
     0.473560000         0.198220000         0.454120000
     0.073564997         0.472924997         0.564115648
     0.573564997         0.972924997         0.564115648
     0.219328221         0.819968221         0.850097914
     0.719328221         0.319968221         0.850097914
     0.656467017         0.844457017         0.085769534
     0.656467017         0.844457017         0.378662752
     0.636426202         0.448436202         0.328444029
     0.636426202         0.448436202         0.035550810
     0.612153333         0.400463333         0.605036667
     0.612153333         0.900463333         0.905036667
     0.054513333         0.266203333         0.928296667
     0.054513333         0.766203333         0.428296667
     0.638746667         0.618856667         0.780503333
     0.238746667         0.118856667         0.280503333
     0.027920000         0.047810000         0.552830000
     0.027920000         0.547810000         0.052830000
     0.141306667         0.114646667         0.073343333
     0.474640000         0.947980000         0.240010000
     0.525360000         0.552020000         0.259990000
     0.192026667         0.718686667         0.093323333
     0.004590000         0.810090000         0.207100000
     0.504590000         0.310090000         0.207100000
     0.995410000         0.189910000         0.792900000
     0.495410000         0.689910000         0.792900000
     0.699210000         0.098570000         0.320680000
     0.199210000         0.598570000         0.320680000
     0.300790000         0.901430000         0.679320000
     0.800790000         0.401430000         0.679320000
     0.832760000         0.861750000         0.302900000
     0.173760000         0.361750000         0.352900000
     0.326240000         0.138250000         0.647100000
     0.826240000         0.638250000         0.647100000
     0.866030000         0.005330000         0.999850000
     0.366030000         0.505330000         0.999850000
     0.133970000         0.994670000         0.000150000
     0.633970000         0.554670000         0.000150000
     0.021190000         0.578480000         0.271900000
     0.521190000         0.078480000         0.271900000
     0.978810000         0.421520000         0.728100000
     0.478810000         0.921520000         0.728100000
     0.912280000         0.848590000         0.217110000
     0.412280000         0.348590000         0.217110000
     0.087720000         0.151410000         0.782890000
     0.587720000         0.651410000         0.782890000
     0.166580000         0.811090000         0.233410000
     0.666580000         0.311090000         0.233410000
     0.833420000         0.188910000         0.766590000
     0.333420000         0.688910000         0.766590000
     0.727760000         0.992530000         0.272290000
     0.227760000         0.492530000         0.272290000
     0.272240000         0.007470000         0.727710000
     0.772240000         0.507470000         0.727710000
     0.321220000         0.026860000         0.198750000
     0.821220000         0.526860000         0.198750000
     0.678780000         0.973140000         0.801250000
     0.178780000         0.473140000         0.801250000
     0.878400000         0.200230000         0.383610000
     0.378400000         0.700230000         0.383610000
     0.121600000         0.799770000         0.616390000
     0.621600000         0.299770000         0.616390000
     0.130990000         0.194990000         0.414810000
     0.630990000         0.694990000         0.414810000
     0.869010000         0.805010000         0.585190000
     0.369010000         0.305010000         0.585190000
     0.005330000         0.133970000         0.999850000
     0.505330000         0.633970000         0.999850000
     0.994670000         0.866030000         0.000150000
     0.494670000         0.366030000         0.000150000
     0.578480000         0.978810000         0.271900000
     0.078480000         0.478810000         0.271900000
     0.421520000         0.021190000         0.728100000
     0.921520000         0.521190000         0.728100000
     0.848590000         0.087720000         0.217110000
     0.348590000         0.587720000         0.217110000
     0.151410000         0.912280000         0.782890000
     0.651410000         0.412280000         0.782890000
     0.811090000         0.833420000         0.233410000
     0.311090000         0.333420000         0.233410000
     0.188910000         0.166580000         0.766590000
     0.688910000         0.666580000         0.766590000
     0.992530000         0.272240000         0.272290000
     0.492530000         0.772240000         0.272290000
     0.007470000         0.727760000         0.727710000
     0.507470000         0.227760000         0.727710000
     0.026860000         0.678780000         0.198750000
     0.526860000         0.178780000         0.198750000
     0.973140000         0.321220000         0.801250000
     0.473140000         0.821220000         0.801250000
     0.200230000         0.121600000         0.383610000
     0.700230000         0.621600000         0.383610000
     0.799770000         0.878400000         0.616390000
     0.299770000         0.378400000         0.616390000
     0.194990000         0.869010000         0.414810000
     0.694990000         0.369010000         0.414810000
     0.805010000         0.130990000         0.585190000
     0.305010000         0.630990000         0.585190000
     0.000150000         0.133970000         0.005330000
     0.000150000         0.633970000         0.505330000
     0.999850000         0.866030000         0.994670000
     0.999850000         0.366030000         0.494670000
     0.728100000         0.978810000         0.578480000
     0.728100000         0.478810000         0.078480000
     0.271900000         0.021190000         0.421520000
     0.271900000         0.521190000         0.921520000
     0.782890000         0.087720000         0.848590000
     0.782890000         0.587720000         0.348590000
     0.217110000         0.912280000         0.151410000
     0.217110000         0.412280000         0.651410000
     0.766590000         0.833420000         0.811090000
     0.766590000         0.333420000         0.311090000
     0.233410000         0.166580000         0.188910000
     0.233410000         0.666580000         0.688910000
     0.727710000         0.272240000         0.992530000
     0.727710000         0.772240000         0.492530000
     0.272290000         0.727760000         0.007470000
     0.272290000         0.227760000         0.507470000
     0.801250000         0.678780000         0.026860000
     0.801250000         0.178780000         0.526860000
     0.198750000         0.321220000         0.973140000
     0.198750000         0.821220000         0.473140000
     0.616390000         0.121600000         0.200230000
     0.616390000         0.621600000         0.700230000
     0.383610000         0.878400000         0.799770000
     0.383610000         0.378400000         0.299770000
     0.585190000         0.869010000         0.194990000
     0.585190000         0.369010000         0.694990000
     0.414810000         0.130990000         0.805010000
     0.414810000         0.630990000         0.305010000
     0.814810000         0.730990000         0.205010000
     0.101481000         0.253990000         0.805010000
     0.514810000         0.900990000         0.905010000
     0.500000000         0.300000000         0.480000000
     0.500000000         0.700000000         0.500000000
