Na B  Si O 
 1.0000000000000000
     7.6193999999999997    0.0000000000000000    0.0000000000000000
    -0.4835718217700168   12.2369489883381473    0.0000000000000000
    -2.9775852745425384   -0.5166979346291508    6.0232700742352083
 Na  B   Si  O  Al  
   4   4  12  32  1
Cartesian
  1.5450183361973924  0.0424929993511054  0.7827841788476078
  5.1129324253123833  6.1609674935201788  0.7827841788476078
  2.6132245674900529 11.6777580543578914  5.2404858953876001
 -0.9546895216249391  5.5592835601888169  5.2404858953876001
 -0.6419593760597967  1.8211346558100352  1.3262638376458504
  2.9259547130551948  7.9396091499791090  1.3262638376458504
  4.8002022797472410  9.8991163978989611  4.6970062365893579
  1.2322881906322494  3.7806419037298871  4.6970062365893579
 -0.9734215614554326  9.8060218637011509  1.2474192323741118
  3.0780643494295754  3.6875473695320786  1.2474192323741118
  5.1316644651428769  1.9142291900078443  4.7758508418610965
  1.0801785542578690  8.0327036841769175  4.7758508418610965
  4.3250429536878281  1.0405013681036150  1.9315422474057466
  0.2735570428028190  7.1589758622726896  1.9315422474057466
 -0.1668000500003834 10.6797496856053797  4.0917278268294615
  3.8846858608846255  4.5612751914363079  4.0917278268294615
  3.6661390832036251 10.3628480895697717  2.1256120091976052
  0.0982249940886336  4.2443735954006998  2.1256120091976052
  0.4921038204838192  1.3574029641392238  3.8976580650376031
  4.0600179095988098  7.4758774583082976  3.8976580650376031
 -3.0013113517138863  1.1227636260287051  6.0223665837240734
  0.5666027374011057  7.2412381201977798  6.0223665837240734
  7.1595542554013303 10.5974874276802904  0.0009034905111345
  3.5916401662863393  4.4790129335112168  0.0009034905111345
  3.1247401409851738 11.8371578708495946  1.6377271331845533
 -0.4431739481298190  5.7186833766805218  1.6377271331845533
  1.0335027627022710 -0.1169068171405988  4.3855429410506552
  4.6014168518172625  6.0015676770284747  4.3855429410506552
  5.7768641868384032  0.9612448766696874  1.3077121658172062
  1.7253782759533947  7.0797193708387613  1.3077121658172062
 -1.6186212831509585 10.7590061770393088  4.7155579084180017
  2.4328646277340504  4.6405316828702352  4.7155579084180017
  5.0820025393694577 10.0779155609389903  1.4058914680272401
  1.5140884502544671  3.9594410667699180  1.4058914680272401
 -0.9237596356820136  1.6423354927700060  4.6173786062079687
  2.6441544534329777  7.7608099869390790  4.6173786062079687
  6.6200687948361425  3.1906953119650052  1.6400762085135050
  2.5685828839511347  9.3091698061340793  1.6400762085135050
 -2.4618258911486981  8.5295557417439909  4.3831938657217036
  1.5896600197363100  2.4110812475749173  4.3831938657217036
 -0.7153768704963815  8.2035025197966256  1.1971249272542477
  3.3361090403886271  2.0850280256275524  1.1971249272542477
  4.8736197741838261  3.5167485339123705  4.8261451469809611
  0.8221338632988180  9.6352230280814446  4.8261451469809611
  0.3245986413055026  1.2898025022788302  2.3105866331773681
  3.8925127304204943  7.4082769964479045  2.3105866331773681
  3.8336442623819420 10.4304485514301657  3.7126834410578402
  0.2657301732669506  4.3119740572610930  3.7126834410578402
 -0.1696540905693531 10.4196995700922148  2.4985126594935068
  3.8818318203156554  4.3012250759231421  2.4985126594935068
  4.3278969942567977  1.3005514836167804  3.5247574147417016
  0.2764110833717890  7.4190259777858536  3.5247574147417016
 -0.4615000000000000  2.9562000000000000  4.0121400000000000