
     Program PWSCF v.7.5 starts on  8Mar2026 at  9:53:15 

     This program is part of the open-source Quantum ESPRESSO suite
     for quantum simulation of materials; please cite
         "P. Giannozzi et al., J. Phys.:Condens. Matter 21 395502 (2009);
         "P. Giannozzi et al., J. Phys.:Condens. Matter 29 465901 (2017);
         "P. Giannozzi et al., J. Chem. Phys. 152 154105 (2020);
          URL http://www.quantum-espresso.org", 
     in publications or presentations arising from this work. More details at
     http://www.quantum-espresso.org/quote

     Parallel version (MPI), running on    80 processors

     MPI processes distributed on     4 nodes
     83243 MiB available memory on the printing compute node when the environment starts
 
     Reading input from NaphthaleneOnGlassSite3Snapshot16.in
Warning: card &CELL ignored
Warning: card &FCP ignored
Warning: card &RISM ignored

     Current dimensions of program PWSCF are:
     Max number of different atomic species (ntypx) = 10
     Max number of k-points (npk) =  40000
     Max angular momentum in pseudopotentials (lmaxx) =  4
     file Na.paw.z_9.ld1.psl.v1.0.0-low.upf: wavefunction(s)  2P renormalized
     file O.pbe-n-kjpaw_psl.0.1.UPF: wavefunction(s)  2P renormalized
     file Al.pbe-n-kjpaw_psl.1.0.0.UPF: wavefunction(s)  3S 3P renormalized
     file C.pbe-n-kjpaw_psl.1.0.0.UPF: wavefunction(s)  2S 2P renormalized
 
     R & G space division:  proc/nbgrp/npool/nimage =      80
     Subspace diagonalization in iterative solution of the eigenvalue problem:
     one sub-group per band group will be used
     custom distributed-memory algorithm (size of sub-group:  8*  8 procs)

 
     Parallelization info
     --------------------
     sticks:   dense  smooth     PW     G-vecs:    dense   smooth      PW
     Min         450     400    100               199276   167008   20874
     Max         451     401    101               199303   167021   20885
     Sum       36073   32057   8021             15943719 13361281 1670237
 
     Using Slab Decomposition
 


     bravais-lattice index     =            0
     lattice parameter (alat)  =      35.4885  a.u.
     unit-cell volume          =  138228.4306 (a.u.)^3
     number of atoms/cell      =          358
     number of atomic types    =            7
     number of electrons       =      1872.00
     number of Kohn-Sham states=         1123
     kinetic-energy cutoff     =      80.0000  Ry
     charge density cutoff     =     360.0000  Ry
     scf convergence threshold =      1.0E-08
     mixing beta               =       0.1000
     number of iterations used =            8  plain     mixing
     Exchange-correlation= PBE
                           (   1   4   3   4   0   0   0)

     celldm(1)=  35.488539  celldm(2)=   0.000000  celldm(3)=   0.000000
     celldm(4)=   0.000000  celldm(5)=   0.000000  celldm(6)=   0.000000

     crystal axes: (cart. coord. in units of alat)
               a(1) = (   1.000000   0.000000   0.000000 )  
               a(2) = (   0.000000   1.000000   0.000000 )  
               a(3) = (   0.000000   0.000000   3.092666 )  

     reciprocal axes: (cart. coord. in units 2 pi/alat)
               b(1) = (  1.000000  0.000000  0.000000 )  
               b(2) = (  0.000000  1.000000  0.000000 )  
               b(3) = (  0.000000  0.000000  0.323346 )  


     PseudoPot. # 1 for Na read from file:
     /home/sabeel/VOCC_Simulation/pseudopotentials/SSSP_Precision/Na.paw.z_9.ld1.psl.v1.0.0-low.upf
     MD5 check sum: 32bccecb13d7399e6c7dae6fe6685ff0
     Pseudo is Projector augmented-wave + core cor, Zval =  9.0
     Generated using &quot;atomic&quot; code by A. Dal Corso  v.6.3MaX
     Shape of augmentation charge: PSQ
     Using radial grid of 1121 points,  4 beta functions with: 
                l(1) =   0
                l(2) =   0
                l(3) =   1
                l(4) =   1
     Q(r) pseudized with 0 coefficients 


     PseudoPot. # 2 for B  read from file:
     /home/sabeel/VOCC_Simulation/pseudopotentials/SSSP_Precision/B_pbe_v1.01.uspp.F.UPF
     MD5 check sum: d081ebb89d0c768e112975f650467a00
     Pseudo is Ultrasoft + core correction, Zval =  3.0
     Generated by new atomic code, or converted to UPF format
     Using radial grid of  781 points,  4 beta functions with: 
                l(1) =   0
                l(2) =   0
                l(3) =   1
                l(4) =   1
     Q(r) pseudized with  8 coefficients,  rinner =    1.100   1.100   1.100


     PseudoPot. # 3 for Si read from file:
     /home/sabeel/VOCC_Simulation/pseudopotentials/SSSP_Precision/Si.pbe-n-rrkjus_psl.1.0.0.UPF
     MD5 check sum: 0b0bb1205258b0d07b9f9672cf965d36
     Pseudo is Ultrasoft + core correction, Zval =  4.0
     Generated using "atomic" code by A. Dal Corso  v.5.1
     Using radial grid of 1141 points,  6 beta functions with: 
                l(1) =   0
                l(2) =   0
                l(3) =   1
                l(4) =   1
                l(5) =   2
                l(6) =   2
     Q(r) pseudized with 0 coefficients 


     PseudoPot. # 4 for O  read from file:
     /home/sabeel/VOCC_Simulation/pseudopotentials/SSSP_Precision/O.pbe-n-kjpaw_psl.0.1.UPF
     MD5 check sum: 0234752ac141de4415c5fc33072bef88
     Pseudo is Projector augmented-wave + core cor, Zval =  6.0
     Generated using "atomic" code by A. Dal Corso  v.5.0.99 svn rev. 10869
     Shape of augmentation charge: BESSEL
     Using radial grid of 1095 points,  4 beta functions with: 
                l(1) =   0
                l(2) =   0
                l(3) =   1
                l(4) =   1
     Q(r) pseudized with 0 coefficients 


     PseudoPot. # 5 for Al read from file:
     /home/sabeel/VOCC_Simulation/pseudopotentials/SSSP_Precision/Al.pbe-n-kjpaw_psl.1.0.0.UPF
     MD5 check sum: cfc449ca30b5f3223ec38ddd88ac046d
     Pseudo is Projector augmented-wave + core cor, Zval =  3.0
     Generated using "atomic" code by A. Dal Corso  v.5.1
     Shape of augmentation charge: PSQ
     Using radial grid of 1135 points,  6 beta functions with: 
                l(1) =   0
                l(2) =   0
                l(3) =   1
                l(4) =   1
                l(5) =   2
                l(6) =   2
     Q(r) pseudized with 0 coefficients 


     PseudoPot. # 6 for C  read from file:
     /home/sabeel/VOCC_Simulation/pseudopotentials/SSSP_Precision/C.pbe-n-kjpaw_psl.1.0.0.UPF
     MD5 check sum: 5d2aebdfa2cae82b50a7e79e9516da0f
     Pseudo is Projector augmented-wave + core cor, Zval =  4.0
     Generated using "atomic" code by A. Dal Corso  v.5.1
     Shape of augmentation charge: PSQ
     Using radial grid of 1073 points,  4 beta functions with: 
                l(1) =   0
                l(2) =   0
                l(3) =   1
                l(4) =   1
     Q(r) pseudized with 0 coefficients 


     PseudoPot. # 7 for H  read from file:
     /home/sabeel/VOCC_Simulation/pseudopotentials/SSSP_Precision/H_ONCV_PBE-1.0.oncvpsp.upf
     MD5 check sum: 1790becc920ee074925cf490c71280fe
     Pseudo is Norm-conserving, Zval =  1.0
     Generated using ONCVPSP code by D. R. Hamann
     Using radial grid of 1166 points,  2 beta functions with: 
                l(1) =   0
                l(2) =   0

     atomic species   valence    mass     pseudopotential
     Na                9.00    22.98977     Na( 1.00)
     B                 3.00    10.81000     B ( 1.00)
     Si                4.00    28.08500     Si( 1.00)
     O                 6.00    15.99900     O ( 1.00)
     Al                3.00    26.98154     Al( 1.00)
     C                 4.00    12.01100     C ( 1.00)
     H                 1.00     1.00800     H ( 1.00)

     No symmetry found



   Cartesian axes

     site n.     atom                  positions (alat units)
         1        Na     tau(   1) = (   0.2476327   0.1287261   1.4401902  )
         2        Na     tau(   2) = (   0.2347070   0.3964799   1.8357059  )
         3        Na     tau(   3) = (   0.2580766   0.4457236   1.6551511  )
         4        Na     tau(   4) = (   0.0484944   0.0277893   1.6277847  )
         5        Na     tau(   5) = (   0.2352313   0.0813062   1.2863150  )
         6        Na     tau(   6) = (   0.0747243   0.2371463   1.1982473  )
         7        Na     tau(   7) = (   0.1133306   0.7698962   1.8611434  )
         8        Na     tau(   8) = (   0.9037110   0.1954209   1.2700780  )
         9        Na     tau(   9) = (   0.5181841   0.1014052   1.4940734  )
        10        Na     tau(  10) = (   0.3803624   0.0140251   1.8302637  )
        11        Na     tau(  11) = (   0.3545179   0.4989222   1.3772145  )
        12        B      tau(  12) = (   0.9565860   0.6559989   1.4661680  )
        13        B      tau(  13) = (   0.3779039   0.3190213   1.8506233  )
        14        B      tau(  14) = (   0.6357433   0.7757670   1.3375748  )
        15        B      tau(  15) = (   0.9958362   0.0827877   1.8476266  )
        16        B      tau(  16) = (   0.6987179   0.5586979   1.3943070  )
        17        B      tau(  17) = (   0.0903279   0.5997535   1.2200041  )
        18        B      tau(  18) = (   0.9460845   0.5017876   1.4754679  )
        19        B      tau(  19) = (   0.0032347   0.0527127   1.2839437  )
        20        B      tau(  20) = (   0.1241012   0.5940167   1.6016841  )
        21        B      tau(  21) = (   0.4174729   0.9198072   1.5541475  )
        22        B      tau(  22) = (   0.4638227   0.9107282   1.2322731  )
        23        B      tau(  23) = (   0.5096053   0.7092947   1.5000083  )
        24        B      tau(  24) = (   0.4035376   0.9367665   1.6900270  )
        25        B      tau(  25) = (   0.7132674   0.8560217   1.2558196  )
        26        B      tau(  26) = (   0.2579773   0.4217781   1.2874388  )
        27        B      tau(  27) = (   0.1862793   0.2338812   1.3576537  )
        28        B      tau(  28) = (   0.2134919   0.3664862   1.5073156  )
        29        B      tau(  29) = (   0.3546252   0.0462610   1.5293894  )
        30        B      tau(  30) = (   0.8082206   0.9504483   1.6218439  )
        31        B      tau(  31) = (   0.4915043   0.5408159   1.2913026  )
        32        B      tau(  32) = (   0.2471486   0.9450605   1.4099193  )
        33        B      tau(  33) = (   0.7089246   0.1566090   1.6669558  )
        34        B      tau(  34) = (   0.4858908   0.1745693   1.3498737  )
        35        Si     tau(  35) = (   0.5740761   0.3686341   1.4981594  )
        36        Si     tau(  36) = (   0.9600416   0.6521543   1.2713743  )
        37        Si     tau(  37) = (   0.8029666   0.9237355   1.4090604  )
        38        Si     tau(  38) = (   0.6589027   0.0111466   1.4303706  )
        39        Si     tau(  39) = (   0.7148031   0.8518694   1.6658713  )
        40        Si     tau(  40) = (   0.4062844   0.4370669   1.7000479  )
        41        Si     tau(  41) = (   0.8652299   0.0194200   1.2866760  )
        42        Si     tau(  42) = (   0.8792462   0.4724358   1.3313926  )
        43        Si     tau(  43) = (   0.9761010   0.8191325   1.3004490  )
        44        Si     tau(  44) = (   0.0927580   0.6000365   1.4532062  )
        45        Si     tau(  45) = (   0.8492038   0.6801733   1.8429896  )
        46        Si     tau(  46) = (   0.7648638   0.9759642   1.8781504  )
        47        Si     tau(  47) = (   0.8282769   0.9005504   1.7531841  )
        48        Si     tau(  48) = (   0.2400871   0.2615564   1.6009290  )
        49        Si     tau(  49) = (   0.0782160   0.8578516   1.7113893  )
        50        Si     tau(  50) = (   0.1793983   0.5421597   1.3229395  )
        51        Si     tau(  51) = (   0.3045589   0.3154693   1.3856788  )
        52        Si     tau(  52) = (   0.1868342   0.9496617   1.8144358  )
        53        Si     tau(  53) = (   0.5597482   0.9942014   1.8563540  )
        54        Si     tau(  54) = (   0.3283405   0.8654915   1.7979255  )
        55        Si     tau(  55) = (   0.3944303   0.1342286   1.2558232  )
        56        Si     tau(  56) = (   0.5556116   0.4029995   1.7688172  )
        57        Si     tau(  57) = (   0.8886951   0.0519111   1.5515978  )
        58        Si     tau(  58) = (   0.9177874   0.8266438   1.8602018  )
        59        Si     tau(  59) = (   0.5141592   0.7513592   1.7304853  )
        60        Si     tau(  60) = (   0.6200680   0.7296116   1.5975635  )
        61        Si     tau(  61) = (   0.4531771   0.2653855   1.4551164  )
        62        Si     tau(  62) = (   0.9530092   0.1910999   1.6203079  )
        63        Si     tau(  63) = (   0.9806318   0.2594417   1.4695044  )
        64        Si     tau(  64) = (   0.1810221   0.5658568   1.7318917  )
        65        Si     tau(  65) = (   0.2276537   0.6624309   1.2309086  )
        66        Si     tau(  66) = (   0.7086066   0.3068958   1.4624957  )
        67        Si     tau(  67) = (   0.7573617   0.5008676   1.2102682  )
        68        Si     tau(  68) = (   0.0630774   0.5052222   1.8068999  )
        69        Si     tau(  69) = (   0.9531780   0.4208941   1.7332624  )
        70        Si     tau(  70) = (   0.8429520   0.6341042   1.3864806  )
        71        Si     tau(  71) = (   0.8255070   0.2513717   1.7092992  )
        72        Si     tau(  72) = (   0.4660404   0.3166643   1.5999861  )
        73        Si     tau(  73) = (   0.3218087   0.1696541   1.7095271  )
        74        Si     tau(  74) = (   0.6054871   0.0864265   1.2929813  )
        75        Si     tau(  75) = (   0.4402609   0.0821865   1.6559030  )
        76        Si     tau(  76) = (   0.3770531   0.0317907   1.3941734  )
        77        Si     tau(  77) = (   0.5059912   0.8072476   1.3243503  )
        78        Si     tau(  78) = (   0.6069382   0.5044701   1.6609957  )
        79        Si     tau(  79) = (   0.6370349   0.4244534   1.3741369  )
        80        Si     tau(  80) = (   0.6855674   0.7078304   1.8645318  )
        81        Si     tau(  81) = (   0.0765130   0.9298841   1.2314627  )
        82        Si     tau(  82) = (   0.9863684   0.4054382   1.2235204  )
        83        Si     tau(  83) = (   0.4950631   0.2585395   1.7548401  )
        84        Si     tau(  84) = (   0.5719431   0.1160579   1.7357262  )
        85        Si     tau(  85) = (   0.3566442   0.7389475   1.7027041  )
        86        Si     tau(  86) = (   0.5887626   0.6478135   1.7482870  )
        87        Si     tau(  87) = (   0.3778403   0.4701707   1.1981005  )
        88        Si     tau(  88) = (   0.7705746   0.7745811   1.3546535  )
        89        Si     tau(  89) = (   0.6353056   0.3899359   1.2194797  )
        90        Si     tau(  90) = (   0.3199297   0.6027545   1.8036004  )
        91        Si     tau(  91) = (   0.6901246   0.5787282   1.5496775  )
        92        Si     tau(  92) = (   0.1108815   0.9857043   1.4484254  )
        93        Si     tau(  93) = (   0.0087222   0.8101075   1.4596435  )
        94        Si     tau(  94) = (   0.4662737   0.5842118   1.4387730  )
        95        Si     tau(  95) = (   0.1497603   0.1150345   1.8191784  )
        96        Si     tau(  96) = (   0.9119816   0.9073773   1.5284091  )
        97        Si     tau(  97) = (   0.5081777   0.9347421   1.4393654  )
        98        Si     tau(  98) = (   0.9733658   0.9480751   1.7929925  )
        99        Si     tau(  99) = (   0.2449909   0.7736475   1.5958723  )
       100        Si     tau( 100) = (   0.2568298   0.7840856   1.3334763  )
       101        Si     tau( 101) = (   0.1600543   0.7576293   1.4557816  )
       102        Si     tau( 102) = (   0.9190690   0.2974838   1.8287833  )
       103        Si     tau( 103) = (   0.8499270   0.3745654   1.6104514  )
       104        Si     tau( 104) = (   0.8444491   0.5369054   1.7673517  )
       105        Si     tau( 105) = (   0.1203187   0.1732756   1.6597012  )
       106        Si     tau( 106) = (   0.6321686   0.6005607   1.2681838  )
       107        Si     tau( 107) = (   0.6235724   0.8470731   1.8048529  )
       108        Si     tau( 108) = (   0.7501132   0.1202716   1.2309056  )
       109        Si     tau( 109) = (   0.2746484   0.2046900   1.8670863  )
       110        Si     tau( 110) = (   0.2273259   0.0646953   1.6216725  )
       111        Si     tau( 111) = (   0.0729274   0.4042159   1.4579120  )
       112        Si     tau( 112) = (   0.6640697   0.1601480   1.5162335  )
       113        Si     tau( 113) = (   0.1226817   0.7031938   1.6887692  )
       114        Si     tau( 114) = (   0.8406300   0.5276586   1.5875131  )
       115        Si     tau( 115) = (   0.8389500   0.3149315   1.3901795  )
       116        Si     tau( 116) = (   0.1722727   0.9211130   1.5953570  )
       117        Si     tau( 117) = (   0.0763504   0.1375521   1.3930086  )
       118        Si     tau( 118) = (   0.3256209   0.9115638   1.2548481  )
       119        Si     tau( 119) = (   0.3955849   0.7224945   1.4035300  )
       120        Si     tau( 120) = (   0.4652418   0.5499611   1.5942954  )
       121        Si     tau( 121) = (   0.1212618   0.3651412   1.3045003  )
       122        O      tau( 122) = (   0.0295168   0.4481121   1.8630498  )
       123        O      tau( 123) = (   0.8632305   0.7660730   1.8351295  )
       124        O      tau( 124) = (   0.7865379   0.5198677   1.8292109  )
       125        O      tau( 125) = (   0.7687039   0.8065522   1.2712216  )
       126        O      tau( 126) = (   0.2613316   0.2462125   1.3627201  )
       127        O      tau( 127) = (   0.4383841   0.2721051   1.5384261  )
       128        O      tau( 128) = (   0.4075804   0.9041606   1.6244717  )
       129        O      tau( 129) = (   0.2891632   0.9821156   1.2266374  )
       130        O      tau( 130) = (   0.3003666   0.1796727   1.7902854  )
       131        O      tau( 131) = (   0.5973279   0.4225163   1.2949590  )
       132        O      tau( 132) = (   0.5334428   0.5020140   1.6146071  )
       133        O      tau( 133) = (   0.2755656   0.1058719   1.6786020  )
       134        O      tau( 134) = (   0.1545595   0.1075181   1.6150265  )
       135        O      tau( 135) = (   0.1198242   0.5723265   1.5291309  )
       136        O      tau( 136) = (   0.5826608   0.7211316   1.6806210  )
       137        O      tau( 137) = (   0.4384820   0.7620469   1.6969890  )
       138        O      tau( 138) = (   0.3813441   0.2977472   1.4178316  )
       139        O      tau( 139) = (   0.9518571   0.2429557   1.5505285  )
       140        O      tau( 140) = (   0.6668767   0.5177678   1.6031137  )
       141        O      tau( 141) = (   0.1520770   0.1695411   1.3620472  )
       142        O      tau( 142) = (   0.6925009   0.7509516   1.3753791  )
       143        O      tau( 143) = (   0.1434568   0.6580895   1.2139172  )
       144        O      tau( 144) = (   0.4761486   0.9028411   1.5138988  )
       145        O      tau( 145) = (   0.0631356   0.5782061   1.8492954  )
       146        O      tau( 146) = (   0.5876332   0.4146284   1.8503125  )
       147        O      tau( 147) = (   0.1071621   0.8902567   1.6361869  )
       148        O      tau( 148) = (   0.0331486   0.1967754   1.4407710  )
       149        O      tau( 149) = (   0.9443941   0.9810288   1.5588672  )
       150        O      tau( 150) = (   0.5485694   0.5774714   1.2625723  )
       151        O      tau( 151) = (   0.6090489   0.9225244   1.8421140  )
       152        O      tau( 152) = (   0.3184350   0.7927686   1.7545505  )
       153        O      tau( 153) = (   0.2965868   0.2359092   1.6579206  )
       154        O      tau( 154) = (   0.3399948   0.4149078   1.7451441  )
       155        O      tau( 155) = (   0.6583099   0.3076783   1.2358723  )
       156        O      tau( 156) = (   0.5620926   0.7442927   1.5385442  )
       157        O      tau( 157) = (   0.5556976   0.3175372   1.7688381  )
       158        O      tau( 158) = (   0.3525972   0.6632019   1.7471104  )
       159        O      tau( 159) = (   0.9620412   0.3446718   1.7697440  )
       160        O      tau( 160) = (   0.5313272   0.1848172   1.7709556  )
       161        O      tau( 161) = (   0.9429693   0.0183272   1.3239474  )
       162        O      tau( 162) = (   0.4858005   0.9533180   1.8755890  )
       163        O      tau( 163) = (   0.3657073   0.5328581   1.8345358  )
       164        O      tau( 164) = (   0.4406081   0.5066782   1.2484323  )
       165        O      tau( 165) = (   0.3135028   0.2834622   1.8690668  )
       166        O      tau( 166) = (   0.7907911   0.8360261   1.7119523  )
       167        O      tau( 167) = (   0.7289290   0.9234833   1.2340123  )
       168        O      tau( 168) = (   0.1454692   0.2885690   1.3267456  )
       169        O      tau( 169) = (   0.3914991   0.9066251   1.7575926  )
       170        O      tau( 170) = (   0.7079875   0.2222935   1.4707635  )
       171        O      tau( 171) = (   0.9743698   0.8515159   1.5269402  )
       172        O      tau( 172) = (   0.1330105   0.5361140   1.2470617  )
       173        O      tau( 173) = (   0.5827735   0.0420994   1.2254729  )
       174        O      tau( 174) = (   0.8602910   0.6220068   1.7811976  )
       175        O      tau( 175) = (   0.5252483   0.6418342   1.4684534  )
       176        O      tau( 176) = (   0.6556139   0.6691234   1.7930720  )
       177        O      tau( 177) = (   0.9478947   0.4555202   1.2814895  )
       178        O      tau( 178) = (   0.9699578   0.0766966   1.2188133  )
       179        O      tau( 179) = (   0.5480526   0.8088247   1.7836236  )
       180        O      tau( 180) = (   0.3152477   0.7447790   1.3880620  )
       181        O      tau( 181) = (   0.1477991   0.6460434   1.7450578  )
       182        O      tau( 182) = (   0.4226375   0.0083615   1.6949577  )
       183        O      tau( 183) = (   0.5004654   0.8461638   1.2447985  )
       184        O      tau( 184) = (   0.7864920   0.8423242   1.4036977  )
       185        O      tau( 185) = (   0.9046070   0.6136339   1.3286598  )
       186        O      tau( 186) = (   0.1308852   0.5564651   1.3912596  )
       187        O      tau( 187) = (   0.0181193   0.9388870   1.8632981  )
       188        O      tau( 188) = (   0.5236768   0.3172741   1.4469420  )
       189        O      tau( 189) = (   0.6771903   0.1363695   1.2729556  )
       190        O      tau( 190) = (   0.5668565   0.7520726   1.3411952  )
       191        O      tau( 191) = (   0.4390184   0.1054952   1.8920128  )
       192        O      tau( 192) = (   0.2801127   0.0556319   1.5537880  )
       193        O      tau( 193) = (   0.9517833   0.2240015   1.8530263  )
       194        O      tau( 194) = (   0.4078786   0.5134087   1.6517908  )
       195        O      tau( 195) = (   0.6735166   0.7941076   1.8547702  )
       196        O      tau( 196) = (   0.7896414   0.2674110   1.3392843  )
       197        O      tau( 197) = (   0.9136500   0.5214282   1.5392122  )
       198        O      tau( 198) = (   0.5881526   0.4350093   1.4460280  )
       199        O      tau( 199) = (   0.7745755   0.5842257   1.3844862  )
       200        O      tau( 200) = (   0.2034896   0.9862494   1.6415920  )
       201        O      tau( 201) = (   0.1233221   0.6813655   1.4530684  )
       202        O      tau( 202) = (   0.7937827   0.3272627   1.4639956  )
       203        O      tau( 203) = (   0.4473563   0.5396589   1.5104804  )
       204        O      tau( 204) = (   0.6542799   0.3403998   1.5182787  )
       205        O      tau( 205) = (   0.8234572   0.7113307   1.3622509  )
       206        O      tau( 206) = (   0.8127487   0.4431771   1.5824090  )
       207        O      tau( 207) = (   0.5134106   0.6764784   1.7758121  )
       208        O      tau( 208) = (   0.1836556   0.7783442   1.3761575  )
       209        O      tau( 209) = (   0.8104766   0.3105590   1.6473803  )
       210        O      tau( 210) = (   0.3044033   0.9850075   1.3843284  )
       211        O      tau( 211) = (   0.1301504   0.8965179   1.7717389  )
       212        O      tau( 212) = (   0.3197141   0.1653364   1.2298596  )
       213        O      tau( 213) = (   0.4699233   0.1934200   1.4196372  )
       214        O      tau( 214) = (   0.2809558   0.8612246   1.3097159  )
       215        O      tau( 215) = (   0.4264163   0.2824703   1.8051299  )
       216        O      tau( 216) = (   0.6599679   0.6539216   1.5790006  )
       217        O      tau( 217) = (   0.7349642   0.9291111   1.6364595  )
       218        O      tau( 218) = (   0.0099961   0.4612132   1.4800917  )
       219        O      tau( 219) = (   0.5892025   0.1978638   1.5290320  )
       220        O      tau( 220) = (   0.0485841   0.8646896   1.2765110  )
       221        O      tau( 221) = (   0.9732948   0.8322736   1.3845405  )
       222        O      tau( 222) = (   0.4005127   0.1467648   1.7001924  )
       223        O      tau( 223) = (   0.8561165   0.3880932   1.3551362  )
       224        O      tau( 224) = (   0.1908703   0.7320545   1.6493092  )
       225        O      tau( 225) = (   0.5316561   0.3624401   1.5720686  )
       226        O      tau( 226) = (   0.6407674   0.0341441   1.3503554  )
       227        O      tau( 227) = (   0.2507360   0.3493753   1.4464087  )
       228        O      tau( 228) = (   0.5138994   0.8709061   1.3834646  )
       229        O      tau( 229) = (   0.9079300   0.5013233   1.4088368  )
       230        O      tau( 230) = (   0.4395504   0.1937154   1.2966161  )
       231        O      tau( 231) = (   0.2308999   0.6103161   1.2990312  )
       232        O      tau( 232) = (   0.3685013   0.9700313   1.5258447  )
       233        O      tau( 233) = (   0.8514985   0.9494698   1.6877232  )
       234        O      tau( 234) = (   0.0187499   0.4824011   1.7364241  )
       235        O      tau( 235) = (   0.2414021   0.3421124   1.5740169  )
       236        O      tau( 236) = (   0.6097970   0.4413714   1.7163163  )
       237        O      tau( 237) = (   0.4788214   0.4352721   1.7472383  )
       238        O      tau( 238) = (   0.1395403   0.9630524   1.5257738  )
       239        O      tau( 239) = (   0.3787358   0.0784353   1.3203646  )
       240        O      tau( 240) = (   0.5839692   0.9685892   1.4551464  )
       241        O      tau( 241) = (   0.9110607   0.6557788   1.2003494  )
       242        O      tau( 242) = (   0.0686474   0.1043740   1.8437037  )
       243        O      tau( 243) = (   0.1460976   0.3999842   1.5060950  )
       244        O      tau( 244) = (   0.4166165   0.3782170   1.6358330  )
       245        O      tau( 245) = (   0.0075933   0.9084354   1.7265037  )
       246        O      tau( 246) = (   0.8482460   0.9888286   1.2074661  )
       247        O      tau( 247) = (   0.6787187   0.3475581   1.3906861  )
       248        O      tau( 248) = (   0.2793975   0.6318760   1.8700688  )
       249        O      tau( 249) = (   0.1753735   0.9662414   1.3957977  )
       250        O      tau( 250) = (   0.0079684   0.6039592   1.4520956  )
       251        O      tau( 251) = (   0.6799702   0.7916690   1.6137563  )
       252        O      tau( 252) = (   0.8228944   0.4963375   1.2716413  )
       253        O      tau( 253) = (   0.1652982   0.5553089   1.6491463  )
       254        O      tau( 254) = (   0.6527640   0.8346788   1.2935381  )
       255        O      tau( 255) = (   0.0358116   0.1810737   1.6422342  )
       256        O      tau( 256) = (   0.5638762   0.0484964   1.7892635  )
       257        O      tau( 257) = (   0.7314789   0.9670683   1.4359075  )
       258        O      tau( 258) = (   0.2559548   0.8899428   1.4535926  )
       259        O      tau( 259) = (   0.7774448   0.5773609   1.5598674  )
       260        O      tau( 260) = (   0.0868638   0.6515873   1.6288983  )
       261        O      tau( 261) = (   0.2614827   0.9212168   1.7891965  )
       262        O      tau( 262) = (   0.1954831   0.1735609   1.8664394  )
       263        O      tau( 263) = (   0.9906684   0.7948073   1.8435173  )
       264        O      tau( 264) = (   0.4575167   0.9955248   1.4051103  )
       265        O      tau( 265) = (   0.7735858   0.2011661   1.2118609  )
       266        O      tau( 266) = (   0.8814090   0.9281431   1.4499689  )
       267        O      tau( 267) = (   0.4072071   0.9256292   1.2771435  )
       268        O      tau( 268) = (   0.8399764   0.8937974   1.5751596  )
       269        O      tau( 269) = (   0.9802476   0.7272430   1.4739436  )
       270        O      tau( 270) = (   0.4029974   0.6353892   1.4077172  )
       271        O      tau( 271) = (   0.5236271   0.0940762   1.6637713  )
       272        O      tau( 272) = (   0.2291142   0.8566340   1.6031926  )
       273        O      tau( 273) = (   0.1369597   0.1529802   1.7410824  )
       274        O      tau( 274) = (   0.8956842   0.4684356   1.7728116  )
       275        O      tau( 275) = (   0.0304714   0.3296381   1.4668483  )
       276        O      tau( 276) = (   0.9261533   0.1126670   1.5937994  )
       277        O      tau( 277) = (   0.3196110   0.7473434   1.6269653  )
       278        O      tau( 278) = (   0.2346612   0.4755155   1.3381933  )
       279        O      tau( 279) = (   0.0309321   0.9618656   1.4299785  )
       280        O      tau( 280) = (   0.1026240   0.4047238   1.3770124  )
       281        O      tau( 281) = (   0.0996948   0.0720356   1.4419196  )
       282        O      tau( 282) = (   0.9796419   0.7336502   1.2951357  )
       283        O      tau( 283) = (   0.4798587   0.2721799   1.6719849  )
       284        O      tau( 284) = (   0.1447462   0.5042309   1.7791641  )
       285        O      tau( 285) = (   0.6584207   0.0850578   1.4744274  )
       286        O      tau( 286) = (   0.8447302   0.2856675   1.7867899  )
       287        O      tau( 287) = (   0.9236456   0.3532967   1.8933803  )
       288        O      tau( 288) = (   0.7131244   0.4260542   1.2089447  )
       289        O      tau( 289) = (   0.1815374   0.0351118   1.8104616  )
       290        O      tau( 290) = (   0.0329975   0.6097415   1.2681351  )
       291        O      tau( 291) = (   0.8998275   0.8951096   1.8045433  )
       292        O      tau( 292) = (   0.3016404   0.4593341   1.2337882  )
       293        O      tau( 293) = (   0.2631331   0.5633327   1.7490475  )
       294        O      tau( 294) = (   0.7023044   0.1539457   1.5910141  )
       295        O      tau( 295) = (   0.5450848   0.1349270   1.3303906  )
       296        O      tau( 296) = (   0.1632620   0.2443342   1.6379519  )
       297        O      tau( 297) = (   0.1916640   0.3894955   1.2601897  )
       298        O      tau( 298) = (   0.0615898   0.0043928   1.2718305  )
       299        O      tau( 299) = (   0.3967139   0.3875856   1.8762703  )
       300        O      tau( 300) = (   0.4846187   0.5410669   1.3666698  )
       301        O      tau( 301) = (   0.8186424   0.0168112   1.5820830  )
       302        O      tau( 302) = (   0.5974300   0.5762403   1.7036424  )
       303        O      tau( 303) = (   0.4323575   0.7667648   1.3386386  )
       304        O      tau( 304) = (   0.7719883   0.9374236   1.8028857  )
       305        O      tau( 305) = (   0.7672182   0.1900179   1.6976508  )
       306        O      tau( 306) = (   0.8994379   0.0650389   1.4672678  )
       307        O      tau( 307) = (   0.4462121   0.7426137   1.4731770  )
       308        O      tau( 308) = (   0.9211726   0.3961581   1.6533343  )
       309        O      tau( 309) = (   0.2420202   0.2200105   1.5251544  )
       310        O      tau( 310) = (   0.8842963   0.6436934   1.4589679  )
       311        O      tau( 311) = (   0.6482991   0.6785877   1.2330670  )
       312        O      tau( 312) = (   0.4832983   0.6325017   1.6039613  )
       313        O      tau( 313) = (   0.7361349   0.0571749   1.8732737  )
       314        O      tau( 314) = (   0.6649925   0.8590630   1.7336776  )
       315        O      tau( 315) = (   0.9130296   0.2721061   1.4159943  )
       316        O      tau( 316) = (   0.6511009   0.5989696   1.3506902  )
       317        O      tau( 317) = (   0.8131240   0.0898692   1.2825970  )
       318        O      tau( 318) = (   0.6524595   0.1336951   1.7108949  )
       319        O      tau( 319) = (   0.6784211   0.5695802   1.4690337  )
       320        O      tau( 320) = (   0.9018920   0.2183548   1.6834522  )
       321        O      tau( 321) = (   0.9678130   0.0358255   1.7940055  )
       322        O      tau( 322) = (   0.8368182   0.5391156   1.6776043  )
       323        O      tau( 323) = (   0.7668768   0.6856661   1.8697035  )
       324        O      tau( 324) = (   0.1531671   0.9301796   1.8945654  )
       325        O      tau( 325) = (   0.2178402   0.7542098   1.5177838  )
       326        O      tau( 326) = (   0.3614324   0.0782581   1.4600024  )
       327        O      tau( 327) = (   0.4053368   0.0766386   1.5793453  )
       328        O      tau( 328) = (   0.3320739   0.8564650   1.8828345  )
       329        O      tau( 329) = (   0.0914304   0.8126101   1.4681485  )
       330        O      tau( 330) = (   0.2416337   0.7445048   1.2588964  )
       331        O      tau( 331) = (   0.8232583   0.9617889   1.3373563  )
       332        O      tau( 332) = (   0.0224173   0.1103921   1.3331986  )
       333        O      tau( 333) = (   0.0827261   0.7743688   1.7158336  )
       334        O      tau( 334) = (   0.3058372   0.3697607   1.3216954  )
       335        O      tau( 335) = (   0.6940744   0.4843818   1.3763524  )
       336        O      tau( 336) = (   0.0505520   0.3569640   1.2588409  )
       337        O      tau( 337) = (   0.6956442   0.5556100   1.2255199  )
       338        O      tau( 338) = (   0.9205918   0.8444316   1.2442634  )
       339        Al     tau( 339) = (   0.9474166   0.9984982   1.4171699  )
       340        Al     tau( 340) = (   0.7317137   0.2651324   1.2660316  )
       341        C      tau( 341) = (   0.5691377   0.4617851   2.3794486  )
       342        C      tau( 342) = (   0.4944784   0.4516561   2.3809324  )
       343        C      tau( 343) = (   0.6140474   0.4021687   2.3748223  )
       344        C      tau( 344) = (   0.4669239   0.3822075   2.3777620  )
       345        C      tau( 345) = (   0.5966869   0.5312330   2.3826190  )
       346        C      tau( 346) = (   0.4495738   0.5112736   2.3855532  )
       347        C      tau( 347) = (   0.5857528   0.3335483   2.3717087  )
       348        C      tau( 348) = (   0.5123336   0.3235869   2.3731784  )
       349        C      tau( 349) = (   0.5512823   0.5898546   2.3871972  )
       350        C      tau( 350) = (   0.4778681   0.5798945   2.3886562  )
       351        H      tau( 351) = (   0.6715984   0.4086951   2.3735964  )
       352        H      tau( 352) = (   0.4097061   0.3731626   2.3788306  )
       353        H      tau( 353) = (   0.6539041   0.5402829   2.3815561  )
       354        H      tau( 354) = (   0.3920120   0.5047463   2.3867687  )
       355        H      tau( 355) = (   0.6210717   0.2878911   2.3681442  )
       356        H      tau( 356) = (   0.4903398   0.2701488   2.3707514  )
       357        H      tau( 357) = (   0.5732767   0.6432877   2.3896186  )
       358        H      tau( 358) = (   0.4425484   0.6255570   2.3922210  )

     number of k points=     1  Gaussian smearing, width (Ry)=  0.0100
                       cart. coord. in units 2pi/alat
        k(    1) = (   0.0000000   0.0000000   0.0000000), wk =   2.0000000

     Dense  grid: 15943719 G-vectors     FFT dimensions: ( 216, 216, 675)

     Smooth grid: 13361281 G-vectors     FFT dimensions: ( 216, 216, 625)

     Estimated max dynamical RAM per process >       4.14 GB

     Estimated total dynamical RAM >     331.13 GB

     Check: negative core charge=   -0.000001

     Initial potential from superposition of free atoms

     starting charge    1871.8703, renormalised to    1872.0000

     negative rho (up, down):  4.104E-02 0.000E+00
     Starting wfcs are 1419 randomized atomic wfcs
     Checking if some PAW data can be deallocated... 

     total cpu time spent up to now is      150.6 secs

     per-process dynamical memory:  1754.1 Mb

     Self-consistent Calculation

     iteration #  1     ecut=    80.00 Ry     beta= 0.10
     Davidson diagonalization with overlap
     ethr =  1.00E-02,  avg # of iterations =  3.0

     negative rho (up, down):  4.307E-02 0.000E+00

     total cpu time spent up to now is      643.3 secs

     total energy              =  -11693.36871720 Ry
     estimated scf accuracy    <     115.61508360 Ry

     iteration #  2     ecut=    80.00 Ry     beta= 0.10
     Davidson diagonalization with overlap
     ethr =  6.18E-03,  avg # of iterations =  1.0

     negative rho (up, down):  4.478E-02 0.000E+00

     total cpu time spent up to now is      931.7 secs

     total energy              =  -11688.11252724 Ry
     estimated scf accuracy    <      84.93387483 Ry

     iteration #  3     ecut=    80.00 Ry     beta= 0.10
     Davidson diagonalization with overlap
     ethr =  4.54E-03,  avg # of iterations =  1.0

     negative rho (up, down):  4.662E-02 0.000E+00

     total cpu time spent up to now is     1220.3 secs

     total energy              =  -11681.49845708 Ry
     estimated scf accuracy    <      59.16932262 Ry

     iteration #  4     ecut=    80.00 Ry     beta= 0.10
     Davidson diagonalization with overlap
     ethr =  3.16E-03,  avg # of iterations =  2.0

     negative rho (up, down):  4.771E-02 0.000E+00

     total cpu time spent up to now is     1544.6 secs

     total energy              =  -11682.81883940 Ry
     estimated scf accuracy    <      60.38881359 Ry

     iteration #  5     ecut=    80.00 Ry     beta= 0.10
     Davidson diagonalization with overlap
     ethr =  3.16E-03,  avg # of iterations =  1.0

     negative rho (up, down):  4.882E-02 0.000E+00

     total cpu time spent up to now is     1833.8 secs

     total energy              =  -11682.22120348 Ry
     estimated scf accuracy    <      39.06218773 Ry

     iteration #  6     ecut=    80.00 Ry     beta= 0.10
     Davidson diagonalization with overlap
     ethr =  2.09E-03,  avg # of iterations =  2.0

     negative rho (up, down):  4.970E-02 0.000E+00

     total cpu time spent up to now is     2157.9 secs

     total energy              =  -11682.39755978 Ry
     estimated scf accuracy    <      23.47632995 Ry

     iteration #  7     ecut=    80.00 Ry     beta= 0.10
     Davidson diagonalization with overlap
     ethr =  1.25E-03,  avg # of iterations =  2.0

     negative rho (up, down):  5.050E-02 0.000E+00

     total cpu time spent up to now is     2483.3 secs

     total energy              =  -11682.14976626 Ry
     estimated scf accuracy    <      39.74131220 Ry

     iteration #  8     ecut=    80.00 Ry     beta= 0.10
     Davidson diagonalization with overlap
     ethr =  1.25E-03,  avg # of iterations =  1.0

     negative rho (up, down):  5.109E-02 0.000E+00

     total cpu time spent up to now is     2771.7 secs

     total energy              =  -11682.31865477 Ry
     estimated scf accuracy    <      15.33836061 Ry

     iteration #  9     ecut=    80.00 Ry     beta= 0.10
     Davidson diagonalization with overlap
     ethr =  8.19E-04,  avg # of iterations =  2.0

     negative rho (up, down):  5.168E-02 0.000E+00

     total cpu time spent up to now is     3096.2 secs

     total energy              =  -11682.18814612 Ry
     estimated scf accuracy    <       9.99657606 Ry

     iteration # 10     ecut=    80.00 Ry     beta= 0.10
     Davidson diagonalization with overlap
     ethr =  5.34E-04,  avg # of iterations =  5.0

     negative rho (up, down):  5.220E-02 0.000E+00

     total cpu time spent up to now is     3428.9 secs

     total energy              =  -11682.23821396 Ry
     estimated scf accuracy    <       7.36540619 Ry

     iteration # 11     ecut=    80.00 Ry     beta= 0.10
     Davidson diagonalization with overlap
     ethr =  3.93E-04,  avg # of iterations = 16.0

     negative rho (up, down):  5.256E-02 0.000E+00

     total cpu time spent up to now is     3824.4 secs

     total energy              =  -11682.19094541 Ry
     estimated scf accuracy    <      10.00610673 Ry

     iteration # 12     ecut=    80.00 Ry     beta= 0.10
     Davidson diagonalization with overlap
     ethr =  3.93E-04,  avg # of iterations =  2.0

     negative rho (up, down):  5.292E-02 0.000E+00

     total cpu time spent up to now is     4149.1 secs

     total energy              =  -11682.20990915 Ry
     estimated scf accuracy    <       4.27348863 Ry

     iteration # 13     ecut=    80.00 Ry     beta= 0.10
     Davidson diagonalization with overlap
     ethr =  2.28E-04,  avg # of iterations =  2.0

     negative rho (up, down):  5.335E-02 0.000E+00

     total cpu time spent up to now is     4475.0 secs

     total energy              =  -11682.10644209 Ry
     estimated scf accuracy    <      11.54529953 Ry

     iteration # 14     ecut=    80.00 Ry     beta= 0.10
     Davidson diagonalization with overlap
     ethr =  2.28E-04,  avg # of iterations =  1.0

     negative rho (up, down):  5.369E-02 0.000E+00

     total cpu time spent up to now is     4763.5 secs

     total energy              =  -11682.18510279 Ry
     estimated scf accuracy    <       4.68991879 Ry

     iteration # 15     ecut=    80.00 Ry     beta= 0.10
     Davidson diagonalization with overlap
     ethr =  2.28E-04,  avg # of iterations =  1.0

     negative rho (up, down):  5.381E-02 0.000E+00

     total cpu time spent up to now is     5052.7 secs

     total energy              =  -11682.06786574 Ry
     estimated scf accuracy    <      11.28083639 Ry

     iteration # 16     ecut=    80.00 Ry     beta= 0.10
     Davidson diagonalization with overlap
     ethr =  2.28E-04,  avg # of iterations =  1.0

     negative rho (up, down):  5.424E-02 0.000E+00

     total cpu time spent up to now is     5342.4 secs

     total energy              =  -11682.14422973 Ry
     estimated scf accuracy    <       3.39661924 Ry

     iteration # 17     ecut=    80.00 Ry     beta= 0.10
     Davidson diagonalization with overlap
     ethr =  1.81E-04,  avg # of iterations =  1.0

     negative rho (up, down):  5.475E-02 0.000E+00

     total cpu time spent up to now is     5630.5 secs

     total energy              =  -11681.99047793 Ry
     estimated scf accuracy    <      13.80964996 Ry

     iteration # 18     ecut=    80.00 Ry     beta= 0.10
     Davidson diagonalization with overlap
     ethr =  1.81E-04,  avg # of iterations =  1.0

     negative rho (up, down):  5.476E-02 0.000E+00

     total cpu time spent up to now is     5919.4 secs

     total energy              =  -11681.96621755 Ry
     estimated scf accuracy    <      13.22389082 Ry

     iteration # 19     ecut=    80.00 Ry     beta= 0.10
     Davidson diagonalization with overlap
     ethr =  1.81E-04,  avg # of iterations =  1.0

     negative rho (up, down):  5.489E-02 0.000E+00

     total cpu time spent up to now is     6208.1 secs

     total energy              =  -11682.10306559 Ry
     estimated scf accuracy    <       2.45947882 Ry

     iteration # 20     ecut=    80.00 Ry     beta= 0.10
     Davidson diagonalization with overlap
     ethr =  1.31E-04,  avg # of iterations =  1.0

     negative rho (up, down):  5.532E-02 0.000E+00

     total cpu time spent up to now is     6497.8 secs

     total energy              =  -11682.06554268 Ry
     estimated scf accuracy    <       5.05513683 Ry

     iteration # 21     ecut=    80.00 Ry     beta= 0.10
     Davidson diagonalization with overlap
     ethr =  1.31E-04,  avg # of iterations =  1.0

     negative rho (up, down):  5.552E-02 0.000E+00

     total cpu time spent up to now is     6786.4 secs

     total energy              =  -11682.07944041 Ry
     estimated scf accuracy    <       3.28187623 Ry

     iteration # 22     ecut=    80.00 Ry     beta= 0.10
     Davidson diagonalization with overlap
     ethr =  1.31E-04,  avg # of iterations =  2.0

     negative rho (up, down):  5.559E-02 0.000E+00

     total cpu time spent up to now is     7111.3 secs

     total energy              =  -11682.06504828 Ry
     estimated scf accuracy    <       4.90766926 Ry

     iteration # 23     ecut=    80.00 Ry     beta= 0.10
     Davidson diagonalization with overlap
     ethr =  1.31E-04,  avg # of iterations =  1.0

     negative rho (up, down):  5.583E-02 0.000E+00

     total cpu time spent up to now is     7400.5 secs

     total energy              =  -11682.09736594 Ry
     estimated scf accuracy    <       2.60429622 Ry

     iteration # 24     ecut=    80.00 Ry     beta= 0.10
     Davidson diagonalization with overlap
     ethr =  1.31E-04,  avg # of iterations =  1.0

     negative rho (up, down):  5.613E-02 0.000E+00

     total cpu time spent up to now is     7689.6 secs

     total energy              =  -11682.09713026 Ry
     estimated scf accuracy    <       2.01846263 Ry

     iteration # 25     ecut=    80.00 Ry     beta= 0.10
     Davidson diagonalization with overlap
     ethr =  1.08E-04,  avg # of iterations =  1.0

     negative rho (up, down):  5.605E-02 0.000E+00

     total cpu time spent up to now is     7979.3 secs

     total energy              =  -11682.08085689 Ry
     estimated scf accuracy    <       1.87707290 Ry

     iteration # 26     ecut=    80.00 Ry     beta= 0.10
     Davidson diagonalization with overlap
     ethr =  1.00E-04,  avg # of iterations =  1.0

     negative rho (up, down):  5.632E-02 0.000E+00

     total cpu time spent up to now is     8268.7 secs

     total energy              =  -11682.09430674 Ry
     estimated scf accuracy    <       1.69455839 Ry

     iteration # 27     ecut=    80.00 Ry     beta= 0.10
     Davidson diagonalization with overlap
     ethr =  9.05E-05,  avg # of iterations =  1.0

     negative rho (up, down):  5.668E-02 0.000E+00

     total cpu time spent up to now is     8558.4 secs

     total energy              =  -11682.09153303 Ry
     estimated scf accuracy    <       1.56719786 Ry

     iteration # 28     ecut=    80.00 Ry     beta= 0.10
     Davidson diagonalization with overlap
     ethr =  8.37E-05,  avg # of iterations =  1.0

     negative rho (up, down):  5.650E-02 0.000E+00

     total cpu time spent up to now is     8847.6 secs

     total energy              =  -11682.06620445 Ry
     estimated scf accuracy    <       4.13920932 Ry

     iteration # 29     ecut=    80.00 Ry     beta= 0.10
     Davidson diagonalization with overlap
     ethr =  8.37E-05,  avg # of iterations =  1.0

     negative rho (up, down):  5.663E-02 0.000E+00

     total cpu time spent up to now is     9137.1 secs

     total energy              =  -11682.08590726 Ry
     estimated scf accuracy    <       3.39940452 Ry

     iteration # 30     ecut=    80.00 Ry     beta= 0.10
     Davidson diagonalization with overlap
     ethr =  8.37E-05,  avg # of iterations =  1.0

     negative rho (up, down):  5.697E-02 0.000E+00

     total cpu time spent up to now is     9426.5 secs

     total energy              =  -11682.10017728 Ry
     estimated scf accuracy    <       0.85968000 Ry

     iteration # 31     ecut=    80.00 Ry     beta= 0.10
     Davidson diagonalization with overlap
     ethr =  4.59E-05,  avg # of iterations = 17.0

     negative rho (up, down):  5.722E-02 0.000E+00

     total cpu time spent up to now is     9881.3 secs

     total energy              =  -11682.09106187 Ry
     estimated scf accuracy    <       1.49321834 Ry

     iteration # 32     ecut=    80.00 Ry     beta= 0.10
     Davidson diagonalization with overlap
     ethr =  4.59E-05,  avg # of iterations =  1.0

     negative rho (up, down):  5.716E-02 0.000E+00

     total cpu time spent up to now is    10172.0 secs

     total energy              =  -11682.08776340 Ry
     estimated scf accuracy    <       0.82206376 Ry

     iteration # 33     ecut=    80.00 Ry     beta= 0.10
     Davidson diagonalization with overlap
     ethr =  4.39E-05,  avg # of iterations =  1.0

     negative rho (up, down):  5.717E-02 0.000E+00

     total cpu time spent up to now is    10462.4 secs

     total energy              =  -11682.05788443 Ry
     estimated scf accuracy    <       6.25293299 Ry

     iteration # 34     ecut=    80.00 Ry     beta= 0.10
     Davidson diagonalization with overlap
     ethr =  4.39E-05,  avg # of iterations =  1.0

     negative rho (up, down):  5.761E-02 0.000E+00

     total cpu time spent up to now is    10752.0 secs

     total energy              =  -11682.09126530 Ry
     estimated scf accuracy    <       2.07814241 Ry

     iteration # 35     ecut=    80.00 Ry     beta= 0.10
     Davidson diagonalization with overlap
     ethr =  4.39E-05,  avg # of iterations =  1.0

     negative rho (up, down):  5.750E-02 0.000E+00

     total cpu time spent up to now is    11042.2 secs

     total energy              =  -11682.09386107 Ry
     estimated scf accuracy    <       0.79044513 Ry

     iteration # 36     ecut=    80.00 Ry     beta= 0.10
     Davidson diagonalization with overlap
     ethr =  4.22E-05,  avg # of iterations =  1.0

     negative rho (up, down):  5.765E-02 0.000E+00

     total cpu time spent up to now is    11334.1 secs

     total energy              =  -11682.08922728 Ry
     estimated scf accuracy    <       1.64655954 Ry

     iteration # 37     ecut=    80.00 Ry     beta= 0.10
     Davidson diagonalization with overlap
     ethr =  4.22E-05,  avg # of iterations =  1.0

     negative rho (up, down):  5.815E-02 0.000E+00

     total cpu time spent up to now is    11622.9 secs

     total energy              =  -11682.10463427 Ry
     estimated scf accuracy    <       0.55053672 Ry

     iteration # 38     ecut=    80.00 Ry     beta= 0.10
     Davidson diagonalization with overlap
     ethr =  2.94E-05,  avg # of iterations =  1.0

     negative rho (up, down):  5.790E-02 0.000E+00

     total cpu time spent up to now is    11913.7 secs

     total energy              =  -11682.10035707 Ry
     estimated scf accuracy    <       0.41969170 Ry

     iteration # 39     ecut=    80.00 Ry     beta= 0.10
     Davidson diagonalization with overlap
     ethr =  2.24E-05,  avg # of iterations =  1.0

     negative rho (up, down):  5.780E-02 0.000E+00

     total cpu time spent up to now is    12203.8 secs

     total energy              =  -11682.09760334 Ry
     estimated scf accuracy    <       1.12668341 Ry

     iteration # 40     ecut=    80.00 Ry     beta= 0.10
     Davidson diagonalization with overlap
     ethr =  2.24E-05,  avg # of iterations =  1.0

     negative rho (up, down):  5.800E-02 0.000E+00

     total cpu time spent up to now is    12493.3 secs

     total energy              =  -11682.09137343 Ry
     estimated scf accuracy    <       2.18320342 Ry

     iteration # 41     ecut=    80.00 Ry     beta= 0.10
     Davidson diagonalization with overlap
     ethr =  2.24E-05,  avg # of iterations =  1.0

     negative rho (up, down):  5.807E-02 0.000E+00

     total cpu time spent up to now is    12782.8 secs

     total energy              =  -11682.10639988 Ry
     estimated scf accuracy    <       0.25891109 Ry

     iteration # 42     ecut=    80.00 Ry     beta= 0.10
     Davidson diagonalization with overlap
     ethr =  1.38E-05,  avg # of iterations =  1.0

     negative rho (up, down):  5.821E-02 0.000E+00

     total cpu time spent up to now is    13071.8 secs

     total energy              =  -11682.10824158 Ry
     estimated scf accuracy    <       0.18575281 Ry

     iteration # 43     ecut=    80.00 Ry     beta= 0.10
     Davidson diagonalization with overlap
     ethr =  9.92E-06,  avg # of iterations =  1.0

     negative rho (up, down):  5.823E-02 0.000E+00

     total cpu time spent up to now is    13362.1 secs

     total energy              =  -11682.10744686 Ry
     estimated scf accuracy    <       0.18509775 Ry

     iteration # 44     ecut=    80.00 Ry     beta= 0.10
     Davidson diagonalization with overlap
     ethr =  9.89E-06,  avg # of iterations =  1.0

     negative rho (up, down):  5.829E-02 0.000E+00

     total cpu time spent up to now is    13652.5 secs

     total energy              =  -11682.10545929 Ry
     estimated scf accuracy    <       0.58071953 Ry

     iteration # 45     ecut=    80.00 Ry     beta= 0.10
     Davidson diagonalization with overlap
     ethr =  9.89E-06,  avg # of iterations =  1.0

     negative rho (up, down):  5.831E-02 0.000E+00

     total cpu time spent up to now is    13942.4 secs

     total energy              =  -11682.10911637 Ry
     estimated scf accuracy    <       0.08661078 Ry

     iteration # 46     ecut=    80.00 Ry     beta= 0.10
     Davidson diagonalization with overlap
     ethr =  4.63E-06,  avg # of iterations =  1.0

     negative rho (up, down):  5.830E-02 0.000E+00

     total cpu time spent up to now is    14232.6 secs

     total energy              =  -11682.10815532 Ry
     estimated scf accuracy    <       0.21610855 Ry

     iteration # 47     ecut=    80.00 Ry     beta= 0.10
     Davidson diagonalization with overlap
     ethr =  4.63E-06,  avg # of iterations =  1.0

     negative rho (up, down):  5.845E-02 0.000E+00

     total cpu time spent up to now is    14523.0 secs

     total energy              =  -11682.11002327 Ry
     estimated scf accuracy    <       0.10409065 Ry

     iteration # 48     ecut=    80.00 Ry     beta= 0.10
     Davidson diagonalization with overlap
     ethr =  4.63E-06,  avg # of iterations =  1.0

     negative rho (up, down):  5.844E-02 0.000E+00

     total cpu time spent up to now is    14812.2 secs

     total energy              =  -11682.10891825 Ry
     estimated scf accuracy    <       0.08528131 Ry

     iteration # 49     ecut=    80.00 Ry     beta= 0.10
     Davidson diagonalization with overlap
     ethr =  4.56E-06,  avg # of iterations =  1.0

     negative rho (up, down):  5.845E-02 0.000E+00

     total cpu time spent up to now is    15103.9 secs

     total energy              =  -11682.10582910 Ry
     estimated scf accuracy    <       0.79892170 Ry

     iteration # 50     ecut=    80.00 Ry     beta= 0.10
     Davidson diagonalization with overlap
     ethr =  4.56E-06,  avg # of iterations =  1.0

     negative rho (up, down):  5.846E-02 0.000E+00

     total cpu time spent up to now is    15396.2 secs

     total energy              =  -11682.10972759 Ry
     estimated scf accuracy    <       0.10898789 Ry

     iteration # 51     ecut=    80.00 Ry     beta= 0.10
     Davidson diagonalization with overlap
     ethr =  4.56E-06,  avg # of iterations =  1.0

     negative rho (up, down):  5.848E-02 0.000E+00

     total cpu time spent up to now is    15686.9 secs

     total energy              =  -11682.11024031 Ry
     estimated scf accuracy    <       0.06263218 Ry

     iteration # 52     ecut=    80.00 Ry     beta= 0.10
     Davidson diagonalization with overlap
     ethr =  3.35E-06,  avg # of iterations =  1.0

     negative rho (up, down):  5.853E-02 0.000E+00

     total cpu time spent up to now is    15976.1 secs

     total energy              =  -11682.11057610 Ry
     estimated scf accuracy    <       0.05441154 Ry

     iteration # 53     ecut=    80.00 Ry     beta= 0.10
     Davidson diagonalization with overlap
     ethr =  2.91E-06,  avg # of iterations =  1.0

     negative rho (up, down):  5.858E-02 0.000E+00

     total cpu time spent up to now is    16266.5 secs

     total energy              =  -11682.11085745 Ry
     estimated scf accuracy    <       0.04100918 Ry

     iteration # 54     ecut=    80.00 Ry     beta= 0.10
     Davidson diagonalization with overlap
     ethr =  2.19E-06,  avg # of iterations =  1.0

     negative rho (up, down):  5.860E-02 0.000E+00

     total cpu time spent up to now is    16556.2 secs

     total energy              =  -11682.11063461 Ry
     estimated scf accuracy    <       0.07284727 Ry

     iteration # 55     ecut=    80.00 Ry     beta= 0.10
     Davidson diagonalization with overlap
     ethr =  2.19E-06,  avg # of iterations =  1.0

     negative rho (up, down):  5.861E-02 0.000E+00

     total cpu time spent up to now is    16846.4 secs

     total energy              =  -11682.11098326 Ry
     estimated scf accuracy    <       0.03765073 Ry

     iteration # 56     ecut=    80.00 Ry     beta= 0.10
     Davidson diagonalization with overlap
     ethr =  2.01E-06,  avg # of iterations =  1.0

     negative rho (up, down):  5.860E-02 0.000E+00

     total cpu time spent up to now is    17138.2 secs

     total energy              =  -11682.11064707 Ry
     estimated scf accuracy    <       0.06656557 Ry

     iteration # 57     ecut=    80.00 Ry     beta= 0.10
     Davidson diagonalization with overlap
     ethr =  2.01E-06,  avg # of iterations =  1.0

     negative rho (up, down):  5.869E-02 0.000E+00

     total cpu time spent up to now is    17428.7 secs

     total energy              =  -11682.11125336 Ry
     estimated scf accuracy    <       0.05587861 Ry

     iteration # 58     ecut=    80.00 Ry     beta= 0.10
     Davidson diagonalization with overlap
     ethr =  2.01E-06,  avg # of iterations =  1.0

     negative rho (up, down):  5.874E-02 0.000E+00

     total cpu time spent up to now is    17718.6 secs

     total energy              =  -11682.11144431 Ry
     estimated scf accuracy    <       0.02609678 Ry

     iteration # 59     ecut=    80.00 Ry     beta= 0.10
     Davidson diagonalization with overlap
     ethr =  1.39E-06,  avg # of iterations =  1.0

     negative rho (up, down):  5.869E-02 0.000E+00

     total cpu time spent up to now is    18009.3 secs

     total energy              =  -11682.11043626 Ry
     estimated scf accuracy    <       0.16764295 Ry

     iteration # 60     ecut=    80.00 Ry     beta= 0.10
     Davidson diagonalization with overlap
     ethr =  1.39E-06,  avg # of iterations =  1.0

     negative rho (up, down):  5.870E-02 0.000E+00

     total cpu time spent up to now is    18299.0 secs

     total energy              =  -11682.11092912 Ry
     estimated scf accuracy    <       0.09152602 Ry

     iteration # 61     ecut=    80.00 Ry     beta= 0.10
     Davidson diagonalization with overlap
     ethr =  1.39E-06,  avg # of iterations =  1.0

     negative rho (up, down):  5.871E-02 0.000E+00

     total cpu time spent up to now is    18589.1 secs

     total energy              =  -11682.11133091 Ry
     estimated scf accuracy    <       0.03870544 Ry

     iteration # 62     ecut=    80.00 Ry     beta= 0.10
     Davidson diagonalization with overlap
     ethr =  1.39E-06,  avg # of iterations =  1.0

     negative rho (up, down):  5.875E-02 0.000E+00

     total cpu time spent up to now is    18878.7 secs

     total energy              =  -11682.11151005 Ry
     estimated scf accuracy    <       0.03419316 Ry

     iteration # 63     ecut=    80.00 Ry     beta= 0.10
     Davidson diagonalization with overlap
     ethr =  1.39E-06,  avg # of iterations =  1.0

     negative rho (up, down):  5.879E-02 0.000E+00

     total cpu time spent up to now is    19169.2 secs

     total energy              =  -11682.11179301 Ry
     estimated scf accuracy    <       0.02433308 Ry

     iteration # 64     ecut=    80.00 Ry     beta= 0.10
     Davidson diagonalization with overlap
     ethr =  1.30E-06,  avg # of iterations =  1.0

     negative rho (up, down):  5.879E-02 0.000E+00

     total cpu time spent up to now is    19458.9 secs

     total energy              =  -11682.11162882 Ry
     estimated scf accuracy    <       0.03447218 Ry

     iteration # 65     ecut=    80.00 Ry     beta= 0.10
     Davidson diagonalization with overlap
     ethr =  1.30E-06,  avg # of iterations =  1.0

     negative rho (up, down):  5.879E-02 0.000E+00

     total cpu time spent up to now is    19748.8 secs

     total energy              =  -11682.11178829 Ry
     estimated scf accuracy    <       0.01889490 Ry

     iteration # 66     ecut=    80.00 Ry     beta= 0.10
     Davidson diagonalization with overlap
     ethr =  1.01E-06,  avg # of iterations =  1.0

     negative rho (up, down):  5.880E-02 0.000E+00

     total cpu time spent up to now is    20038.1 secs

     total energy              =  -11682.11174791 Ry
     estimated scf accuracy    <       0.02375105 Ry

     iteration # 67     ecut=    80.00 Ry     beta= 0.10
     Davidson diagonalization with overlap
     ethr =  1.01E-06,  avg # of iterations =  2.0

     negative rho (up, down):  5.885E-02 0.000E+00

     total cpu time spent up to now is    20363.7 secs

     total energy              =  -11682.11197355 Ry
     estimated scf accuracy    <       0.02347297 Ry

     iteration # 68     ecut=    80.00 Ry     beta= 0.10
     Davidson diagonalization with overlap
     ethr =  1.01E-06,  avg # of iterations =  1.0

     negative rho (up, down):  5.888E-02 0.000E+00

     total cpu time spent up to now is    20654.2 secs

     total energy              =  -11682.11211946 Ry
     estimated scf accuracy    <       0.00893689 Ry

     iteration # 69     ecut=    80.00 Ry     beta= 0.10
     Davidson diagonalization with overlap
     ethr =  4.77E-07,  avg # of iterations =  1.0

     negative rho (up, down):  5.888E-02 0.000E+00

     total cpu time spent up to now is    20944.3 secs

     total energy              =  -11682.11192922 Ry
     estimated scf accuracy    <       0.02834534 Ry

     iteration # 70     ecut=    80.00 Ry     beta= 0.10
     Davidson diagonalization with overlap
     ethr =  4.77E-07,  avg # of iterations =  1.0

     negative rho (up, down):  5.888E-02 0.000E+00

     total cpu time spent up to now is    21234.9 secs

     total energy              =  -11682.11181232 Ry
     estimated scf accuracy    <       0.04365320 Ry

     iteration # 71     ecut=    80.00 Ry     beta= 0.10
     Davidson diagonalization with overlap
     ethr =  4.77E-07,  avg # of iterations =  1.0

     negative rho (up, down):  5.888E-02 0.000E+00

     total cpu time spent up to now is    21525.5 secs

     total energy              =  -11682.11188897 Ry
     estimated scf accuracy    <       0.03854422 Ry

     iteration # 72     ecut=    80.00 Ry     beta= 0.10
     Davidson diagonalization with overlap
     ethr =  4.77E-07,  avg # of iterations =  1.0

     negative rho (up, down):  5.890E-02 0.000E+00

     total cpu time spent up to now is    21815.8 secs

     total energy              =  -11682.11205184 Ry
     estimated scf accuracy    <       0.02117491 Ry

     iteration # 73     ecut=    80.00 Ry     beta= 0.10
     Davidson diagonalization with overlap
     ethr =  4.77E-07,  avg # of iterations =  1.0

     negative rho (up, down):  5.895E-02 0.000E+00

     total cpu time spent up to now is    22105.7 secs

     total energy              =  -11682.11222641 Ry
     estimated scf accuracy    <       0.01769869 Ry

     iteration # 74     ecut=    80.00 Ry     beta= 0.10
     Davidson diagonalization with overlap
     ethr =  4.77E-07,  avg # of iterations =  1.0

     negative rho (up, down):  5.893E-02 0.000E+00

     total cpu time spent up to now is    22396.4 secs

     total energy              =  -11682.11215612 Ry
     estimated scf accuracy    <       0.01627488 Ry

     iteration # 75     ecut=    80.00 Ry     beta= 0.10
     Davidson diagonalization with overlap
     ethr =  4.77E-07,  avg # of iterations =  1.0

     negative rho (up, down):  5.894E-02 0.000E+00

     total cpu time spent up to now is    22687.7 secs

     total energy              =  -11682.11221040 Ry
     estimated scf accuracy    <       0.01331240 Ry

     iteration # 76     ecut=    80.00 Ry     beta= 0.10
     Davidson diagonalization with overlap
     ethr =  4.77E-07,  avg # of iterations =  1.0

     negative rho (up, down):  5.894E-02 0.000E+00

     total cpu time spent up to now is    22977.5 secs

     total energy              =  -11682.11221322 Ry
     estimated scf accuracy    <       0.01337541 Ry

     iteration # 77     ecut=    80.00 Ry     beta= 0.10
     Davidson diagonalization with overlap
     ethr =  4.77E-07,  avg # of iterations =  2.0

     negative rho (up, down):  5.897E-02 0.000E+00

     total cpu time spent up to now is    23302.6 secs

     total energy              =  -11682.11232271 Ry
     estimated scf accuracy    <       0.01255456 Ry

     iteration # 78     ecut=    80.00 Ry     beta= 0.10
     Davidson diagonalization with overlap
     ethr =  4.77E-07,  avg # of iterations =  1.0

     negative rho (up, down):  5.899E-02 0.000E+00

     total cpu time spent up to now is    23592.6 secs

     total energy              =  -11682.11240946 Ry
     estimated scf accuracy    <       0.00337492 Ry

     iteration # 79     ecut=    80.00 Ry     beta= 0.10
     Davidson diagonalization with overlap
     ethr =  1.80E-07,  avg # of iterations =  1.0

     negative rho (up, down):  5.900E-02 0.000E+00

     total cpu time spent up to now is    23883.2 secs

     total energy              =  -11682.11239576 Ry
     estimated scf accuracy    <       0.00599988 Ry

     iteration # 80     ecut=    80.00 Ry     beta= 0.10
     Davidson diagonalization with overlap
     ethr =  1.80E-07,  avg # of iterations =  1.0

     negative rho (up, down):  5.900E-02 0.000E+00

     total cpu time spent up to now is    24174.2 secs

     total energy              =  -11682.11234674 Ry
     estimated scf accuracy    <       0.01555456 Ry

     iteration # 81     ecut=    80.00 Ry     beta= 0.10
     Davidson diagonalization with overlap
     ethr =  1.80E-07,  avg # of iterations =  1.0

     negative rho (up, down):  5.901E-02 0.000E+00

     total cpu time spent up to now is    24463.8 secs

     total energy              =  -11682.11235991 Ry
     estimated scf accuracy    <       0.01445002 Ry

     iteration # 82     ecut=    80.00 Ry     beta= 0.10
     Davidson diagonalization with overlap
     ethr =  1.80E-07,  avg # of iterations =  1.0

     negative rho (up, down):  5.902E-02 0.000E+00

     total cpu time spent up to now is    24754.2 secs

     total energy              =  -11682.11239322 Ry
     estimated scf accuracy    <       0.01154620 Ry

     iteration # 83     ecut=    80.00 Ry     beta= 0.10
     Davidson diagonalization with overlap
     ethr =  1.80E-07,  avg # of iterations =  1.0

     negative rho (up, down):  5.905E-02 0.000E+00

     total cpu time spent up to now is    25044.5 secs

     total energy              =  -11682.11248481 Ry
     estimated scf accuracy    <       0.00834873 Ry

     iteration # 84     ecut=    80.00 Ry     beta= 0.10
     Davidson diagonalization with overlap
     ethr =  1.80E-07,  avg # of iterations =  1.0

     negative rho (up, down):  5.904E-02 0.000E+00

     total cpu time spent up to now is    25334.7 secs

     total energy              =  -11682.11245353 Ry
     estimated scf accuracy    <       0.00628256 Ry

     iteration # 85     ecut=    80.00 Ry     beta= 0.10
     Davidson diagonalization with overlap
     ethr =  1.80E-07,  avg # of iterations =  1.0

     negative rho (up, down):  5.904E-02 0.000E+00

     total cpu time spent up to now is    25624.5 secs

     total energy              =  -11682.11243903 Ry
     estimated scf accuracy    <       0.01128195 Ry

     iteration # 86     ecut=    80.00 Ry     beta= 0.10
     Davidson diagonalization with overlap
     ethr =  1.80E-07,  avg # of iterations =  1.0

     negative rho (up, down):  5.904E-02 0.000E+00

     total cpu time spent up to now is    25914.5 secs

     total energy              =  -11682.11246078 Ry
     estimated scf accuracy    <       0.00850987 Ry

     iteration # 87     ecut=    80.00 Ry     beta= 0.10
     Davidson diagonalization with overlap
     ethr =  1.80E-07,  avg # of iterations =  1.0

     negative rho (up, down):  5.906E-02 0.000E+00

     total cpu time spent up to now is    26203.9 secs

     total energy              =  -11682.11251213 Ry
     estimated scf accuracy    <       0.00828359 Ry

     iteration # 88     ecut=    80.00 Ry     beta= 0.10
     Davidson diagonalization with overlap
     ethr =  1.80E-07,  avg # of iterations =  1.0

     negative rho (up, down):  5.907E-02 0.000E+00

     total cpu time spent up to now is    26494.9 secs

     total energy              =  -11682.11256418 Ry
     estimated scf accuracy    <       0.00201326 Ry

     iteration # 89     ecut=    80.00 Ry     beta= 0.10
     Davidson diagonalization with overlap
     ethr =  1.08E-07,  avg # of iterations =  1.0

     negative rho (up, down):  5.908E-02 0.000E+00

     total cpu time spent up to now is    26784.5 secs

     total energy              =  -11682.11258190 Ry
     estimated scf accuracy    <       0.00223360 Ry

     iteration # 90     ecut=    80.00 Ry     beta= 0.10
     Davidson diagonalization with overlap
     ethr =  1.08E-07,  avg # of iterations =  1.0

     negative rho (up, down):  5.909E-02 0.000E+00

     total cpu time spent up to now is    27076.2 secs

     total energy              =  -11682.11256769 Ry
     estimated scf accuracy    <       0.00502825 Ry

     iteration # 91     ecut=    80.00 Ry     beta= 0.10
     Davidson diagonalization with overlap
     ethr =  1.08E-07,  avg # of iterations =  1.0

     negative rho (up, down):  5.910E-02 0.000E+00

     total cpu time spent up to now is    27365.8 secs

     total energy              =  -11682.11257568 Ry
     estimated scf accuracy    <       0.00580031 Ry

     iteration # 92     ecut=    80.00 Ry     beta= 0.10
     Davidson diagonalization with overlap
     ethr =  1.08E-07,  avg # of iterations =  1.0

     negative rho (up, down):  5.910E-02 0.000E+00

     total cpu time spent up to now is    27656.5 secs

     total energy              =  -11682.11258561 Ry
     estimated scf accuracy    <       0.00401762 Ry

     iteration # 93     ecut=    80.00 Ry     beta= 0.10
     Davidson diagonalization with overlap
     ethr =  1.08E-07,  avg # of iterations =  1.0

     negative rho (up, down):  5.912E-02 0.000E+00

     total cpu time spent up to now is    27946.6 secs

     total energy              =  -11682.11262366 Ry
     estimated scf accuracy    <       0.00323100 Ry

     iteration # 94     ecut=    80.00 Ry     beta= 0.10
     Davidson diagonalization with overlap
     ethr =  1.08E-07,  avg # of iterations =  1.0

     negative rho (up, down):  5.912E-02 0.000E+00

     total cpu time spent up to now is    28237.1 secs

     total energy              =  -11682.11261727 Ry
     estimated scf accuracy    <       0.00226721 Ry

     iteration # 95     ecut=    80.00 Ry     beta= 0.10
     Davidson diagonalization with overlap
     ethr =  1.08E-07,  avg # of iterations =  1.0

     negative rho (up, down):  5.912E-02 0.000E+00

     total cpu time spent up to now is    28527.2 secs

     total energy              =  -11682.11259492 Ry
     estimated scf accuracy    <       0.00682046 Ry

     iteration # 96     ecut=    80.00 Ry     beta= 0.10
     Davidson diagonalization with overlap
     ethr =  1.08E-07,  avg # of iterations =  1.0

     negative rho (up, down):  5.913E-02 0.000E+00

     total cpu time spent up to now is    28817.2 secs

     total energy              =  -11682.11260271 Ry
     estimated scf accuracy    <       0.00545505 Ry

     iteration # 97     ecut=    80.00 Ry     beta= 0.10
     Davidson diagonalization with overlap
     ethr =  1.08E-07,  avg # of iterations =  1.0

     negative rho (up, down):  5.914E-02 0.000E+00

     total cpu time spent up to now is    29107.8 secs

     total energy              =  -11682.11261291 Ry
     estimated scf accuracy    <       0.00731779 Ry

     iteration # 98     ecut=    80.00 Ry     beta= 0.10
     Davidson diagonalization with overlap
     ethr =  1.08E-07,  avg # of iterations =  1.0

     negative rho (up, down):  5.914E-02 0.000E+00

     total cpu time spent up to now is    29399.4 secs

     total energy              =  -11682.11265285 Ry
     estimated scf accuracy    <       0.00144997 Ry

     iteration # 99     ecut=    80.00 Ry     beta= 0.10
     Davidson diagonalization with overlap
     ethr =  7.75E-08,  avg # of iterations =  1.0

     negative rho (up, down):  5.915E-02 0.000E+00

     total cpu time spent up to now is    29688.8 secs

     total energy              =  -11682.11267152 Ry
     estimated scf accuracy    <       0.00133277 Ry

     iteration #100     ecut=    80.00 Ry     beta= 0.10
     Davidson diagonalization with overlap
     ethr =  7.12E-08,  avg # of iterations =  1.0

     negative rho (up, down):  5.915E-02 0.000E+00

     total cpu time spent up to now is    29978.7 secs

     total energy              =  -11682.11266949 Ry
     estimated scf accuracy    <       0.00189995 Ry

     iteration #101     ecut=    80.00 Ry     beta= 0.10
     Davidson diagonalization with overlap
     ethr =  7.12E-08,  avg # of iterations =  1.0

     negative rho (up, down):  5.916E-02 0.000E+00

     total cpu time spent up to now is    30269.1 secs

     total energy              =  -11682.11267514 Ry
     estimated scf accuracy    <       0.00209167 Ry

     iteration #102     ecut=    80.00 Ry     beta= 0.10
     Davidson diagonalization with overlap
     ethr =  7.12E-08,  avg # of iterations =  1.0

     negative rho (up, down):  5.916E-02 0.000E+00

     total cpu time spent up to now is    30559.3 secs

     total energy              =  -11682.11267937 Ry
     estimated scf accuracy    <       0.00160028 Ry

     iteration #103     ecut=    80.00 Ry     beta= 0.10
     Davidson diagonalization with overlap
     ethr =  7.12E-08,  avg # of iterations =  1.0

     negative rho (up, down):  5.917E-02 0.000E+00

     total cpu time spent up to now is    30850.1 secs

     total energy              =  -11682.11269359 Ry
     estimated scf accuracy    <       0.00137030 Ry

     iteration #104     ecut=    80.00 Ry     beta= 0.10
     Davidson diagonalization with overlap
     ethr =  7.12E-08,  avg # of iterations =  1.0

     negative rho (up, down):  5.918E-02 0.000E+00

     total cpu time spent up to now is    31140.2 secs

     total energy              =  -11682.11269823 Ry
     estimated scf accuracy    <       0.00082509 Ry

     iteration #105     ecut=    80.00 Ry     beta= 0.10
     Davidson diagonalization with overlap
     ethr =  4.41E-08,  avg # of iterations =  1.0

     negative rho (up, down):  5.918E-02 0.000E+00

     total cpu time spent up to now is    31430.3 secs

     total energy              =  -11682.11269098 Ry
     estimated scf accuracy    <       0.00304679 Ry

     iteration #106     ecut=    80.00 Ry     beta= 0.10
     Davidson diagonalization with overlap
     ethr =  4.41E-08,  avg # of iterations =  1.0

     negative rho (up, down):  5.919E-02 0.000E+00

     total cpu time spent up to now is    31720.8 secs

     total energy              =  -11682.11269669 Ry
     estimated scf accuracy    <       0.00257518 Ry

     iteration #107     ecut=    80.00 Ry     beta= 0.10
     Davidson diagonalization with overlap
     ethr =  4.41E-08,  avg # of iterations =  1.0

     negative rho (up, down):  5.919E-02 0.000E+00

     total cpu time spent up to now is    32011.7 secs

     total energy              =  -11682.11268982 Ry
     estimated scf accuracy    <       0.00408452 Ry

     iteration #108     ecut=    80.00 Ry     beta= 0.10
     Davidson diagonalization with overlap
     ethr =  4.41E-08,  avg # of iterations =  1.0

     negative rho (up, down):  5.919E-02 0.000E+00

     total cpu time spent up to now is    32301.8 secs

     total energy              =  -11682.11270570 Ry
     estimated scf accuracy    <       0.00105049 Ry

     iteration #109     ecut=    80.00 Ry     beta= 0.10
     Davidson diagonalization with overlap
     ethr =  4.41E-08,  avg # of iterations =  1.0

     negative rho (up, down):  5.920E-02 0.000E+00

     total cpu time spent up to now is    32591.8 secs

     total energy              =  -11682.11272033 Ry
     estimated scf accuracy    <       0.00105840 Ry

     iteration #110     ecut=    80.00 Ry     beta= 0.10
     Davidson diagonalization with overlap
     ethr =  4.41E-08,  avg # of iterations =  1.0

     negative rho (up, down):  5.920E-02 0.000E+00

     total cpu time spent up to now is    32881.1 secs

     total energy              =  -11682.11272039 Ry
     estimated scf accuracy    <       0.00114957 Ry

     iteration #111     ecut=    80.00 Ry     beta= 0.10
     Davidson diagonalization with overlap
     ethr =  4.41E-08,  avg # of iterations =  1.0

     negative rho (up, down):  5.921E-02 0.000E+00

     total cpu time spent up to now is    33171.2 secs

     total energy              =  -11682.11272407 Ry
     estimated scf accuracy    <       0.00126029 Ry

     iteration #112     ecut=    80.00 Ry     beta= 0.10
     Davidson diagonalization with overlap
     ethr =  4.41E-08,  avg # of iterations =  1.0

     negative rho (up, down):  5.921E-02 0.000E+00

     total cpu time spent up to now is    33462.0 secs

     total energy              =  -11682.11272628 Ry
     estimated scf accuracy    <       0.00091892 Ry

     iteration #113     ecut=    80.00 Ry     beta= 0.10
     Davidson diagonalization with overlap
     ethr =  4.41E-08,  avg # of iterations =  1.0

     negative rho (up, down):  5.922E-02 0.000E+00

     total cpu time spent up to now is    33753.4 secs

     total energy              =  -11682.11273280 Ry
     estimated scf accuracy    <       0.00076838 Ry

     iteration #114     ecut=    80.00 Ry     beta= 0.10
     Davidson diagonalization with overlap
     ethr =  4.10E-08,  avg # of iterations =  1.0

     negative rho (up, down):  5.922E-02 0.000E+00

     total cpu time spent up to now is    34043.6 secs

     total energy              =  -11682.11273983 Ry
     estimated scf accuracy    <       0.00034379 Ry

     iteration #115     ecut=    80.00 Ry     beta= 0.10
     Davidson diagonalization with overlap
     ethr =  1.84E-08,  avg # of iterations =  1.0

     negative rho (up, down):  5.923E-02 0.000E+00

     total cpu time spent up to now is    34334.2 secs

     total energy              =  -11682.11274017 Ry
     estimated scf accuracy    <       0.00111196 Ry

     iteration #116     ecut=    80.00 Ry     beta= 0.10
     Davidson diagonalization with overlap
     ethr =  1.84E-08,  avg # of iterations =  1.0

     negative rho (up, down):  5.924E-02 0.000E+00

     total cpu time spent up to now is    34624.1 secs

     total energy              =  -11682.11274382 Ry
     estimated scf accuracy    <       0.00092487 Ry

     iteration #117     ecut=    80.00 Ry     beta= 0.10
     Davidson diagonalization with overlap
     ethr =  1.84E-08,  avg # of iterations =  1.0

     negative rho (up, down):  5.923E-02 0.000E+00

     total cpu time spent up to now is    34914.4 secs

     total energy              =  -11682.11273828 Ry
     estimated scf accuracy    <       0.00168046 Ry

     iteration #118     ecut=    80.00 Ry     beta= 0.10
     Davidson diagonalization with overlap
     ethr =  1.84E-08,  avg # of iterations =  1.0

     negative rho (up, down):  5.923E-02 0.000E+00

     total cpu time spent up to now is    35204.3 secs

     total energy              =  -11682.11274101 Ry
     estimated scf accuracy    <       0.00058316 Ry

     iteration #119     ecut=    80.00 Ry     beta= 0.10
     Davidson diagonalization with overlap
     ethr =  1.84E-08,  avg # of iterations =  1.0

     negative rho (up, down):  5.924E-02 0.000E+00

     total cpu time spent up to now is    35494.7 secs

     total energy              =  -11682.11274905 Ry
     estimated scf accuracy    <       0.00082662 Ry

     iteration #120     ecut=    80.00 Ry     beta= 0.10
     Davidson diagonalization with overlap
     ethr =  1.84E-08,  avg # of iterations =  1.0

     negative rho (up, down):  5.924E-02 0.000E+00

     total cpu time spent up to now is    35784.1 secs

     total energy              =  -11682.11275066 Ry
     estimated scf accuracy    <       0.00081561 Ry

     iteration #121     ecut=    80.00 Ry     beta= 0.10
     Davidson diagonalization with overlap
     ethr =  1.84E-08,  avg # of iterations =  1.0

     negative rho (up, down):  5.925E-02 0.000E+00

     total cpu time spent up to now is    36075.2 secs

     total energy              =  -11682.11275201 Ry
     estimated scf accuracy    <       0.00092486 Ry

     iteration #122     ecut=    80.00 Ry     beta= 0.10
     Davidson diagonalization with overlap
     ethr =  1.84E-08,  avg # of iterations =  1.0

     negative rho (up, down):  5.925E-02 0.000E+00

     total cpu time spent up to now is    36365.8 secs

     total energy              =  -11682.11275346 Ry
     estimated scf accuracy    <       0.00065459 Ry

     iteration #123     ecut=    80.00 Ry     beta= 0.10
     Davidson diagonalization with overlap
     ethr =  1.84E-08,  avg # of iterations =  1.0

     negative rho (up, down):  5.925E-02 0.000E+00

     total cpu time spent up to now is    36655.4 secs

     total energy              =  -11682.11275534 Ry
     estimated scf accuracy    <       0.00059026 Ry

     iteration #124     ecut=    80.00 Ry     beta= 0.10
     Davidson diagonalization with overlap
     ethr =  1.84E-08,  avg # of iterations =  1.0

     negative rho (up, down):  5.925E-02 0.000E+00

     total cpu time spent up to now is    36944.5 secs

     total energy              =  -11682.11276126 Ry
     estimated scf accuracy    <       0.00019988 Ry

     iteration #125     ecut=    80.00 Ry     beta= 0.10
     Davidson diagonalization with overlap
     ethr =  1.07E-08,  avg # of iterations =  1.0

     negative rho (up, down):  5.926E-02 0.000E+00

     total cpu time spent up to now is    37234.7 secs

     total energy              =  -11682.11276317 Ry
     estimated scf accuracy    <       0.00042235 Ry

     iteration #126     ecut=    80.00 Ry     beta= 0.10
     Davidson diagonalization with overlap
     ethr =  1.07E-08,  avg # of iterations =  1.0

     negative rho (up, down):  5.927E-02 0.000E+00

     total cpu time spent up to now is    37524.2 secs

     total energy              =  -11682.11276580 Ry
     estimated scf accuracy    <       0.00030544 Ry

     iteration #127     ecut=    80.00 Ry     beta= 0.10
     Davidson diagonalization with overlap
     ethr =  1.07E-08,  avg # of iterations =  1.0

     negative rho (up, down):  5.927E-02 0.000E+00

     total cpu time spent up to now is    37813.8 secs

     total energy              =  -11682.11276346 Ry
     estimated scf accuracy    <       0.00056247 Ry

     iteration #128     ecut=    80.00 Ry     beta= 0.10
     Davidson diagonalization with overlap
     ethr =  1.07E-08,  avg # of iterations =  1.0

     negative rho (up, down):  5.926E-02 0.000E+00

     total cpu time spent up to now is    38103.9 secs

     total energy              =  -11682.11276396 Ry
     estimated scf accuracy    <       0.00027599 Ry

     iteration #129     ecut=    80.00 Ry     beta= 0.10
     Davidson diagonalization with overlap
     ethr =  1.07E-08,  avg # of iterations =  1.0

     negative rho (up, down):  5.927E-02 0.000E+00

     total cpu time spent up to now is    38394.5 secs

     total energy              =  -11682.11276669 Ry
     estimated scf accuracy    <       0.00052470 Ry

     iteration #130     ecut=    80.00 Ry     beta= 0.10
     Davidson diagonalization with overlap
     ethr =  1.07E-08,  avg # of iterations =  1.0

     negative rho (up, down):  5.928E-02 0.000E+00

     total cpu time spent up to now is    38685.1 secs

     total energy              =  -11682.11276881 Ry
     estimated scf accuracy    <       0.00048743 Ry

     iteration #131     ecut=    80.00 Ry     beta= 0.10
     Davidson diagonalization with overlap
     ethr =  1.07E-08,  avg # of iterations =  1.0

     negative rho (up, down):  5.928E-02 0.000E+00

     total cpu time spent up to now is    38975.9 secs

     total energy              =  -11682.11276943 Ry
     estimated scf accuracy    <       0.00055834 Ry

     iteration #132     ecut=    80.00 Ry     beta= 0.10
     Davidson diagonalization with overlap
     ethr =  1.07E-08,  avg # of iterations =  1.0

     negative rho (up, down):  5.928E-02 0.000E+00

     total cpu time spent up to now is    39265.6 secs

     total energy              =  -11682.11277007 Ry
     estimated scf accuracy    <       0.00039113 Ry

     iteration #133     ecut=    80.00 Ry     beta= 0.10
     Davidson diagonalization with overlap
     ethr =  1.07E-08,  avg # of iterations =  1.0

     negative rho (up, down):  5.928E-02 0.000E+00

     total cpu time spent up to now is    39557.1 secs

     total energy              =  -11682.11276877 Ry
     estimated scf accuracy    <       0.00044892 Ry

     iteration #134     ecut=    80.00 Ry     beta= 0.10
     Davidson diagonalization with overlap
     ethr =  1.07E-08,  avg # of iterations =  1.0

     negative rho (up, down):  5.928E-02 0.000E+00

     total cpu time spent up to now is    39847.8 secs

     total energy              =  -11682.11277336 Ry
     estimated scf accuracy    <       0.00016034 Ry

     iteration #135     ecut=    80.00 Ry     beta= 0.10
     Davidson diagonalization with overlap
     ethr =  8.57E-09,  avg # of iterations =  1.0

     negative rho (up, down):  5.929E-02 0.000E+00

     total cpu time spent up to now is    40137.3 secs

     total energy              =  -11682.11277480 Ry
     estimated scf accuracy    <       0.00024058 Ry

     iteration #136     ecut=    80.00 Ry     beta= 0.10
     Davidson diagonalization with overlap
     ethr =  8.57E-09,  avg # of iterations =  1.0

     negative rho (up, down):  5.929E-02 0.000E+00

     total cpu time spent up to now is    40427.5 secs

     total energy              =  -11682.11277637 Ry
     estimated scf accuracy    <       0.00013708 Ry

     iteration #137     ecut=    80.00 Ry     beta= 0.10
     Davidson diagonalization with overlap
     ethr =  7.32E-09,  avg # of iterations =  1.0

     negative rho (up, down):  5.929E-02 0.000E+00

     total cpu time spent up to now is    40718.0 secs

     total energy              =  -11682.11277585 Ry
     estimated scf accuracy    <       0.00020840 Ry

     iteration #138     ecut=    80.00 Ry     beta= 0.10
     Davidson diagonalization with overlap
     ethr =  7.32E-09,  avg # of iterations =  1.0

     negative rho (up, down):  5.929E-02 0.000E+00

     total cpu time spent up to now is    41008.2 secs

     total energy              =  -11682.11277662 Ry
     estimated scf accuracy    <       0.00012102 Ry

     iteration #139     ecut=    80.00 Ry     beta= 0.10
     Davidson diagonalization with overlap
     ethr =  6.46E-09,  avg # of iterations =  1.0

     negative rho (up, down):  5.929E-02 0.000E+00

     total cpu time spent up to now is    41298.4 secs

     total energy              =  -11682.11277723 Ry
     estimated scf accuracy    <       0.00025087 Ry

     iteration #140     ecut=    80.00 Ry     beta= 0.10
     Davidson diagonalization with overlap
     ethr =  6.46E-09,  avg # of iterations =  1.0

     negative rho (up, down):  5.930E-02 0.000E+00

     total cpu time spent up to now is    41589.2 secs

     total energy              =  -11682.11277886 Ry
     estimated scf accuracy    <       0.00022347 Ry

     iteration #141     ecut=    80.00 Ry     beta= 0.10
     Davidson diagonalization with overlap
     ethr =  6.46E-09,  avg # of iterations =  1.0

     negative rho (up, down):  5.930E-02 0.000E+00

     total cpu time spent up to now is    41878.4 secs

     total energy              =  -11682.11277937 Ry
     estimated scf accuracy    <       0.00023369 Ry

     iteration #142     ecut=    80.00 Ry     beta= 0.10
     Davidson diagonalization with overlap
     ethr =  6.46E-09,  avg # of iterations =  1.0

     negative rho (up, down):  5.930E-02 0.000E+00

     total cpu time spent up to now is    42179.3 secs

     total energy              =  -11682.11277994 Ry
     estimated scf accuracy    <       0.00017712 Ry

     iteration #143     ecut=    80.00 Ry     beta= 0.10
     Davidson diagonalization with overlap
     ethr =  6.46E-09,  avg # of iterations =  1.0

     negative rho (up, down):  5.930E-02 0.000E+00

     total cpu time spent up to now is    42469.3 secs

     total energy              =  -11682.11277785 Ry
     estimated scf accuracy    <       0.00025127 Ry

     iteration #144     ecut=    80.00 Ry     beta= 0.10
     Davidson diagonalization with overlap
     ethr =  6.46E-09,  avg # of iterations =  1.0

     negative rho (up, down):  5.930E-02 0.000E+00

     total cpu time spent up to now is    42759.7 secs

     total energy              =  -11682.11278015 Ry
     estimated scf accuracy    <       0.00014686 Ry

     iteration #145     ecut=    80.00 Ry     beta= 0.10
     Davidson diagonalization with overlap
     ethr =  6.46E-09,  avg # of iterations =  1.0

     negative rho (up, down):  5.930E-02 0.000E+00

     total cpu time spent up to now is    43050.0 secs

     total energy              =  -11682.11278110 Ry
     estimated scf accuracy    <       0.00018950 Ry

     iteration #146     ecut=    80.00 Ry     beta= 0.10
     Davidson diagonalization with overlap
     ethr =  6.46E-09,  avg # of iterations =  1.0

     negative rho (up, down):  5.931E-02 0.000E+00

     total cpu time spent up to now is    43340.5 secs

     total energy              =  -11682.11278220 Ry
     estimated scf accuracy    <       0.00009005 Ry

     iteration #147     ecut=    80.00 Ry     beta= 0.10
     Davidson diagonalization with overlap
     ethr =  4.81E-09,  avg # of iterations =  1.0

     negative rho (up, down):  5.931E-02 0.000E+00

     total cpu time spent up to now is    43631.1 secs

     total energy              =  -11682.11278213 Ry
     estimated scf accuracy    <       0.00010489 Ry

     iteration #148     ecut=    80.00 Ry     beta= 0.10
     Davidson diagonalization with overlap
     ethr =  4.81E-09,  avg # of iterations =  1.0

     negative rho (up, down):  5.931E-02 0.000E+00

     total cpu time spent up to now is    43926.8 secs

     total energy              =  -11682.11278301 Ry
     estimated scf accuracy    <       0.00005675 Ry

     iteration #149     ecut=    80.00 Ry     beta= 0.10
     Davidson diagonalization with overlap
     ethr =  3.03E-09,  avg # of iterations =  1.0

     negative rho (up, down):  5.931E-02 0.000E+00

     total cpu time spent up to now is    44216.8 secs

     total energy              =  -11682.11278298 Ry
     estimated scf accuracy    <       0.00010644 Ry

     iteration #150     ecut=    80.00 Ry     beta= 0.10
     Davidson diagonalization with overlap
     ethr =  3.03E-09,  avg # of iterations =  1.0

     negative rho (up, down):  5.931E-02 0.000E+00

     total cpu time spent up to now is    44507.1 secs

     total energy              =  -11682.11278390 Ry
     estimated scf accuracy    <       0.00008949 Ry

     iteration #151     ecut=    80.00 Ry     beta= 0.10
     Davidson diagonalization with overlap
     ethr =  3.03E-09,  avg # of iterations =  1.0

     negative rho (up, down):  5.931E-02 0.000E+00

     total cpu time spent up to now is    44797.8 secs

     total energy              =  -11682.11278430 Ry
     estimated scf accuracy    <       0.00008033 Ry

     iteration #152     ecut=    80.00 Ry     beta= 0.10
     Davidson diagonalization with overlap
     ethr =  3.03E-09,  avg # of iterations =  1.0

     negative rho (up, down):  5.932E-02 0.000E+00

     total cpu time spent up to now is    45088.2 secs

     total energy              =  -11682.11278474 Ry
     estimated scf accuracy    <       0.00006621 Ry

     iteration #153     ecut=    80.00 Ry     beta= 0.10
     Davidson diagonalization with overlap
     ethr =  3.03E-09,  avg # of iterations =  1.0

     negative rho (up, down):  5.931E-02 0.000E+00

     total cpu time spent up to now is    45377.6 secs

     total energy              =  -11682.11278373 Ry
     estimated scf accuracy    <       0.00010499 Ry

     iteration #154     ecut=    80.00 Ry     beta= 0.10
     Davidson diagonalization with overlap
     ethr =  3.03E-09,  avg # of iterations =  1.0

     negative rho (up, down):  5.932E-02 0.000E+00

     total cpu time spent up to now is    45668.2 secs

     total energy              =  -11682.11278445 Ry
     estimated scf accuracy    <       0.00010667 Ry

     iteration #155     ecut=    80.00 Ry     beta= 0.10
     Davidson diagonalization with overlap
     ethr =  3.03E-09,  avg # of iterations =  1.0

     negative rho (up, down):  5.932E-02 0.000E+00

     total cpu time spent up to now is    45958.1 secs

     total energy              =  -11682.11278480 Ry
     estimated scf accuracy    <       0.00013724 Ry

     iteration #156     ecut=    80.00 Ry     beta= 0.10
     Davidson diagonalization with overlap
     ethr =  3.03E-09,  avg # of iterations =  1.0

     negative rho (up, down):  5.932E-02 0.000E+00

     total cpu time spent up to now is    46247.9 secs

     total energy              =  -11682.11278544 Ry
     estimated scf accuracy    <       0.00006455 Ry

     iteration #157     ecut=    80.00 Ry     beta= 0.10
     Davidson diagonalization with overlap
     ethr =  3.03E-09,  avg # of iterations =  1.0

     negative rho (up, down):  5.932E-02 0.000E+00

     total cpu time spent up to now is    46537.6 secs

     total energy              =  -11682.11278551 Ry
     estimated scf accuracy    <       0.00006603 Ry

     iteration #158     ecut=    80.00 Ry     beta= 0.10
     Davidson diagonalization with overlap
     ethr =  3.03E-09,  avg # of iterations =  1.0

     negative rho (up, down):  5.932E-02 0.000E+00

     total cpu time spent up to now is    46827.2 secs

     total energy              =  -11682.11278614 Ry
     estimated scf accuracy    <       0.00003402 Ry

     iteration #159     ecut=    80.00 Ry     beta= 0.10
     Davidson diagonalization with overlap
     ethr =  1.82E-09,  avg # of iterations =  1.0

     negative rho (up, down):  5.932E-02 0.000E+00

     total cpu time spent up to now is    47117.8 secs

     total energy              =  -11682.11278598 Ry
     estimated scf accuracy    <       0.00005473 Ry

     iteration #160     ecut=    80.00 Ry     beta= 0.10
     Davidson diagonalization with overlap
     ethr =  1.82E-09,  avg # of iterations =  1.0

     negative rho (up, down):  5.932E-02 0.000E+00

     total cpu time spent up to now is    47407.7 secs

     total energy              =  -11682.11278647 Ry
     estimated scf accuracy    <       0.00004405 Ry

     iteration #161     ecut=    80.00 Ry     beta= 0.10
     Davidson diagonalization with overlap
     ethr =  1.82E-09,  avg # of iterations =  1.0

     negative rho (up, down):  5.932E-02 0.000E+00

     total cpu time spent up to now is    47697.6 secs

     total energy              =  -11682.11278674 Ry
     estimated scf accuracy    <       0.00003105 Ry

     iteration #162     ecut=    80.00 Ry     beta= 0.10
     Davidson diagonalization with overlap
     ethr =  1.66E-09,  avg # of iterations =  1.0

     negative rho (up, down):  5.933E-02 0.000E+00

     total cpu time spent up to now is    47987.8 secs

     total energy              =  -11682.11278708 Ry
     estimated scf accuracy    <       0.00002393 Ry

     iteration #163     ecut=    80.00 Ry     beta= 0.10
     Davidson diagonalization with overlap
     ethr =  1.28E-09,  avg # of iterations =  1.0

     negative rho (up, down):  5.933E-02 0.000E+00

     total cpu time spent up to now is    48280.4 secs

     total energy              =  -11682.11278690 Ry
     estimated scf accuracy    <       0.00003651 Ry

     iteration #164     ecut=    80.00 Ry     beta= 0.10
     Davidson diagonalization with overlap
     ethr =  1.28E-09,  avg # of iterations =  1.0

     negative rho (up, down):  5.933E-02 0.000E+00

     total cpu time spent up to now is    48569.9 secs

     total energy              =  -11682.11278701 Ry
     estimated scf accuracy    <       0.00005588 Ry

     iteration #165     ecut=    80.00 Ry     beta= 0.10
     Davidson diagonalization with overlap
     ethr =  1.28E-09,  avg # of iterations =  1.0

     negative rho (up, down):  5.933E-02 0.000E+00

     total cpu time spent up to now is    48860.1 secs

     total energy              =  -11682.11278707 Ry
     estimated scf accuracy    <       0.00007119 Ry

     iteration #166     ecut=    80.00 Ry     beta= 0.10
     Davidson diagonalization with overlap
     ethr =  1.28E-09,  avg # of iterations =  1.0

     negative rho (up, down):  5.933E-02 0.000E+00

     total cpu time spent up to now is    49150.1 secs

     total energy              =  -11682.11278731 Ry
     estimated scf accuracy    <       0.00004010 Ry

     iteration #167     ecut=    80.00 Ry     beta= 0.10
     Davidson diagonalization with overlap
     ethr =  1.28E-09,  avg # of iterations =  1.0

     negative rho (up, down):  5.933E-02 0.000E+00

     total cpu time spent up to now is    49440.1 secs

     total energy              =  -11682.11278739 Ry
     estimated scf accuracy    <       0.00004346 Ry

     iteration #168     ecut=    80.00 Ry     beta= 0.10
     Davidson diagonalization with overlap
     ethr =  1.28E-09,  avg # of iterations =  1.0

     negative rho (up, down):  5.933E-02 0.000E+00

     total cpu time spent up to now is    49729.4 secs

     total energy              =  -11682.11278783 Ry
     estimated scf accuracy    <       0.00002475 Ry

     iteration #169     ecut=    80.00 Ry     beta= 0.10
     Davidson diagonalization with overlap
     ethr =  1.28E-09,  avg # of iterations =  1.0

     negative rho (up, down):  5.933E-02 0.000E+00

     total cpu time spent up to now is    50019.3 secs

     total energy              =  -11682.11278761 Ry
     estimated scf accuracy    <       0.00003405 Ry

     iteration #170     ecut=    80.00 Ry     beta= 0.10
     Davidson diagonalization with overlap
     ethr =  1.28E-09,  avg # of iterations =  1.0

     negative rho (up, down):  5.933E-02 0.000E+00

     total cpu time spent up to now is    50309.4 secs

     total energy              =  -11682.11278787 Ry
     estimated scf accuracy    <       0.00003315 Ry

     iteration #171     ecut=    80.00 Ry     beta= 0.10
     Davidson diagonalization with overlap
     ethr =  1.28E-09,  avg # of iterations =  1.0

     negative rho (up, down):  5.933E-02 0.000E+00

     total cpu time spent up to now is    50598.6 secs

     total energy              =  -11682.11278804 Ry
     estimated scf accuracy    <       0.00001905 Ry

     iteration #172     ecut=    80.00 Ry     beta= 0.10
     Davidson diagonalization with overlap
     ethr =  1.02E-09,  avg # of iterations =  1.0

     negative rho (up, down):  5.933E-02 0.000E+00

     total cpu time spent up to now is    50889.1 secs

     total energy              =  -11682.11278826 Ry
     estimated scf accuracy    <       0.00001087 Ry

     iteration #173     ecut=    80.00 Ry     beta= 0.10
     Davidson diagonalization with overlap
     ethr =  5.81E-10,  avg # of iterations =  1.0

     negative rho (up, down):  5.934E-02 0.000E+00

     total cpu time spent up to now is    51180.3 secs

     total energy              =  -11682.11278836 Ry
     estimated scf accuracy    <       0.00001278 Ry

     iteration #174     ecut=    80.00 Ry     beta= 0.10
     Davidson diagonalization with overlap
     ethr =  5.81E-10,  avg # of iterations =  1.0

     negative rho (up, down):  5.934E-02 0.000E+00

     total cpu time spent up to now is    51470.5 secs

     total energy              =  -11682.11278839 Ry
     estimated scf accuracy    <       0.00002148 Ry

     iteration #175     ecut=    80.00 Ry     beta= 0.10
     Davidson diagonalization with overlap
     ethr =  5.81E-10,  avg # of iterations =  1.0

     negative rho (up, down):  5.934E-02 0.000E+00

     total cpu time spent up to now is    51760.4 secs

     total energy              =  -11682.11278835 Ry
     estimated scf accuracy    <       0.00002892 Ry

     iteration #176     ecut=    80.00 Ry     beta= 0.10
     Davidson diagonalization with overlap
     ethr =  5.81E-10,  avg # of iterations =  1.0

     negative rho (up, down):  5.934E-02 0.000E+00

     total cpu time spent up to now is    52050.1 secs

     total energy              =  -11682.11278840 Ry
     estimated scf accuracy    <       0.00002133 Ry

     iteration #177     ecut=    80.00 Ry     beta= 0.10
     Davidson diagonalization with overlap
     ethr =  5.81E-10,  avg # of iterations =  1.0

     negative rho (up, down):  5.934E-02 0.000E+00

     total cpu time spent up to now is    52340.7 secs

     total energy              =  -11682.11278849 Ry
     estimated scf accuracy    <       0.00002646 Ry

     iteration #178     ecut=    80.00 Ry     beta= 0.10
     Davidson diagonalization with overlap
     ethr =  5.81E-10,  avg # of iterations =  1.0

     negative rho (up, down):  5.934E-02 0.000E+00

     total cpu time spent up to now is    52630.6 secs

     total energy              =  -11682.11278875 Ry
     estimated scf accuracy    <       0.00001702 Ry

     iteration #179     ecut=    80.00 Ry     beta= 0.10
     Davidson diagonalization with overlap
     ethr =  5.81E-10,  avg # of iterations =  1.0

     negative rho (up, down):  5.934E-02 0.000E+00

     total cpu time spent up to now is    52920.9 secs

     total energy              =  -11682.11278859 Ry
     estimated scf accuracy    <       0.00001918 Ry

     iteration #180     ecut=    80.00 Ry     beta= 0.10
     Davidson diagonalization with overlap
     ethr =  5.81E-10,  avg # of iterations =  1.0

     negative rho (up, down):  5.934E-02 0.000E+00

     total cpu time spent up to now is    53211.1 secs

     total energy              =  -11682.11278865 Ry
     estimated scf accuracy    <       0.00003025 Ry

     iteration #181     ecut=    80.00 Ry     beta= 0.10
     Davidson diagonalization with overlap
     ethr =  5.81E-10,  avg # of iterations =  1.0

     negative rho (up, down):  5.934E-02 0.000E+00

     total cpu time spent up to now is    53501.2 secs

     total energy              =  -11682.11278877 Ry
     estimated scf accuracy    <       0.00001651 Ry

     iteration #182     ecut=    80.00 Ry     beta= 0.10
     Davidson diagonalization with overlap
     ethr =  5.81E-10,  avg # of iterations =  1.0

     negative rho (up, down):  5.934E-02 0.000E+00

     total cpu time spent up to now is    53791.3 secs

     total energy              =  -11682.11278892 Ry
     estimated scf accuracy    <       0.00000751 Ry

     iteration #183     ecut=    80.00 Ry     beta= 0.10
     Davidson diagonalization with overlap
     ethr =  4.01E-10,  avg # of iterations =  1.0

     negative rho (up, down):  5.934E-02 0.000E+00

     total cpu time spent up to now is    54081.7 secs

     total energy              =  -11682.11278903 Ry
     estimated scf accuracy    <       0.00000602 Ry

     iteration #184     ecut=    80.00 Ry     beta= 0.10
     Davidson diagonalization with overlap
     ethr =  3.21E-10,  avg # of iterations =  1.0

     negative rho (up, down):  5.934E-02 0.000E+00

     total cpu time spent up to now is    54370.6 secs

     total energy              =  -11682.11278905 Ry
     estimated scf accuracy    <       0.00000838 Ry

     iteration #185     ecut=    80.00 Ry     beta= 0.10
     Davidson diagonalization with overlap
     ethr =  3.21E-10,  avg # of iterations =  1.0

     negative rho (up, down):  5.934E-02 0.000E+00

     total cpu time spent up to now is    54660.7 secs

     total energy              =  -11682.11278903 Ry
     estimated scf accuracy    <       0.00001145 Ry

     iteration #186     ecut=    80.00 Ry     beta= 0.10
     Davidson diagonalization with overlap
     ethr =  3.21E-10,  avg # of iterations =  1.0

     negative rho (up, down):  5.934E-02 0.000E+00

     total cpu time spent up to now is    54952.5 secs

     total energy              =  -11682.11278904 Ry
     estimated scf accuracy    <       0.00001047 Ry

     iteration #187     ecut=    80.00 Ry     beta= 0.10
     Davidson diagonalization with overlap
     ethr =  3.21E-10,  avg # of iterations =  1.0

     negative rho (up, down):  5.934E-02 0.000E+00

     total cpu time spent up to now is    55242.8 secs

     total energy              =  -11682.11278911 Ry
     estimated scf accuracy    <       0.00001403 Ry

     iteration #188     ecut=    80.00 Ry     beta= 0.10
     Davidson diagonalization with overlap
     ethr =  3.21E-10,  avg # of iterations =  1.0

     negative rho (up, down):  5.934E-02 0.000E+00

     total cpu time spent up to now is    55532.8 secs

     total energy              =  -11682.11278925 Ry
     estimated scf accuracy    <       0.00000893 Ry

     iteration #189     ecut=    80.00 Ry     beta= 0.10
     Davidson diagonalization with overlap
     ethr =  3.21E-10,  avg # of iterations =  1.0

     negative rho (up, down):  5.934E-02 0.000E+00

     total cpu time spent up to now is    55822.9 secs

     total energy              =  -11682.11278919 Ry
     estimated scf accuracy    <       0.00000817 Ry

     iteration #190     ecut=    80.00 Ry     beta= 0.10
     Davidson diagonalization with overlap
     ethr =  3.21E-10,  avg # of iterations =  1.0

     negative rho (up, down):  5.934E-02 0.000E+00

     total cpu time spent up to now is    56113.0 secs

     total energy              =  -11682.11278914 Ry
     estimated scf accuracy    <       0.00002295 Ry

     iteration #191     ecut=    80.00 Ry     beta= 0.10
     Davidson diagonalization with overlap
     ethr =  3.21E-10,  avg # of iterations =  1.0

     negative rho (up, down):  5.934E-02 0.000E+00

     total cpu time spent up to now is    56403.2 secs

     total energy              =  -11682.11278919 Ry
     estimated scf accuracy    <       0.00001382 Ry

     iteration #192     ecut=    80.00 Ry     beta= 0.10
     Davidson diagonalization with overlap
     ethr =  3.21E-10,  avg # of iterations =  1.0

     negative rho (up, down):  5.934E-02 0.000E+00

     total cpu time spent up to now is    56694.4 secs

     total energy              =  -11682.11278928 Ry
     estimated scf accuracy    <       0.00000680 Ry

     iteration #193     ecut=    80.00 Ry     beta= 0.10
     Davidson diagonalization with overlap
     ethr =  3.21E-10,  avg # of iterations =  1.0

     negative rho (up, down):  5.935E-02 0.000E+00

     total cpu time spent up to now is    56985.9 secs

     total energy              =  -11682.11278938 Ry
     estimated scf accuracy    <       0.00000417 Ry

     iteration #194     ecut=    80.00 Ry     beta= 0.10
     Davidson diagonalization with overlap
     ethr =  2.23E-10,  avg # of iterations =  1.0

     negative rho (up, down):  5.935E-02 0.000E+00

     total cpu time spent up to now is    57276.9 secs

     total energy              =  -11682.11278939 Ry
     estimated scf accuracy    <       0.00000427 Ry

     iteration #195     ecut=    80.00 Ry     beta= 0.10
     Davidson diagonalization with overlap
     ethr =  2.23E-10,  avg # of iterations =  1.0

     negative rho (up, down):  5.935E-02 0.000E+00

     total cpu time spent up to now is    57566.7 secs

     total energy              =  -11682.11278938 Ry
     estimated scf accuracy    <       0.00000551 Ry

     iteration #196     ecut=    80.00 Ry     beta= 0.10
     Davidson diagonalization with overlap
     ethr =  2.23E-10,  avg # of iterations =  1.0

     negative rho (up, down):  5.935E-02 0.000E+00

     total cpu time spent up to now is    57857.4 secs

     total energy              =  -11682.11278938 Ry
     estimated scf accuracy    <       0.00000512 Ry

     iteration #197     ecut=    80.00 Ry     beta= 0.10
     Davidson diagonalization with overlap
     ethr =  2.23E-10,  avg # of iterations =  1.0

     negative rho (up, down):  5.935E-02 0.000E+00

     total cpu time spent up to now is    58147.7 secs

     total energy              =  -11682.11278943 Ry
     estimated scf accuracy    <       0.00000674 Ry

     iteration #198     ecut=    80.00 Ry     beta= 0.10
     Davidson diagonalization with overlap
     ethr =  2.23E-10,  avg # of iterations =  1.0

     negative rho (up, down):  5.935E-02 0.000E+00

     total cpu time spent up to now is    58444.1 secs

     total energy              =  -11682.11278949 Ry
     estimated scf accuracy    <       0.00000371 Ry

     iteration #199     ecut=    80.00 Ry     beta= 0.10
     Davidson diagonalization with overlap
     ethr =  1.98E-10,  avg # of iterations =  1.0

     negative rho (up, down):  5.935E-02 0.000E+00

     total cpu time spent up to now is    58734.0 secs

     total energy              =  -11682.11278950 Ry
     estimated scf accuracy    <       0.00000281 Ry

     iteration #200     ecut=    80.00 Ry     beta= 0.10
     Davidson diagonalization with overlap
     ethr =  1.50E-10,  avg # of iterations =  1.0

     negative rho (up, down):  5.935E-02 0.000E+00

     total cpu time spent up to now is    59024.1 secs

     total energy              =  -11682.11278945 Ry
     estimated scf accuracy    <       0.00001184 Ry

     iteration #201     ecut=    80.00 Ry     beta= 0.10
     Davidson diagonalization with overlap
     ethr =  1.50E-10,  avg # of iterations =  1.0

     negative rho (up, down):  5.935E-02 0.000E+00

     total cpu time spent up to now is    59314.1 secs

     total energy              =  -11682.11278945 Ry
     estimated scf accuracy    <       0.00000854 Ry

     iteration #202     ecut=    80.00 Ry     beta= 0.10
     Davidson diagonalization with overlap
     ethr =  1.50E-10,  avg # of iterations =  1.0

     negative rho (up, down):  5.935E-02 0.000E+00

     total cpu time spent up to now is    59604.7 secs

     total energy              =  -11682.11278949 Ry
     estimated scf accuracy    <       0.00000569 Ry

     iteration #203     ecut=    80.00 Ry     beta= 0.10
     Davidson diagonalization with overlap
     ethr =  1.50E-10,  avg # of iterations =  1.0

     negative rho (up, down):  5.935E-02 0.000E+00

     total cpu time spent up to now is    59894.4 secs

     total energy              =  -11682.11278956 Ry
     estimated scf accuracy    <       0.00000341 Ry

     iteration #204     ecut=    80.00 Ry     beta= 0.10
     Davidson diagonalization with overlap
     ethr =  1.50E-10,  avg # of iterations =  1.0

     negative rho (up, down):  5.935E-02 0.000E+00

     total cpu time spent up to now is    60184.4 secs

     total energy              =  -11682.11278956 Ry
     estimated scf accuracy    <       0.00000256 Ry

     iteration #205     ecut=    80.00 Ry     beta= 0.10
     Davidson diagonalization with overlap
     ethr =  1.37E-10,  avg # of iterations =  1.0

     negative rho (up, down):  5.935E-02 0.000E+00

     total cpu time spent up to now is    60473.8 secs

     total energy              =  -11682.11278956 Ry
     estimated scf accuracy    <       0.00000323 Ry

     iteration #206     ecut=    80.00 Ry     beta= 0.10
     Davidson diagonalization with overlap
     ethr =  1.37E-10,  avg # of iterations =  1.0

     negative rho (up, down):  5.935E-02 0.000E+00

     total cpu time spent up to now is    60763.7 secs

     total energy              =  -11682.11278956 Ry
     estimated scf accuracy    <       0.00000274 Ry

     iteration #207     ecut=    80.00 Ry     beta= 0.10
     Davidson diagonalization with overlap
     ethr =  1.37E-10,  avg # of iterations =  1.0

     negative rho (up, down):  5.935E-02 0.000E+00

     total cpu time spent up to now is    61053.3 secs

     total energy              =  -11682.11278958 Ry
     estimated scf accuracy    <       0.00000357 Ry

     iteration #208     ecut=    80.00 Ry     beta= 0.10
     Davidson diagonalization with overlap
     ethr =  1.37E-10,  avg # of iterations =  1.0

     negative rho (up, down):  5.935E-02 0.000E+00

     total cpu time spent up to now is    61342.7 secs

     total energy              =  -11682.11278961 Ry
     estimated scf accuracy    <       0.00000160 Ry

     iteration #209     ecut=    80.00 Ry     beta= 0.10
     Davidson diagonalization with overlap
     ethr =  8.53E-11,  avg # of iterations =  1.0

     negative rho (up, down):  5.935E-02 0.000E+00

     total cpu time spent up to now is    61631.8 secs

     total energy              =  -11682.11278963 Ry
     estimated scf accuracy    <       0.00000095 Ry

     iteration #210     ecut=    80.00 Ry     beta= 0.10
     Davidson diagonalization with overlap
     ethr =  5.06E-11,  avg # of iterations =  1.0

     negative rho (up, down):  5.935E-02 0.000E+00

     total cpu time spent up to now is    61921.7 secs

     total energy              =  -11682.11278961 Ry
     estimated scf accuracy    <       0.00000437 Ry

     iteration #211     ecut=    80.00 Ry     beta= 0.10
     Davidson diagonalization with overlap
     ethr =  5.06E-11,  avg # of iterations =  1.0

     negative rho (up, down):  5.935E-02 0.000E+00

     total cpu time spent up to now is    62211.3 secs

     total energy              =  -11682.11278961 Ry
     estimated scf accuracy    <       0.00000378 Ry

     iteration #212     ecut=    80.00 Ry     beta= 0.10
     Davidson diagonalization with overlap
     ethr =  5.06E-11,  avg # of iterations =  1.0

     negative rho (up, down):  5.935E-02 0.000E+00

     total cpu time spent up to now is    62501.3 secs

     total energy              =  -11682.11278961 Ry
     estimated scf accuracy    <       0.00000362 Ry

     iteration #213     ecut=    80.00 Ry     beta= 0.10
     Davidson diagonalization with overlap
     ethr =  5.06E-11,  avg # of iterations =  1.0

     negative rho (up, down):  5.935E-02 0.000E+00

     total cpu time spent up to now is    62791.5 secs

     total energy              =  -11682.11278964 Ry
     estimated scf accuracy    <       0.00000252 Ry

     iteration #214     ecut=    80.00 Ry     beta= 0.10
     Davidson diagonalization with overlap
     ethr =  5.06E-11,  avg # of iterations =  1.0

     negative rho (up, down):  5.935E-02 0.000E+00

     total cpu time spent up to now is    63081.2 secs

     total energy              =  -11682.11278965 Ry
     estimated scf accuracy    <       0.00000143 Ry

     iteration #215     ecut=    80.00 Ry     beta= 0.10
     Davidson diagonalization with overlap
     ethr =  5.06E-11,  avg # of iterations =  1.0

     negative rho (up, down):  5.935E-02 0.000E+00

     total cpu time spent up to now is    63371.3 secs

     total energy              =  -11682.11278965 Ry
     estimated scf accuracy    <       0.00000205 Ry

     iteration #216     ecut=    80.00 Ry     beta= 0.10
     Davidson diagonalization with overlap
     ethr =  5.06E-11,  avg # of iterations =  1.0

     negative rho (up, down):  5.935E-02 0.000E+00

     total cpu time spent up to now is    63662.5 secs

     total energy              =  -11682.11278964 Ry
     estimated scf accuracy    <       0.00000178 Ry

     iteration #217     ecut=    80.00 Ry     beta= 0.10
     Davidson diagonalization with overlap
     ethr =  5.06E-11,  avg # of iterations =  1.0

     negative rho (up, down):  5.935E-02 0.000E+00

     total cpu time spent up to now is    63951.8 secs

     total energy              =  -11682.11278966 Ry
     estimated scf accuracy    <       0.00000258 Ry

     iteration #218     ecut=    80.00 Ry     beta= 0.10
     Davidson diagonalization with overlap
     ethr =  5.06E-11,  avg # of iterations =  1.0

     negative rho (up, down):  5.935E-02 0.000E+00

     total cpu time spent up to now is    64242.0 secs

     total energy              =  -11682.11278967 Ry
     estimated scf accuracy    <       0.00000092 Ry

     iteration #219     ecut=    80.00 Ry     beta= 0.10
     Davidson diagonalization with overlap
     ethr =  4.89E-11,  avg # of iterations =  1.0

     negative rho (up, down):  5.935E-02 0.000E+00

     total cpu time spent up to now is    64532.2 secs

     total energy              =  -11682.11278968 Ry
     estimated scf accuracy    <       0.00000040 Ry

     iteration #220     ecut=    80.00 Ry     beta= 0.10
     Davidson diagonalization with overlap
     ethr =  2.12E-11,  avg # of iterations =  1.0

     negative rho (up, down):  5.935E-02 0.000E+00

     total cpu time spent up to now is    64822.0 secs

     total energy              =  -11682.11278968 Ry
     estimated scf accuracy    <       0.00000142 Ry

     iteration #221     ecut=    80.00 Ry     beta= 0.10
     Davidson diagonalization with overlap
     ethr =  2.12E-11,  avg # of iterations =  1.0

     negative rho (up, down):  5.935E-02 0.000E+00

     total cpu time spent up to now is    65112.3 secs

     total energy              =  -11682.11278968 Ry
     estimated scf accuracy    <       0.00000134 Ry

     iteration #222     ecut=    80.00 Ry     beta= 0.10
     Davidson diagonalization with overlap
     ethr =  2.12E-11,  avg # of iterations =  1.0

     negative rho (up, down):  5.935E-02 0.000E+00

     total cpu time spent up to now is    65402.5 secs

     total energy              =  -11682.11278968 Ry
     estimated scf accuracy    <       0.00000169 Ry

     iteration #223     ecut=    80.00 Ry     beta= 0.10
     Davidson diagonalization with overlap
     ethr =  2.12E-11,  avg # of iterations =  1.0

     negative rho (up, down):  5.935E-02 0.000E+00

     total cpu time spent up to now is    65693.5 secs

     total energy              =  -11682.11278969 Ry
     estimated scf accuracy    <       0.00000144 Ry

     iteration #224     ecut=    80.00 Ry     beta= 0.10
     Davidson diagonalization with overlap
     ethr =  2.12E-11,  avg # of iterations =  1.0

     negative rho (up, down):  5.935E-02 0.000E+00

     total cpu time spent up to now is    65983.7 secs

     total energy              =  -11682.11278969 Ry
     estimated scf accuracy    <       0.00000067 Ry

     iteration #225     ecut=    80.00 Ry     beta= 0.10
     Davidson diagonalization with overlap
     ethr =  2.12E-11,  avg # of iterations =  1.0

     negative rho (up, down):  5.935E-02 0.000E+00

     total cpu time spent up to now is    66273.4 secs

     total energy              =  -11682.11278969 Ry
     estimated scf accuracy    <       0.00000120 Ry

     iteration #226     ecut=    80.00 Ry     beta= 0.10
     Davidson diagonalization with overlap
     ethr =  2.12E-11,  avg # of iterations =  1.0

     negative rho (up, down):  5.935E-02 0.000E+00

     total cpu time spent up to now is    66563.5 secs

     total energy              =  -11682.11278969 Ry
     estimated scf accuracy    <       0.00000123 Ry

     iteration #227     ecut=    80.00 Ry     beta= 0.10
     Davidson diagonalization with overlap
     ethr =  2.12E-11,  avg # of iterations =  1.0

     negative rho (up, down):  5.935E-02 0.000E+00

     total cpu time spent up to now is    66853.3 secs

     total energy              =  -11682.11278969 Ry
     estimated scf accuracy    <       0.00000218 Ry

     iteration #228     ecut=    80.00 Ry     beta= 0.10
     Davidson diagonalization with overlap
     ethr =  2.12E-11,  avg # of iterations =  1.0

     negative rho (up, down):  5.935E-02 0.000E+00

     total cpu time spent up to now is    67142.7 secs

     total energy              =  -11682.11278970 Ry
     estimated scf accuracy    <       0.00000071 Ry

     iteration #229     ecut=    80.00 Ry     beta= 0.10
     Davidson diagonalization with overlap
     ethr =  2.12E-11,  avg # of iterations =  1.0

     negative rho (up, down):  5.935E-02 0.000E+00

     total cpu time spent up to now is    67432.9 secs

     total energy              =  -11682.11278971 Ry
     estimated scf accuracy    <       0.00000024 Ry

     iteration #230     ecut=    80.00 Ry     beta= 0.10
     Davidson diagonalization with overlap
     ethr =  1.29E-11,  avg # of iterations =  1.0

     negative rho (up, down):  5.935E-02 0.000E+00

     total cpu time spent up to now is    67722.6 secs

     total energy              =  -11682.11278971 Ry
     estimated scf accuracy    <       0.00000054 Ry

     iteration #231     ecut=    80.00 Ry     beta= 0.10
     Davidson diagonalization with overlap
     ethr =  1.29E-11,  avg # of iterations =  1.0

     negative rho (up, down):  5.935E-02 0.000E+00

     total cpu time spent up to now is    68013.3 secs

     total energy              =  -11682.11278971 Ry
     estimated scf accuracy    <       0.00000049 Ry

     iteration #232     ecut=    80.00 Ry     beta= 0.10
     Davidson diagonalization with overlap
     ethr =  1.29E-11,  avg # of iterations =  1.0

     negative rho (up, down):  5.935E-02 0.000E+00

     total cpu time spent up to now is    68302.7 secs

     total energy              =  -11682.11278971 Ry
     estimated scf accuracy    <       0.00000067 Ry

     iteration #233     ecut=    80.00 Ry     beta= 0.10
     Davidson diagonalization with overlap
     ethr =  1.29E-11,  avg # of iterations =  1.0

     negative rho (up, down):  5.935E-02 0.000E+00

     total cpu time spent up to now is    68593.3 secs

     total energy              =  -11682.11278971 Ry
     estimated scf accuracy    <       0.00000067 Ry

     iteration #234     ecut=    80.00 Ry     beta= 0.10
     Davidson diagonalization with overlap
     ethr =  1.29E-11,  avg # of iterations =  1.0

     negative rho (up, down):  5.935E-02 0.000E+00

     total cpu time spent up to now is    68883.3 secs

     total energy              =  -11682.11278971 Ry
     estimated scf accuracy    <       0.00000029 Ry

     iteration #235     ecut=    80.00 Ry     beta= 0.10
     Davidson diagonalization with overlap
     ethr =  1.29E-11,  avg # of iterations =  1.0

     negative rho (up, down):  5.935E-02 0.000E+00

     total cpu time spent up to now is    69174.1 secs

     total energy              =  -11682.11278971 Ry
     estimated scf accuracy    <       0.00000062 Ry

     iteration #236     ecut=    80.00 Ry     beta= 0.10
     Davidson diagonalization with overlap
     ethr =  1.29E-11,  avg # of iterations =  1.0

     negative rho (up, down):  5.935E-02 0.000E+00

     total cpu time spent up to now is    69464.2 secs

     total energy              =  -11682.11278971 Ry
     estimated scf accuracy    <       0.00000074 Ry

     iteration #237     ecut=    80.00 Ry     beta= 0.10
     Davidson diagonalization with overlap
     ethr =  1.29E-11,  avg # of iterations =  1.0

     negative rho (up, down):  5.935E-02 0.000E+00

     total cpu time spent up to now is    69754.0 secs

     total energy              =  -11682.11278971 Ry
     estimated scf accuracy    <       0.00000148 Ry

     iteration #238     ecut=    80.00 Ry     beta= 0.10
     Davidson diagonalization with overlap
     ethr =  1.29E-11,  avg # of iterations =  1.0

     negative rho (up, down):  5.935E-02 0.000E+00

     total cpu time spent up to now is    70043.3 secs

     total energy              =  -11682.11278971 Ry
     estimated scf accuracy    <       0.00000053 Ry

     iteration #239     ecut=    80.00 Ry     beta= 0.10
     Davidson diagonalization with overlap
     ethr =  1.29E-11,  avg # of iterations =  1.0

     negative rho (up, down):  5.935E-02 0.000E+00

     total cpu time spent up to now is    70333.0 secs

     total energy              =  -11682.11278972 Ry
     estimated scf accuracy    <       0.00000020 Ry

     iteration #240     ecut=    80.00 Ry     beta= 0.10
     Davidson diagonalization with overlap
     ethr =  1.06E-11,  avg # of iterations =  1.0

     negative rho (up, down):  5.935E-02 0.000E+00

     total cpu time spent up to now is    70623.0 secs

     total energy              =  -11682.11278972 Ry
     estimated scf accuracy    <       0.00000033 Ry

     iteration #241     ecut=    80.00 Ry     beta= 0.10
     Davidson diagonalization with overlap
     ethr =  1.06E-11,  avg # of iterations =  1.0

     negative rho (up, down):  5.935E-02 0.000E+00

     total cpu time spent up to now is    70915.3 secs

     total energy              =  -11682.11278972 Ry
     estimated scf accuracy    <       0.00000024 Ry

     iteration #242     ecut=    80.00 Ry     beta= 0.10
     Davidson diagonalization with overlap
     ethr =  1.06E-11,  avg # of iterations =  1.0

     negative rho (up, down):  5.935E-02 0.000E+00

     total cpu time spent up to now is    71205.7 secs

     total energy              =  -11682.11278972 Ry
     estimated scf accuracy    <       0.00000030 Ry

     iteration #243     ecut=    80.00 Ry     beta= 0.10
     Davidson diagonalization with overlap
     ethr =  1.06E-11,  avg # of iterations =  1.0

     negative rho (up, down):  5.935E-02 0.000E+00

     total cpu time spent up to now is    71496.2 secs

     total energy              =  -11682.11278972 Ry
     estimated scf accuracy    <       0.00000033 Ry

     iteration #244     ecut=    80.00 Ry     beta= 0.10
     Davidson diagonalization with overlap
     ethr =  1.06E-11,  avg # of iterations =  1.0

     negative rho (up, down):  5.935E-02 0.000E+00

     total cpu time spent up to now is    71786.1 secs

     total energy              =  -11682.11278972 Ry
     estimated scf accuracy    <       0.00000013 Ry

     iteration #245     ecut=    80.00 Ry     beta= 0.10
     Davidson diagonalization with overlap
     ethr =  7.08E-12,  avg # of iterations =  1.0

     negative rho (up, down):  5.936E-02 0.000E+00

     total cpu time spent up to now is    72075.6 secs

     total energy              =  -11682.11278972 Ry
     estimated scf accuracy    <       0.00000027 Ry

     iteration #246     ecut=    80.00 Ry     beta= 0.10
     Davidson diagonalization with overlap
     ethr =  7.08E-12,  avg # of iterations =  1.0

     negative rho (up, down):  5.936E-02 0.000E+00

     total cpu time spent up to now is    72366.4 secs

     total energy              =  -11682.11278972 Ry
     estimated scf accuracy    <       0.00000033 Ry

     iteration #247     ecut=    80.00 Ry     beta= 0.10
     Davidson diagonalization with overlap
     ethr =  7.08E-12,  avg # of iterations =  1.0

     negative rho (up, down):  5.936E-02 0.000E+00

     total cpu time spent up to now is    72658.2 secs

     total energy              =  -11682.11278972 Ry
     estimated scf accuracy    <       0.00000067 Ry

     iteration #248     ecut=    80.00 Ry     beta= 0.10
     Davidson diagonalization with overlap
     ethr =  7.08E-12,  avg # of iterations =  1.0

     negative rho (up, down):  5.936E-02 0.000E+00

     total cpu time spent up to now is    72947.6 secs

     total energy              =  -11682.11278972 Ry
     estimated scf accuracy    <       0.00000031 Ry

     iteration #249     ecut=    80.00 Ry     beta= 0.10
     Davidson diagonalization with overlap
     ethr =  7.08E-12,  avg # of iterations =  1.0

     negative rho (up, down):  5.936E-02 0.000E+00

     total cpu time spent up to now is    73237.1 secs

     total energy              =  -11682.11278972 Ry
     estimated scf accuracy    <       0.00000018 Ry

     iteration #250     ecut=    80.00 Ry     beta= 0.10
     Davidson diagonalization with overlap
     ethr =  7.08E-12,  avg # of iterations =  1.0

     negative rho (up, down):  5.936E-02 0.000E+00

     total cpu time spent up to now is    73526.8 secs

     total energy              =  -11682.11278972 Ry
     estimated scf accuracy    <       0.00000026 Ry

     iteration #251     ecut=    80.00 Ry     beta= 0.10
     Davidson diagonalization with overlap
     ethr =  7.08E-12,  avg # of iterations =  1.0

     negative rho (up, down):  5.936E-02 0.000E+00

     total cpu time spent up to now is    73815.5 secs

     total energy              =  -11682.11278972 Ry
     estimated scf accuracy    <       0.00000017 Ry

     iteration #252     ecut=    80.00 Ry     beta= 0.10
     Davidson diagonalization with overlap
     ethr =  7.08E-12,  avg # of iterations =  1.0

     negative rho (up, down):  5.936E-02 0.000E+00

     total cpu time spent up to now is    74105.1 secs

     total energy              =  -11682.11278972 Ry
     estimated scf accuracy    <       0.00000018 Ry

     iteration #253     ecut=    80.00 Ry     beta= 0.10
     Davidson diagonalization with overlap
     ethr =  7.08E-12,  avg # of iterations =  1.0

     negative rho (up, down):  5.936E-02 0.000E+00

     total cpu time spent up to now is    74395.3 secs

     total energy              =  -11682.11278972 Ry
     estimated scf accuracy    <       0.00000020 Ry

     iteration #254     ecut=    80.00 Ry     beta= 0.10
     Davidson diagonalization with overlap
     ethr =  7.08E-12,  avg # of iterations =  1.0

     negative rho (up, down):  5.936E-02 0.000E+00

     total cpu time spent up to now is    74684.9 secs

     total energy              =  -11682.11278972 Ry
     estimated scf accuracy    <       0.00000007 Ry

     iteration #255     ecut=    80.00 Ry     beta= 0.10
     Davidson diagonalization with overlap
     ethr =  3.88E-12,  avg # of iterations =  1.0

     negative rho (up, down):  5.936E-02 0.000E+00

     total cpu time spent up to now is    74975.1 secs

     total energy              =  -11682.11278972 Ry
     estimated scf accuracy    <       0.00000011 Ry

     iteration #256     ecut=    80.00 Ry     beta= 0.10
     Davidson diagonalization with overlap
     ethr =  3.88E-12,  avg # of iterations =  1.0

     negative rho (up, down):  5.936E-02 0.000E+00

     total cpu time spent up to now is    75263.8 secs

     total energy              =  -11682.11278972 Ry
     estimated scf accuracy    <       0.00000012 Ry

     iteration #257     ecut=    80.00 Ry     beta= 0.10
     Davidson diagonalization with overlap
     ethr =  3.88E-12,  avg # of iterations =  1.0

     negative rho (up, down):  5.936E-02 0.000E+00

     total cpu time spent up to now is    75553.0 secs

     total energy              =  -11682.11278972 Ry
     estimated scf accuracy    <       0.00000023 Ry

     iteration #258     ecut=    80.00 Ry     beta= 0.10
     Davidson diagonalization with overlap
     ethr =  3.88E-12,  avg # of iterations =  1.0

     negative rho (up, down):  5.936E-02 0.000E+00

     total cpu time spent up to now is    75844.2 secs

     total energy              =  -11682.11278972 Ry
     estimated scf accuracy    <       0.00000015 Ry

     iteration #259     ecut=    80.00 Ry     beta= 0.10
     Davidson diagonalization with overlap
     ethr =  3.88E-12,  avg # of iterations =  1.0

     negative rho (up, down):  5.936E-02 0.000E+00

     total cpu time spent up to now is    76134.0 secs

     total energy              =  -11682.11278972 Ry
     estimated scf accuracy    <       0.00000014 Ry

     iteration #260     ecut=    80.00 Ry     beta= 0.10
     Davidson diagonalization with overlap
     ethr =  3.88E-12,  avg # of iterations =  1.0

     negative rho (up, down):  5.936E-02 0.000E+00

     total cpu time spent up to now is    76427.0 secs

     total energy              =  -11682.11278972 Ry
     estimated scf accuracy    <       0.00000020 Ry

     iteration #261     ecut=    80.00 Ry     beta= 0.10
     Davidson diagonalization with overlap
     ethr =  3.88E-12,  avg # of iterations =  1.0

     negative rho (up, down):  5.936E-02 0.000E+00

     total cpu time spent up to now is    76716.7 secs

     total energy              =  -11682.11278972 Ry
     estimated scf accuracy    <       0.00000012 Ry

     iteration #262     ecut=    80.00 Ry     beta= 0.10
     Davidson diagonalization with overlap
     ethr =  3.88E-12,  avg # of iterations =  1.0

     negative rho (up, down):  5.936E-02 0.000E+00

     total cpu time spent up to now is    77006.4 secs

     total energy              =  -11682.11278972 Ry
     estimated scf accuracy    <       0.00000012 Ry

     iteration #263     ecut=    80.00 Ry     beta= 0.10
     Davidson diagonalization with overlap
     ethr =  3.88E-12,  avg # of iterations =  1.0

     negative rho (up, down):  5.936E-02 0.000E+00

     total cpu time spent up to now is    77296.3 secs

     total energy              =  -11682.11278972 Ry
     estimated scf accuracy    <       0.00000013 Ry

     iteration #264     ecut=    80.00 Ry     beta= 0.10
     Davidson diagonalization with overlap
     ethr =  3.88E-12,  avg # of iterations =  1.0

     negative rho (up, down):  5.936E-02 0.000E+00

     total cpu time spent up to now is    77585.4 secs

     total energy              =  -11682.11278972 Ry
     estimated scf accuracy    <       0.00000005 Ry

     iteration #265     ecut=    80.00 Ry     beta= 0.10
     Davidson diagonalization with overlap
     ethr =  2.65E-12,  avg # of iterations =  1.0

     negative rho (up, down):  5.936E-02 0.000E+00

     total cpu time spent up to now is    77875.4 secs

     total energy              =  -11682.11278972 Ry
     estimated scf accuracy    <       0.00000006 Ry

     iteration #266     ecut=    80.00 Ry     beta= 0.10
     Davidson diagonalization with overlap
     ethr =  2.65E-12,  avg # of iterations =  1.0

     negative rho (up, down):  5.936E-02 0.000E+00

     total cpu time spent up to now is    78166.4 secs

     total energy              =  -11682.11278972 Ry
     estimated scf accuracy    <       0.00000005 Ry

     iteration #267     ecut=    80.00 Ry     beta= 0.10
     Davidson diagonalization with overlap
     ethr =  2.65E-12,  avg # of iterations =  1.0

     negative rho (up, down):  5.936E-02 0.000E+00

     total cpu time spent up to now is    78456.8 secs

     total energy              =  -11682.11278972 Ry
     estimated scf accuracy    <       0.00000007 Ry

     iteration #268     ecut=    80.00 Ry     beta= 0.10
     Davidson diagonalization with overlap
     ethr =  2.65E-12,  avg # of iterations =  1.0

     negative rho (up, down):  5.936E-02 0.000E+00

     total cpu time spent up to now is    78747.3 secs

     total energy              =  -11682.11278972 Ry
     estimated scf accuracy    <       0.00000006 Ry

     iteration #269     ecut=    80.00 Ry     beta= 0.10
     Davidson diagonalization with overlap
     ethr =  2.65E-12,  avg # of iterations =  1.0

     negative rho (up, down):  5.936E-02 0.000E+00

     total cpu time spent up to now is    79036.7 secs

     total energy              =  -11682.11278972 Ry
     estimated scf accuracy    <       0.00000008 Ry

     iteration #270     ecut=    80.00 Ry     beta= 0.10
     Davidson diagonalization with overlap
     ethr =  2.65E-12,  avg # of iterations =  1.0

     negative rho (up, down):  5.936E-02 0.000E+00

     total cpu time spent up to now is    79327.0 secs

     total energy              =  -11682.11278972 Ry
     estimated scf accuracy    <       0.00000012 Ry

     iteration #271     ecut=    80.00 Ry     beta= 0.10
     Davidson diagonalization with overlap
     ethr =  2.65E-12,  avg # of iterations =  1.0

     negative rho (up, down):  5.936E-02 0.000E+00

     total cpu time spent up to now is    79616.9 secs

     total energy              =  -11682.11278972 Ry
     estimated scf accuracy    <       0.00000007 Ry

     iteration #272     ecut=    80.00 Ry     beta= 0.10
     Davidson diagonalization with overlap
     ethr =  2.65E-12,  avg # of iterations =  1.0

     negative rho (up, down):  5.936E-02 0.000E+00

     total cpu time spent up to now is    79906.3 secs

     total energy              =  -11682.11278972 Ry
     estimated scf accuracy    <       0.00000007 Ry

     iteration #273     ecut=    80.00 Ry     beta= 0.10
     Davidson diagonalization with overlap
     ethr =  2.65E-12,  avg # of iterations =  1.0

     negative rho (up, down):  5.936E-02 0.000E+00

     total cpu time spent up to now is    80195.8 secs

     total energy              =  -11682.11278972 Ry
     estimated scf accuracy    <       0.00000008 Ry

     iteration #274     ecut=    80.00 Ry     beta= 0.10
     Davidson diagonalization with overlap
     ethr =  2.65E-12,  avg # of iterations =  1.0

     negative rho (up, down):  5.936E-02 0.000E+00

     total cpu time spent up to now is    80485.3 secs

     total energy              =  -11682.11278972 Ry
     estimated scf accuracy    <       0.00000004 Ry

     iteration #275     ecut=    80.00 Ry     beta= 0.10
     Davidson diagonalization with overlap
     ethr =  2.15E-12,  avg # of iterations =  1.0

     negative rho (up, down):  5.936E-02 0.000E+00

     total cpu time spent up to now is    80775.3 secs

     total energy              =  -11682.11278972 Ry
     estimated scf accuracy    <       0.00000004 Ry

     iteration #276     ecut=    80.00 Ry     beta= 0.10
     Davidson diagonalization with overlap
     ethr =  2.15E-12,  avg # of iterations =  1.0

     negative rho (up, down):  5.936E-02 0.000E+00

     total cpu time spent up to now is    81065.0 secs

     total energy              =  -11682.11278971 Ry
     estimated scf accuracy    <       0.00000003 Ry

     iteration #277     ecut=    80.00 Ry     beta= 0.10
     Davidson diagonalization with overlap
     ethr =  1.58E-12,  avg # of iterations =  1.0

     negative rho (up, down):  5.936E-02 0.000E+00

     total cpu time spent up to now is    81354.4 secs

     total energy              =  -11682.11278971 Ry
     estimated scf accuracy    <       0.00000003 Ry

     iteration #278     ecut=    80.00 Ry     beta= 0.10
     Davidson diagonalization with overlap
     ethr =  1.53E-12,  avg # of iterations =  1.0

     negative rho (up, down):  5.936E-02 0.000E+00

     total cpu time spent up to now is    81644.9 secs

     total energy              =  -11682.11278972 Ry
     estimated scf accuracy    <       0.00000002 Ry

     iteration #279     ecut=    80.00 Ry     beta= 0.10
     Davidson diagonalization with overlap
     ethr =  1.31E-12,  avg # of iterations =  1.0

     negative rho (up, down):  5.936E-02 0.000E+00

     total cpu time spent up to now is    81934.8 secs

     total energy              =  -11682.11278971 Ry
     estimated scf accuracy    <       0.00000003 Ry

     iteration #280     ecut=    80.00 Ry     beta= 0.10
     Davidson diagonalization with overlap
     ethr =  1.31E-12,  avg # of iterations =  1.0

     negative rho (up, down):  5.936E-02 0.000E+00

     total cpu time spent up to now is    82225.1 secs

     total energy              =  -11682.11278971 Ry
     estimated scf accuracy    <       0.00000006 Ry

     iteration #281     ecut=    80.00 Ry     beta= 0.10
     Davidson diagonalization with overlap
     ethr =  1.31E-12,  avg # of iterations =  1.0

     negative rho (up, down):  5.936E-02 0.000E+00

     total cpu time spent up to now is    82515.3 secs

     total energy              =  -11682.11278971 Ry
     estimated scf accuracy    <       0.00000003 Ry

     iteration #282     ecut=    80.00 Ry     beta= 0.10
     Davidson diagonalization with overlap
     ethr =  1.31E-12,  avg # of iterations =  1.0

     negative rho (up, down):  5.936E-02 0.000E+00

     total cpu time spent up to now is    82805.2 secs

     total energy              =  -11682.11278971 Ry
     estimated scf accuracy    <       0.00000004 Ry

     iteration #283     ecut=    80.00 Ry     beta= 0.10
     Davidson diagonalization with overlap
     ethr =  1.31E-12,  avg # of iterations =  1.0

     negative rho (up, down):  5.936E-02 0.000E+00

     total cpu time spent up to now is    83095.3 secs

     total energy              =  -11682.11278971 Ry
     estimated scf accuracy    <       0.00000004 Ry

     iteration #284     ecut=    80.00 Ry     beta= 0.10
     Davidson diagonalization with overlap
     ethr =  1.31E-12,  avg # of iterations =  1.0

     negative rho (up, down):  5.936E-02 0.000E+00

     total cpu time spent up to now is    83385.1 secs

     total energy              =  -11682.11278971 Ry
     estimated scf accuracy    <       0.00000003 Ry

     iteration #285     ecut=    80.00 Ry     beta= 0.10
     Davidson diagonalization with overlap
     ethr =  1.31E-12,  avg # of iterations =  1.0

     negative rho (up, down):  5.936E-02 0.000E+00

     total cpu time spent up to now is    83674.3 secs

     total energy              =  -11682.11278971 Ry
     estimated scf accuracy    <       0.00000003 Ry

     iteration #286     ecut=    80.00 Ry     beta= 0.10
     Davidson diagonalization with overlap
     ethr =  1.31E-12,  avg # of iterations =  1.0

     negative rho (up, down):  5.936E-02 0.000E+00

     total cpu time spent up to now is    83965.3 secs

     total energy              =  -11682.11278971 Ry
     estimated scf accuracy    <       0.00000002 Ry

     iteration #287     ecut=    80.00 Ry     beta= 0.10
     Davidson diagonalization with overlap
     ethr =  1.31E-12,  avg # of iterations =  1.0

     negative rho (up, down):  5.936E-02 0.000E+00

     total cpu time spent up to now is    84256.3 secs

     total energy              =  -11682.11278971 Ry
     estimated scf accuracy    <       0.00000002 Ry

     iteration #288     ecut=    80.00 Ry     beta= 0.10
     Davidson diagonalization with overlap
     ethr =  8.90E-13,  avg # of iterations =  1.0

     negative rho (up, down):  5.936E-02 0.000E+00

     total cpu time spent up to now is    84545.4 secs

     total energy              =  -11682.11278971 Ry
     estimated scf accuracy    <       0.00000001 Ry

     iteration #289     ecut=    80.00 Ry     beta= 0.10
     Davidson diagonalization with overlap
     ethr =  6.23E-13,  avg # of iterations =  1.0

     negative rho (up, down):  5.936E-02 0.000E+00

     total cpu time spent up to now is    84837.5 secs

     total energy              =  -11682.11278971 Ry
     estimated scf accuracy    <       0.00000001 Ry

     iteration #290     ecut=    80.00 Ry     beta= 0.10
     Davidson diagonalization with overlap
     ethr =  6.23E-13,  avg # of iterations =  1.0

     negative rho (up, down):  5.936E-02 0.000E+00

     total cpu time spent up to now is    85127.6 secs

     total energy              =  -11682.11278971 Ry
     estimated scf accuracy    <       0.00000002 Ry

     iteration #291     ecut=    80.00 Ry     beta= 0.10
     Davidson diagonalization with overlap
     ethr =  6.23E-13,  avg # of iterations =  1.0

     negative rho (up, down):  5.936E-02 0.000E+00

     total cpu time spent up to now is    85418.5 secs

     total energy              =  -11682.11278971 Ry
     estimated scf accuracy    <       0.00000001 Ry

     iteration #292     ecut=    80.00 Ry     beta= 0.10
     Davidson diagonalization with overlap
     ethr =  6.23E-13,  avg # of iterations =  1.0

     negative rho (up, down):  5.936E-02 0.000E+00

     total cpu time spent up to now is    85707.7 secs

     total energy              =  -11682.11278971 Ry
     estimated scf accuracy    <       0.00000001 Ry

     iteration #293     ecut=    80.00 Ry     beta= 0.10
     Davidson diagonalization with overlap
     ethr =  6.23E-13,  avg # of iterations =  1.0

     negative rho (up, down):  5.936E-02 0.000E+00

     total cpu time spent up to now is    85997.3 secs

     total energy              =  -11682.11278971 Ry
     estimated scf accuracy    <       0.00000001 Ry

     iteration #294     ecut=    80.00 Ry     beta= 0.10
     Davidson diagonalization with overlap
     ethr =  6.23E-13,  avg # of iterations =  1.0

     negative rho (up, down):  5.936E-02 0.000E+00

     total cpu time spent up to now is    86287.4 secs

     total energy              =  -11682.11278971 Ry
     estimated scf accuracy    <       0.00000002 Ry

     iteration #295     ecut=    80.00 Ry     beta= 0.10
     Davidson diagonalization with overlap
     ethr =  6.23E-13,  avg # of iterations =  1.0

     negative rho (up, down):  5.936E-02 0.000E+00

     total cpu time spent up to now is    86576.9 secs

     total energy              =  -11682.11278971 Ry
     estimated scf accuracy    <       0.00000002 Ry

     iteration #296     ecut=    80.00 Ry     beta= 0.10
     Davidson diagonalization with overlap
     ethr =  6.23E-13,  avg # of iterations =  1.0

     negative rho (up, down):  5.936E-02 0.000E+00

     total cpu time spent up to now is    86867.5 secs

     total energy              =  -11682.11278971 Ry
     estimated scf accuracy    <       0.00000002 Ry

     iteration #297     ecut=    80.00 Ry     beta= 0.10
     Davidson diagonalization with overlap
     ethr =  6.23E-13,  avg # of iterations =  1.0

     negative rho (up, down):  5.936E-02 0.000E+00

     total cpu time spent up to now is    87156.2 secs

     total energy              =  -11682.11278971 Ry
     estimated scf accuracy    <       0.00000001 Ry

     iteration #298     ecut=    80.00 Ry     beta= 0.10
     Davidson diagonalization with overlap
     ethr =  6.23E-13,  avg # of iterations =  1.0

     negative rho (up, down):  5.936E-02 0.000E+00

     total cpu time spent up to now is    87446.6 secs

     End of self-consistent calculation

          k = 0.0000 0.0000 0.0000 (****** PWs)   bands (ev):

   -57.9620 -56.1940 -55.8581 -55.8270 -55.6296 -55.5832 -55.0264 -55.0108
   -54.7543 -54.5007 -53.8701 -29.8886 -29.8712 -29.8334 -28.1448 -28.1021
   -28.0609 -27.7914 -27.7838 -27.7636 -27.7451 -27.7439 -27.7221 -27.5631
   -27.5508 -27.5349 -27.4975 -27.4852 -27.4566 -27.1260 -26.9973 -26.9640
   -26.9371 -26.9025 -26.9024 -26.8821 -26.7466 -26.6952 -26.6547 -26.4770
   -26.4383 -26.3832 -26.2549 -26.1197 -25.8717 -25.8212 -25.7928 -25.7747
   -25.7632 -25.7536 -25.6083 -25.5795 -25.5579 -25.5531 -25.4487 -25.3603
   -25.2935 -25.2347 -25.1854 -25.1277 -25.1043 -25.0521 -25.0276 -25.0096
   -24.9999 -24.9891 -24.9452 -24.9032 -24.8924 -24.8819 -24.8470 -24.8461
   -24.7981 -24.7824 -24.7542 -24.7309 -24.7042 -24.6647 -24.6430 -24.6221
   -24.6048 -24.6023 -24.5675 -24.5466 -24.5320 -24.5076 -24.4859 -24.4501
   -24.4369 -24.4024 -24.3987 -24.3760 -24.3602 -24.3319 -24.3235 -24.2996
   -24.2904 -24.2640 -24.2541 -24.2413 -24.2123 -24.2066 -24.1812 -24.1707
   -24.1475 -24.1208 -24.1016 -24.0940 -24.0775 -24.0581 -24.0461 -24.0167
   -23.9877 -23.9728 -23.9595 -23.9386 -23.9240 -23.8963 -23.8675 -23.8636
   -23.8099 -23.7892 -23.7854 -23.7704 -23.7530 -23.7376 -23.7291 -23.7176
   -23.7008 -23.6960 -23.6889 -23.6805 -23.6714 -23.6630 -23.6317 -23.6188
   -23.6046 -23.5990 -23.5840 -23.5603 -23.5522 -23.5403 -23.5210 -23.5097
   -23.4995 -23.4851 -23.4697 -23.4406 -23.4113 -23.4010 -23.3852 -23.3830
   -23.3556 -23.3423 -23.3390 -23.3054 -23.2978 -23.2850 -23.2749 -23.2566
   -23.2448 -23.2184 -23.2103 -23.1903 -23.1810 -23.1518 -23.1425 -23.1221
   -23.1199 -23.0965 -23.0868 -23.0779 -23.0571 -23.0477 -23.0458 -23.0328
   -23.0148 -23.0077 -22.9910 -22.9544 -22.9268 -22.9080 -22.9011 -22.8857
   -22.8756 -22.8548 -22.8405 -22.8283 -22.8253 -22.7969 -22.7884 -22.7719
   -22.7630 -22.7467 -22.7089 -22.6999 -22.6966 -22.6938 -22.6601 -22.6555
   -22.6350 -22.5603 -22.5216 -22.5151 -22.4696 -22.4490 -22.3937 -22.3897
   -22.3849 -22.3805 -22.3757 -22.3232 -22.2604 -22.2402 -22.2334 -22.2146
   -22.2033 -22.1696 -22.1076 -22.0253 -21.9807 -21.9727 -21.9320 -21.8331
   -21.6464 -21.5763 -21.5722 -21.5561 -21.5021 -21.4476 -21.4221 -21.3887
   -21.3199 -21.3021 -20.6539 -20.5920 -20.5583 -20.5517 -20.5490 -20.5203
   -20.5188 -20.4680 -20.4654 -20.3561 -20.3284 -20.1580 -20.0743 -20.0665
   -20.0089 -19.8231 -19.7299 -19.7275 -19.7252 -19.7137 -19.7072 -19.7049
   -19.7048 -19.6750 -19.6706 -19.6596 -19.5978 -18.8644 -18.5160 -17.6419
   -16.8759 -16.0914 -15.3406 -15.2073 -15.1416 -15.0718 -14.9639 -14.8857
   -14.8507 -14.7788 -14.7436 -14.6996 -14.6509 -14.5843 -14.5756 -14.5250
   -14.5004 -14.4148 -14.3351 -14.2830 -14.2037 -14.1749 -14.1223 -14.0945
   -14.0250 -14.0018 -13.9636 -13.9525 -13.9146 -13.8981 -13.8746 -13.8085
   -13.7906 -13.7456 -13.7371 -13.6828 -13.6544 -13.6000 -13.5304 -13.5172
   -13.4522 -13.4388 -13.4357 -13.4156 -13.3678 -13.3167 -13.2920 -13.2804
   -13.2122 -13.2052 -13.1911 -13.1477 -13.1239 -13.0825 -13.0753 -13.0461
   -13.0020 -12.9855 -12.9556 -12.9220 -12.8980 -12.8788 -12.8440 -12.8206
   -12.7957 -12.7665 -12.7281 -12.7183 -12.6608 -12.6410 -12.6218 -12.5450
   -12.5343 -12.5129 -12.4770 -12.4366 -12.4079 -12.3684 -12.3548 -12.3208
   -12.3110 -12.2930 -12.2858 -12.2225 -12.2050 -12.1610 -12.1397 -12.1195
   -12.0771 -12.0347 -12.0162 -11.9931 -11.9723 -11.9415 -11.9101 -11.8817
   -11.8598 -11.8466 -11.8212 -11.8019 -11.7774 -11.7430 -11.7341 -11.6973
   -11.6951 -11.6866 -11.6399 -11.6289 -11.5943 -11.5912 -11.5756 -11.5610
   -11.5377 -11.5303 -11.5114 -11.4890 -11.4753 -11.4595 -11.4558 -11.4388
   -11.4191 -11.4071 -11.3795 -11.3703 -11.3653 -11.3265 -11.3069 -11.2895
   -11.2675 -11.2601 -11.2425 -11.2084 -11.1900 -11.1656 -11.1596 -11.1381
   -11.1337 -11.1211 -11.1136 -11.0923 -11.0789 -11.0631 -11.0585 -11.0321
   -10.9843 -10.9813 -10.9551 -10.9440 -10.9214 -10.8952 -10.8861 -10.8744
   -10.8701 -10.8476 -10.8457 -10.8216 -10.8197 -10.8173 -10.8061 -10.7739
   -10.7709 -10.7352 -10.7134 -10.7036 -10.6860 -10.6850 -10.6551 -10.6471
   -10.6089 -10.5754 -10.5568 -10.5429 -10.5415 -10.5293 -10.5125 -10.4828
   -10.4677 -10.4545 -10.4237 -10.3834 -10.3733 -10.3267 -10.3034 -10.2895
   -10.2749 -10.2271 -10.2051 -10.1999 -10.1770 -10.1580 -10.1049 -10.0692
   -10.0668 -10.0414 -10.0232  -9.9858  -9.9541  -9.9053  -9.8914  -9.8693
    -9.8542  -9.8304  -9.8039  -9.7902  -9.7789  -9.7584  -9.7357  -9.7118
    -9.6607  -9.6421  -9.5846  -9.5802  -9.5629  -9.5390  -9.5229  -9.5075
    -9.4905  -9.4771  -9.4607  -9.4453  -9.4130  -9.3914  -9.3664  -9.3587
    -9.3328  -9.3283  -9.3188  -9.3059  -9.2989  -9.2965  -9.2842  -9.2717
    -9.2387  -9.2233  -9.2169  -9.1822  -9.1736  -9.1636  -9.1414  -9.1335
    -9.1154  -9.1014  -9.0721  -9.0522  -9.0371  -9.0113  -9.0101  -8.9696
    -8.9607  -8.9357  -8.9045  -8.9031  -8.8754  -8.8599  -8.8503  -8.8418
    -8.8331  -8.8187  -8.7999  -8.7790  -8.7657  -8.7568  -8.7335  -8.7272
    -8.7157  -8.7042  -8.6945  -8.6790  -8.6594  -8.6564  -8.6527  -8.6379
    -8.6327  -8.6157  -8.5876  -8.5817  -8.5648  -8.5640  -8.5457  -8.5371
    -8.5341  -8.5283  -8.5176  -8.5104  -8.5050  -8.4944  -8.4844  -8.4709
    -8.4588  -8.4500  -8.4389  -8.4277  -8.4110  -8.3902  -8.3855  -8.3787
    -8.3681  -8.3611  -8.3552  -8.3396  -8.3266  -8.3213  -8.3071  -8.2989
    -8.2914  -8.2795  -8.2638  -8.2576  -8.2422  -8.2291  -8.2198  -8.2169
    -8.2092  -8.1972  -8.1880  -8.1713  -8.1669  -8.1585  -8.1407  -8.1356
    -8.1346  -8.1230  -8.1027  -8.0842  -8.0765  -8.0665  -8.0569  -8.0435
    -8.0308  -8.0299  -8.0224  -8.0142  -7.9994  -7.9913  -7.9829  -7.9742
    -7.9580  -7.9540  -7.9436  -7.9373  -7.9340  -7.9110  -7.9066  -7.9035
    -7.8796  -7.8758  -7.8630  -7.8531  -7.8454  -7.8335  -7.8290  -7.8171
    -7.8156  -7.8002  -7.7955  -7.7860  -7.7713  -7.7674  -7.7572  -7.7440
    -7.7404  -7.7341  -7.7277  -7.7133  -7.7097  -7.6966  -7.6883  -7.6735
    -7.6688  -7.6660  -7.6476  -7.6401  -7.6344  -7.6208  -7.6163  -7.6081
    -7.5934  -7.5907  -7.5790  -7.5696  -7.5662  -7.5480  -7.5452  -7.5325
    -7.5288  -7.5075  -7.5006  -7.4964  -7.4868  -7.4766  -7.4617  -7.4601
    -7.4447  -7.4399  -7.4351  -7.4192  -7.4119  -7.4006  -7.3953  -7.3802
    -7.3712  -7.3671  -7.3588  -7.3547  -7.3520  -7.3217  -7.3080  -7.2935
    -7.2862  -7.2840  -7.2796  -7.2685  -7.2551  -7.2494  -7.2415  -7.2255
    -7.2190  -7.2058  -7.1973  -7.1834  -7.1802  -7.1772  -7.1698  -7.1576
    -7.1486  -7.1349  -7.1262  -7.1131  -7.1068  -7.0884  -7.0786  -7.0723
    -7.0582  -7.0558  -7.0432  -7.0332  -7.0226  -7.0146  -7.0035  -6.9984
    -6.9877  -6.9837  -6.9755  -6.9594  -6.9528  -6.9482  -6.9307  -6.9181
    -6.9008  -6.8919  -6.8820  -6.8694  -6.8593  -6.8487  -6.8386  -6.8357
    -6.8224  -6.8187  -6.8035  -6.7839  -6.7776  -6.7698  -6.7620  -6.7499
    -6.7384  -6.7276  -6.7185  -6.7110  -6.7040  -6.6915  -6.6798  -6.6755
    -6.6681  -6.6552  -6.6462  -6.6319  -6.6212  -6.6145  -6.6017  -6.5924
    -6.5838  -6.5822  -6.5778  -6.5687  -6.5510  -6.5480  -6.5280  -6.5097
    -6.4989  -6.4861  -6.4799  -6.4754  -6.4628  -6.4473  -6.4456  -6.4422
    -6.4293  -6.4263  -6.4143  -6.4101  -6.4011  -6.3964  -6.3827  -6.3732
    -6.3679  -6.3487  -6.3447  -6.3403  -6.3237  -6.3140  -6.3003  -6.2911
    -6.2769  -6.2738  -6.2607  -6.2485  -6.2405  -6.2339  -6.2202  -6.2140
    -6.2070  -6.1877  -6.1753  -6.1693  -6.1606  -6.1369  -6.1351  -6.1028
    -6.0923  -6.0784  -6.0704  -6.0565  -6.0515  -6.0303  -6.0273  -6.0055
    -5.9896  -5.9818  -5.9679  -5.9498  -5.9448  -5.9361  -5.9334  -5.9193
    -5.9105  -5.9018  -5.8796  -5.8731  -5.8608  -5.8413  -5.8361  -5.8331
    -5.8221  -5.8062  -5.7903  -5.7765  -5.7701  -5.7616  -5.7402  -5.7213
    -5.7206  -5.7140  -5.7113  -5.6951  -5.6806  -5.6771  -5.6705  -5.6485
    -5.6438  -5.6209  -5.5992  -5.5932  -5.5799  -5.5787  -5.5678  -5.5614
    -5.5365  -5.5108  -5.4905  -5.4734  -5.4617  -5.4509  -5.4412  -5.4318
    -5.4024  -5.3895  -5.3840  -5.3689  -5.3387  -5.3346  -5.3310  -5.3281
    -5.3214  -5.3076  -5.2752  -5.2623  -5.2470  -5.2303  -5.2134  -5.2014
    -5.1665  -5.1469  -5.1358  -5.1098  -5.0748  -5.0609  -5.0476  -5.0257
    -5.0005  -4.9633  -4.8747  -4.8510  -4.8383  -4.8363  -4.8225  -4.8072
    -4.7604  -4.7211  -4.7124  -4.7089  -4.6804  -4.6585  -4.6043  -4.5985
    -4.5800  -4.5023  -4.4780  -4.4544  -4.4482  -4.4436  -4.4356  -4.4218
    -4.3380  -4.2489  -4.2049  -4.1978  -4.1390  -4.1028  -4.0453  -4.0331
    -4.0247  -4.0113  -4.0076  -3.9689  -3.9549  -3.9304  -3.9177  -3.9084
    -3.8981  -3.8904  -3.8805  -3.8463  -3.8447  -3.8381  -3.8266  -3.8210
    -3.8137  -3.8065  -3.7980  -3.7969  -3.7943  -3.7930  -3.7840  -3.7805
    -3.7764  -3.7730  -3.7582  -3.7429  -3.7363  -3.7305  -3.7209  -3.7170
    -3.7070  -3.7054  -3.6755  -3.6616  -3.6448  -3.6262  -3.6250  -3.6117
    -3.5283  -3.4450  -3.3888  -3.3446  -3.3101  -3.2829  -3.1823  -3.1057
    -2.7462  -2.6201  -2.2076  -1.9790  -1.5500  -0.6085  -0.5943  -0.4636
    -0.4176  -0.4067  -0.2658  -0.2500  -0.1709  -0.1029  -0.0240   0.0081
     0.0475   0.1601   0.2522   0.3764   0.3911   0.4718   0.5416   0.6331
     0.6819   0.7125   0.7444   0.7773   0.8352   0.8838   0.9425   0.9865
     1.0089   1.0293   1.0637   1.1021   1.1425   1.1538   1.2087   1.2168
     1.2514   1.2832   1.3146   1.3502   1.3683   1.3799   1.3814   1.4004
     1.4257   1.4456   1.4637   1.4715   1.4970   1.5289   1.5655   1.6180
     1.6271   1.6544   1.6932   1.7093   1.7183   1.7246   1.7422   1.7477
     1.7514   1.7719   1.7867   1.8003   1.8335   1.8438   1.8665   1.8817
     1.9052   1.9217   1.9419   1.9657   1.9759   1.9880   2.0060   2.0387
     2.0477   2.0581   2.0711   2.0858   2.0899   2.1123   2.1339   2.1355
     2.1454   2.1510   2.1520   2.1717   2.1803   2.1886   2.1906   2.1929
     2.2093   2.2263   2.2299   2.2440   2.2556   2.2640   2.2734   2.2801
     2.2948   2.3097   2.3240   2.3366   2.3429   2.3568   2.3721   2.3915
     2.3981   2.4160   2.4367   2.4452   2.4587   2.4671   2.4752   2.4799
     2.4957   2.5095   2.5127   2.5227   2.5321   2.5462   2.5533   2.5639
     2.5669   2.5705   2.5788   2.5835   2.5892   2.5969   2.6129   2.6251
     2.6348   2.6405   2.6430   2.6646   2.6704   2.6777   2.6832   2.6950
     2.7012   2.7049   2.7185   2.7243   2.7338   2.7445   2.7633   2.7715
     2.7809   2.7916   2.7970   2.8052   2.8151   2.8186   2.8380   2.8403
     2.8446   2.8629   2.8671   2.8708   2.8833   2.8839   2.9049   2.9164
     2.9226   2.9361   2.9562

     the Fermi energy is    -3.6804 ev

!    total energy              =  -11682.11278970 Ry
     estimated scf accuracy    <          7.5E-09 Ry
     smearing contrib. (-TS)   =      -0.11142269 Ry
     internal energy E=F+TS    =  -11682.00136701 Ry

     The total energy is F=E-TS. E is the sum of the following terms:
     one-electron contribution = -362591.05240048 Ry
     hartree contribution      =  181758.98709358 Ry
     xc contribution           =   -2470.90395266 Ry
     ewald contribution        =  173980.67148521 Ry
     one-center paw contrib.   =   -2359.70359266 Ry

     convergence has been achieved in 298 iterations

     negative rho (up, down):  5.936E-02 0.000E+00

     Forces acting on atoms (cartesian axes, Ry/au):

     atom    1 type  1   force =     0.01198049    0.01353027    0.05501660
     atom    2 type  1   force =     0.02851264    0.02468181   -0.00097155
     atom    3 type  1   force =     0.00763273    0.00107310   -0.00351504
     atom    4 type  1   force =    -0.01247141   -0.01523825   -0.01031888
     atom    5 type  1   force =     0.01477124   -0.02239383   -0.02718018
     atom    6 type  1   force =     0.00354928   -0.00143181    0.00432646
     atom    7 type  1   force =    -0.00860964    0.01214537    0.01111276
     atom    8 type  1   force =    -0.01212041   -0.03102142    0.00328198
     atom    9 type  1   force =    -0.00149399    0.00643020    0.01345635
     atom   10 type  1   force =     0.01831455   -0.00166648    0.01735695
     atom   11 type  1   force =    -0.01122535   -0.00525050   -0.01234016
     atom   12 type  2   force =     0.00698687    0.12279293   -0.04038120
     atom   13 type  2   force =     0.13722231    0.10175992   -0.00152889
     atom   14 type  2   force =     0.08061548    0.03200031   -0.06293576
     atom   15 type  2   force =     0.14589550   -0.03946561   -0.15263010
     atom   16 type  2   force =     0.02151854    0.03840757    0.04014034
     atom   17 type  2   force =     0.15430391    0.01484094    0.25417664
     atom   18 type  2   force =    -0.01245466   -0.04668826   -0.04953302
     atom   19 type  2   force =    -0.01081190    0.03869512   -0.10074243
     atom   20 type  2   force =    -0.02588638   -0.01331633   -0.04190065
     atom   21 type  2   force =    -0.05465691    0.13498980   -0.03947985
     atom   22 type  2   force =     0.03596679   -0.13335479    0.09288028
     atom   23 type  2   force =    -0.03936616   -0.06828955   -0.05874177
     atom   24 type  2   force =     0.03245163    0.02645664    0.01001973
     atom   25 type  2   force =     0.06546822    0.00665283    0.07192297
     atom   26 type  2   force =    -0.01665508   -0.00976494   -0.01118908
     atom   27 type  2   force =     0.04173567    0.11811443   -0.07358388
     atom   28 type  2   force =    -0.00195179   -0.05838145   -0.01148358
     atom   29 type  2   force =    -0.03143808   -0.05047405    0.08146512
     atom   30 type  2   force =     0.03238734   -0.03169961   -0.03948642
     atom   31 type  2   force =     0.03576626    0.02204707    0.00211980
     atom   32 type  2   force =    -0.00990831   -0.06578822    0.08799734
     atom   33 type  2   force =    -0.05569866    0.01798400   -0.05566740
     atom   34 type  2   force =     0.06102911   -0.02691121   -0.02235060
     atom   35 type  3   force =    -0.01335183   -0.07804849    0.00313828
     atom   36 type  3   force =    -0.16405854    0.08785444   -0.04847780
     atom   37 type  3   force =    -0.06764120    0.03584527   -0.01401818
     atom   38 type  3   force =    -0.05432196   -0.00011789   -0.00937941
     atom   39 type  3   force =     0.07420278    0.00716173    0.01033801
     atom   40 type  3   force =     0.08651982    0.02280213   -0.04331344
     atom   41 type  3   force =    -0.10884431   -0.09033773   -0.13250100
     atom   42 type  3   force =     0.01240044   -0.06067648    0.06449982
     atom   43 type  3   force =     0.01841991   -0.02240950   -0.04845113
     atom   44 type  3   force =     0.06109566    0.10568712    0.04110754
     atom   45 type  3   force =    -0.03159113   -0.00106640   -0.03169809
     atom   46 type  3   force =    -0.03581321    0.12350679    0.06011609
     atom   47 type  3   force =    -0.05603443    0.00764526   -0.14715702
     atom   48 type  3   force =    -0.02870663   -0.12199661   -0.13767726
     atom   49 type  3   force =     0.06195684    0.18253342    0.05224158
     atom   50 type  3   force =     0.04359559   -0.02228728   -0.09789986
     atom   51 type  3   force =    -0.01922361    0.04789481    0.07045290
     atom   52 type  3   force =    -0.12135635   -0.10628507    0.11988168
     atom   53 type  3   force =    -0.12307724   -0.10970164   -0.05538245
     atom   54 type  3   force =    -0.03671195   -0.02303978    0.10115630
     atom   55 type  3   force =    -0.15024826    0.03123142    0.03092681
     atom   56 type  3   force =    -0.02241619    0.01137565    0.12209214
     atom   57 type  3   force =     0.00706833   -0.09509361   -0.04897821
     atom   58 type  3   force =     0.06005600   -0.00809025    0.04794630
     atom   59 type  3   force =    -0.03553891   -0.01080923    0.03852233
     atom   60 type  3   force =     0.07907867   -0.07457187   -0.00365745
     atom   61 type  3   force =     0.01536404    0.19124098    0.03550386
     atom   62 type  3   force =    -0.01922795   -0.01656583   -0.00626931
     atom   63 type  3   force =     0.01630046    0.01195333   -0.00649949
     atom   64 type  3   force =     0.00312236    0.05909723    0.08258724
     atom   65 type  3   force =    -0.00865241    0.02327102    0.02060025
     atom   66 type  3   force =    -0.01586881    0.00339390   -0.01876439
     atom   67 type  3   force =     0.03108206    0.00050018    0.10246583
     atom   68 type  3   force =    -0.06531001   -0.03466430    0.07994410
     atom   69 type  3   force =     0.04508132    0.03715736    0.03193865
     atom   70 type  3   force =    -0.05032826   -0.06708494   -0.05576526
     atom   71 type  3   force =     0.04866959   -0.03739509    0.05216056
     atom   72 type  3   force =     0.01420004    0.11142216    0.19919055
     atom   73 type  3   force =    -0.07874305    0.05111497   -0.07638951
     atom   74 type  3   force =     0.00522130   -0.06456230   -0.04794601
     atom   75 type  3   force =    -0.06326627    0.00868617   -0.00237846
     atom   76 type  3   force =     0.04449575   -0.10610971   -0.06062153
     atom   77 type  3   force =    -0.03076573    0.07732102    0.03339689
     atom   78 type  3   force =    -0.09867807   -0.02070416   -0.06897716
     atom   79 type  3   force =    -0.00395600   -0.04283690    0.03502194
     atom   80 type  3   force =    -0.03297578    0.03907145   -0.00501699
     atom   81 type  3   force =     0.03037095    0.01868997   -0.03952967
     atom   82 type  3   force =    -0.04205736    0.01725705   -0.05466957
     atom   83 type  3   force =    -0.05152421    0.09489329    0.02401172
     atom   84 type  3   force =    -0.02499994    0.04019437   -0.04082404
     atom   85 type  3   force =    -0.01142341   -0.09869110    0.07695850
     atom   86 type  3   force =    -0.02778585   -0.07911841   -0.10468627
     atom   87 type  3   force =     0.02205599   -0.00716417   -0.06791179
     atom   88 type  3   force =    -0.00063437    0.05376574   -0.11885825
     atom   89 type  3   force =    -0.04829884   -0.02074228    0.06500551
     atom   90 type  3   force =     0.05344183   -0.04791639   -0.04621542
     atom   91 type  3   force =     0.06648857    0.04065647   -0.01540995
     atom   92 type  3   force =    -0.00909282   -0.00577524   -0.02092666
     atom   93 type  3   force =    -0.08709454   -0.10492217   -0.00534388
     atom   94 type  3   force =     0.07174603    0.08984551    0.05017116
     atom   95 type  3   force =    -0.01096371   -0.01090565   -0.06978415
     atom   96 type  3   force =    -0.09371919   -0.01181179    0.15325268
     atom   97 type  3   force =    -0.02816647   -0.04656822   -0.00179344
     atom   98 type  3   force =     0.10416622    0.01099888    0.09541665
     atom   99 type  3   force =    -0.05542526   -0.00674588    0.03643126
     atom  100 type  3   force =     0.02261850   -0.07810906    0.07965945
     atom  101 type  3   force =    -0.06018140    0.02729164   -0.01094507
     atom  102 type  3   force =     0.03082848    0.01768793    0.03145637
     atom  103 type  3   force =     0.04703842    0.03122317    0.09735985
     atom  104 type  3   force =    -0.08261233   -0.07705680   -0.00512849
     atom  105 type  3   force =     0.02907696    0.05418680   -0.00675303
     atom  106 type  3   force =     0.03804805    0.11413852   -0.01561510
     atom  107 type  3   force =    -0.02765478   -0.00332657    0.02776301
     atom  108 type  3   force =     0.04690618   -0.00954192    0.04592520
     atom  109 type  3   force =     0.11010368    0.01952372   -0.03948807
     atom  110 type  3   force =     0.13935994    0.00799913   -0.06099060
     atom  111 type  3   force =    -0.02029997   -0.01791736    0.01754508
     atom  112 type  3   force =    -0.06707436    0.09523204   -0.01081006
     atom  113 type  3   force =     0.02126510   -0.01983460   -0.05633812
     atom  114 type  3   force =    -0.03893216    0.02177750    0.08107493
     atom  115 type  3   force =     0.01341179   -0.02837592    0.07646368
     atom  116 type  3   force =     0.08470791    0.00791737   -0.04839407
     atom  117 type  3   force =    -0.06873092    0.00340425    0.03768382
     atom  118 type  3   force =    -0.11860860    0.11191874    0.02563022
     atom  119 type  3   force =     0.07046813   -0.00676028    0.03240107
     atom  120 type  3   force =     0.00917146    0.02810167    0.10528236
     atom  121 type  3   force =     0.12979863    0.07610184    0.01606342
     atom  122 type  4   force =     0.03971334    0.01289586    0.02879931
     atom  123 type  4   force =    -0.06145434   -0.03974304   -0.00984838
     atom  124 type  4   force =     0.00368800    0.02427070   -0.04604637
     atom  125 type  4   force =     0.01814281   -0.00574866   -0.00425361
     atom  126 type  4   force =    -0.13129591   -0.14924986   -0.01134126
     atom  127 type  4   force =    -0.09949434   -0.12886041   -0.07369805
     atom  128 type  4   force =     0.01054302   -0.04946010    0.05961204
     atom  129 type  4   force =     0.00893588   -0.06167985   -0.01135677
     atom  130 type  4   force =     0.00878096   -0.02163784    0.00907564
     atom  131 type  4   force =     0.00669737   -0.01823879   -0.01319672
     atom  132 type  4   force =     0.04934476   -0.03837240   -0.01675161
     atom  133 type  4   force =    -0.03659326   -0.05920427    0.03631377
     atom  134 type  4   force =    -0.09350698    0.00759113   -0.04006090
     atom  135 type  4   force =     0.02242497   -0.02686435    0.12462553
     atom  136 type  4   force =     0.01775433   -0.01009402   -0.01824072
     atom  137 type  4   force =     0.05394865    0.04128583   -0.03411346
     atom  138 type  4   force =     0.01583674    0.00195919   -0.01526381
     atom  139 type  4   force =    -0.00677459    0.02799928   -0.02067646
     atom  140 type  4   force =     0.02153743   -0.06867047    0.02203566
     atom  141 type  4   force =     0.05838907   -0.01207188    0.00218970
     atom  142 type  4   force =    -0.10496218   -0.05312755    0.04676657
     atom  143 type  4   force =    -0.14999192   -0.03705334   -0.09747951
     atom  144 type  4   force =    -0.00564474   -0.01755902    0.02996789
     atom  145 type  4   force =    -0.03998697    0.03683786    0.01627029
     atom  146 type  4   force =    -0.02205574    0.01697829   -0.02253500
     atom  147 type  4   force =    -0.13172691   -0.04977216    0.03206079
     atom  148 type  4   force =     0.01365833   -0.02073237   -0.01292686
     atom  149 type  4   force =     0.06869578    0.03543890    0.01729982
     atom  150 type  4   force =    -0.06341648   -0.05299117   -0.01994383
     atom  151 type  4   force =     0.05090267    0.03686139    0.02465019
     atom  152 type  4   force =    -0.05805317    0.02459367    0.01507167
     atom  153 type  4   force =     0.07628113    0.01867917    0.07642779
     atom  154 type  4   force =    -0.09655565    0.00591679    0.00653712
     atom  155 type  4   force =    -0.01259649   -0.01425636   -0.00921777
     atom  156 type  4   force =    -0.05021777    0.04125988   -0.02244865
     atom  157 type  4   force =     0.04243464   -0.01093715   -0.00371885
     atom  158 type  4   force =     0.01342663    0.01215505   -0.02432028
     atom  159 type  4   force =     0.06700115    0.00743773   -0.05905238
     atom  160 type  4   force =     0.03947359   -0.08933514    0.01402457
     atom  161 type  4   force =     0.00298044   -0.02880545    0.07146102
     atom  162 type  4   force =     0.05273572    0.09477321    0.01553293
     atom  163 type  4   force =    -0.01533676    0.05829610   -0.01551086
     atom  164 type  4   force =     0.02449124    0.02901482    0.06696014
     atom  165 type  4   force =    -0.07486189    0.01032409    0.04943868
     atom  166 type  4   force =    -0.00162054   -0.10199298    0.00494551
     atom  167 type  4   force =    -0.03906927   -0.03992285   -0.01508999
     atom  168 type  4   force =     0.01698884   -0.18444313    0.05856016
     atom  169 type  4   force =     0.05243067    0.04499026   -0.09519578
     atom  170 type  4   force =     0.02789754   -0.04779905   -0.03581131
     atom  171 type  4   force =     0.01258468   -0.01692139    0.00344933
     atom  172 type  4   force =    -0.06998962    0.01240934   -0.04378141
     atom  173 type  4   force =    -0.03893854    0.00694165   -0.02536673
     atom  174 type  4   force =     0.05687260    0.08584292    0.01808584
     atom  175 type  4   force =     0.01312092    0.04182415    0.00305302
     atom  176 type  4   force =     0.03770907   -0.00551085    0.02476330
     atom  177 type  4   force =     0.06402076   -0.00441751   -0.00813853
     atom  178 type  4   force =    -0.00369194    0.03657898    0.04557840
     atom  179 type  4   force =    -0.01200195    0.02845503    0.00317699
     atom  180 type  4   force =    -0.05735897    0.00565053   -0.00721787
     atom  181 type  4   force =     0.00000816   -0.00048276    0.09600108
     atom  182 type  4   force =    -0.02449588   -0.06137249    0.05019083
     atom  183 type  4   force =    -0.03322943    0.10704352   -0.05874959
     atom  184 type  4   force =     0.01827455   -0.01125547    0.05177896
     atom  185 type  4   force =     0.04930120   -0.03490165   -0.01730612
     atom  186 type  4   force =    -0.01141482   -0.01726690    0.00174520
     atom  187 type  4   force =    -0.02772207   -0.01188938    0.05054784
     atom  188 type  4   force =    -0.02035361   -0.01785332   -0.04713692
     atom  189 type  4   force =    -0.01979583    0.03514030   -0.00050877
     atom  190 type  4   force =     0.05860835   -0.03610363    0.00664999
     atom  191 type  4   force =    -0.01872020   -0.00328085   -0.00612151
     atom  192 type  4   force =    -0.03514089    0.02414218   -0.03097274
     atom  193 type  4   force =     0.03630302   -0.06473158    0.02217769
     atom  194 type  4   force =    -0.04961277    0.00128455   -0.00628510
     atom  195 type  4   force =    -0.01048479   -0.00527636    0.01799113
     atom  196 type  4   force =     0.00237774   -0.02552124   -0.06106269
     atom  197 type  4   force =     0.00923034    0.01573058   -0.00007581
     atom  198 type  4   force =    -0.03841850    0.04139527   -0.01356888
     atom  199 type  4   force =     0.00810601   -0.02591101    0.00623907
     atom  200 type  4   force =    -0.00958709   -0.03602129    0.05785369
     atom  201 type  4   force =    -0.01077017   -0.04755241   -0.02852273
     atom  202 type  4   force =     0.01615597    0.01501525    0.04159837
     atom  203 type  4   force =    -0.05687894   -0.05914968   -0.10306823
     atom  204 type  4   force =    -0.00238109    0.01816083    0.06245795
     atom  205 type  4   force =     0.01019262    0.07387006   -0.01370032
     atom  206 type  4   force =    -0.04071180   -0.03145526   -0.04466044
     atom  207 type  4   force =    -0.00485908   -0.03031208    0.03554725
     atom  208 type  4   force =    -0.00080519    0.01181880   -0.01008191
     atom  209 type  4   force =    -0.04450772    0.03160724   -0.05077025
     atom  210 type  4   force =    -0.01133794    0.01307555   -0.05116367
     atom  211 type  4   force =    -0.00060998   -0.03491453   -0.05662529
     atom  212 type  4   force =     0.04273892   -0.03966703   -0.03305635
     atom  213 type  4   force =     0.04284903   -0.14884380   -0.08358959
     atom  214 type  4   force =     0.05176166    0.06494219   -0.05767150
     atom  215 type  4   force =    -0.02659804   -0.02940267    0.00518181
     atom  216 type  4   force =    -0.02213551    0.07577932    0.04093155
     atom  217 type  4   force =    -0.02418848    0.03766179   -0.04189411
     atom  218 type  4   force =     0.01491596    0.02516970   -0.00785181
     atom  219 type  4   force =    -0.04398346   -0.04017951   -0.00916520
     atom  220 type  4   force =     0.01258912   -0.04148079    0.02296237
     atom  221 type  4   force =    -0.00424397    0.03039125    0.06496888
     atom  222 type  4   force =     0.10397491   -0.01659980    0.00584111
     atom  223 type  4   force =     0.02172772    0.08581119   -0.05086832
     atom  224 type  4   force =     0.03969323    0.02491037   -0.01333913
     atom  225 type  4   force =     0.06109416    0.04951275   -0.00337385
     atom  226 type  4   force =     0.02009228   -0.02509378    0.02087058
     atom  227 type  4   force =    -0.02259777    0.05201475    0.04186232
     atom  228 type  4   force =     0.00320773   -0.01706755   -0.02721430
     atom  229 type  4   force =     0.01366406    0.00008440    0.05423597
     atom  230 type  4   force =     0.05292630    0.04902337   -0.00149172
     atom  231 type  4   force =     0.04264968   -0.02080987    0.07111032
     atom  232 type  4   force =     0.04276694   -0.06428360   -0.00875907
     atom  233 type  4   force =     0.03887761    0.05821889    0.02896142
     atom  234 type  4   force =    -0.03297769   -0.05974917   -0.11441566
     atom  235 type  4   force =    -0.01906397    0.15892743   -0.01443659
     atom  236 type  4   force =     0.08813134   -0.01636930   -0.04580955
     atom  237 type  4   force =     0.00624413    0.00679796    0.01216826
     atom  238 type  4   force =    -0.01092312   -0.01290927    0.04266152
     atom  239 type  4   force =     0.01921018   -0.03611704    0.00734204
     atom  240 type  4   force =     0.07763590    0.03085022    0.02822719
     atom  241 type  4   force =     0.03119536   -0.01969740   -0.00488011
     atom  242 type  4   force =    -0.20336331   -0.02959287    0.07899464
     atom  243 type  4   force =     0.02977699    0.00103961    0.02049562
     atom  244 type  4   force =    -0.05115617   -0.00161590   -0.04531613
     atom  245 type  4   force =    -0.01908984   -0.02918660   -0.09473871
     atom  246 type  4   force =     0.02443112   -0.00899984   -0.03121690
     atom  247 type  4   force =    -0.00637802   -0.01713266   -0.06719688
     atom  248 type  4   force =    -0.01646448    0.03031497    0.05893913
     atom  249 type  4   force =     0.03809000    0.02612075   -0.06220881
     atom  250 type  4   force =    -0.08196787   -0.01668509    0.00423734
     atom  251 type  4   force =    -0.00781208   -0.00392352   -0.01946538
     atom  252 type  4   force =    -0.07125770    0.01913479   -0.05259877
     atom  253 type  4   force =     0.00126806   -0.04522998   -0.11026564
     atom  254 type  4   force =    -0.09099713    0.01338323   -0.01472788
     atom  255 type  4   force =     0.01625977   -0.01882662    0.02042875
     atom  256 type  4   force =     0.03189652   -0.00808230    0.03526148
     atom  257 type  4   force =     0.02692714   -0.02500315    0.03380052
     atom  258 type  4   force =     0.00066903    0.01268719   -0.02907927
     atom  259 type  4   force =     0.04799836    0.01503090   -0.00891404
     atom  260 type  4   force =    -0.04568844   -0.01156411   -0.06087445
     atom  261 type  4   force =     0.04145470    0.02801132   -0.03951295
     atom  262 type  4   force =    -0.05601458   -0.01103621    0.04583600
     atom  263 type  4   force =     0.09694065   -0.02658884    0.01784698
     atom  264 type  4   force =    -0.04572874    0.04260256   -0.02250458
     atom  265 type  4   force =     0.02485783    0.01503529   -0.03963274
     atom  266 type  4   force =     0.02701514    0.02036692   -0.04799655
     atom  267 type  4   force =     0.07755088   -0.00409737   -0.04296422
     atom  268 type  4   force =     0.02718272   -0.04396076   -0.03137805
     atom  269 type  4   force =    -0.01663011   -0.06669303    0.00511505
     atom  270 type  4   force =    -0.07175272   -0.01324416   -0.02962333
     atom  271 type  4   force =     0.06972229    0.01182655    0.00879699
     atom  272 type  4   force =     0.02762327    0.05488290   -0.01274843
     atom  273 type  4   force =     0.00245266   -0.00629246    0.04778982
     atom  274 type  4   force =    -0.02438098    0.00271976    0.02713445
     atom  275 type  4   force =    -0.01183495   -0.02058713    0.01823023
     atom  276 type  4   force =     0.04365552    0.07914570    0.06968998
     atom  277 type  4   force =     0.02664403   -0.01174379   -0.07653319
     atom  278 type  4   force =    -0.02157336    0.06312689    0.04438419
     atom  279 type  4   force =    -0.01201863   -0.02157858    0.00406263
     atom  280 type  4   force =    -0.02692724    0.05674454    0.00966436
     atom  281 type  4   force =     0.04153312    0.03153778    0.04331527
     atom  282 type  4   force =     0.03672368   -0.05134914    0.01537100
     atom  283 type  4   force =     0.00389380   -0.06527281   -0.03207137
     atom  284 type  4   force =     0.07196145   -0.05379007   -0.03043491
     atom  285 type  4   force =     0.01851637   -0.01658420    0.01462954
     atom  286 type  4   force =    -0.11867115   -0.02982853   -0.06909271
     atom  287 type  4   force =    -0.01646520   -0.00201140    0.04457755
     atom  288 type  4   force =     0.06711800   -0.00378370   -0.05577653
     atom  289 type  4   force =     0.02106887    0.09143256   -0.02684849
     atom  290 type  4   force =     0.10187540   -0.05823030   -0.11027783
     atom  291 type  4   force =    -0.03008133    0.01413350   -0.01584150
     atom  292 type  4   force =    -0.01944410   -0.01127914    0.01436617
     atom  293 type  4   force =    -0.00660742   -0.02630799   -0.04965141
     atom  294 type  4   force =     0.08012485   -0.02996826    0.16795471
     atom  295 type  4   force =    -0.05385518    0.06400520    0.06799440
     atom  296 type  4   force =    -0.05994380    0.01918570    0.03737995
     atom  297 type  4   force =    -0.01776935    0.01403845   -0.02417574
     atom  298 type  4   force =     0.01309621    0.01327048    0.01795720
     atom  299 type  4   force =    -0.06701189   -0.14538026   -0.02647818
     atom  300 type  4   force =    -0.01170445   -0.05288736   -0.03406357
     atom  301 type  4   force =    -0.07376738    0.03967781    0.02584920
     atom  302 type  4   force =     0.00570661    0.12646304    0.11054872
     atom  303 type  4   force =    -0.01420949   -0.02291662   -0.03984930
     atom  304 type  4   force =    -0.03904566   -0.00149078    0.01097826
     atom  305 type  4   force =    -0.03632568   -0.01651083    0.00709087
     atom  306 type  4   force =     0.00811009    0.01577250   -0.05867300
     atom  307 type  4   force =     0.02343388    0.02016991    0.04237864
     atom  308 type  4   force =     0.00970375    0.00087527   -0.05120187
     atom  309 type  4   force =     0.00196923   -0.02058232    0.01395260
     atom  310 type  4   force =     0.09236476   -0.00427051    0.11082258
     atom  311 type  4   force =    -0.03270926   -0.01334795    0.01158010
     atom  312 type  4   force =    -0.02337255    0.02161828    0.01461469
     atom  313 type  4   force =     0.01412662   -0.08684926    0.01958372
     atom  314 type  4   force =    -0.04576560    0.01308076   -0.02389957
     atom  315 type  4   force =    -0.01722618   -0.00383051   -0.02786450
     atom  316 type  4   force =    -0.00558590   -0.00388394    0.01815182
     atom  317 type  4   force =    -0.00180195    0.06899516    0.03996983
     atom  318 type  4   force =     0.04030997    0.00254130   -0.01746682
     atom  319 type  4   force =    -0.02971515   -0.01473261   -0.06109391
     atom  320 type  4   force =     0.04257411   -0.01852062   -0.02669791
     atom  321 type  4   force =    -0.02599297    0.12847366    0.03773797
     atom  322 type  4   force =     0.02387221    0.01088317   -0.06531874
     atom  323 type  4   force =     0.03588962   -0.03567566    0.05005110
     atom  324 type  4   force =     0.05244805    0.00493972   -0.02311319
     atom  325 type  4   force =     0.03441650   -0.02324422   -0.02830341
     atom  326 type  4   force =    -0.00823411    0.11664262    0.05601784
     atom  327 type  4   force =     0.04745268    0.04959711   -0.03974644
     atom  328 type  4   force =     0.02061577    0.00097867   -0.01999842
     atom  329 type  4   force =     0.10558550    0.01069424    0.01855678
     atom  330 type  4   force =     0.02371449   -0.03661653   -0.05450271
     atom  331 type  4   force =     0.03237898    0.04218436   -0.00806379
     atom  332 type  4   force =     0.02197403    0.05071343   -0.01244873
     atom  333 type  4   force =    -0.05388649   -0.05592879    0.02745111
     atom  334 type  4   force =     0.02378591    0.04553964   -0.02791945
     atom  335 type  4   force =     0.06794202    0.02175656   -0.02189518
     atom  336 type  4   force =    -0.03938917   -0.03108784   -0.04386295
     atom  337 type  4   force =    -0.00468565   -0.00476047   -0.02316555
     atom  338 type  4   force =    -0.05727068    0.04318309   -0.01897235
     atom  339 type  5   force =    -0.02046578    0.02373458    0.03465579
     atom  340 type  5   force =     0.00644236   -0.02890348    0.02814938
     atom  341 type  6   force =     0.02383429    0.00319131   -0.00047683
     atom  342 type  6   force =    -0.02370779   -0.00312892    0.00032162
     atom  343 type  6   force =     0.00465737   -0.03805332   -0.00184638
     atom  344 type  6   force =     0.00577554   -0.03805566   -0.00213741
     atom  345 type  6   force =    -0.00551235    0.03813989    0.00258525
     atom  346 type  6   force =    -0.00478691    0.03803095    0.00236370
     atom  347 type  6   force =     0.02528490    0.01862241    0.00060495
     atom  348 type  6   force =    -0.02928552    0.01135072    0.00171280
     atom  349 type  6   force =     0.02939447   -0.01143560   -0.00122540
     atom  350 type  6   force =    -0.02564278   -0.01861194    0.00010319
     atom  351 type  7   force =     0.00281565    0.00568255   -0.00013155
     atom  352 type  7   force =    -0.00411669    0.00480393    0.00008008
     atom  353 type  7   force =     0.00414189   -0.00484379   -0.00067762
     atom  354 type  7   force =    -0.00258116   -0.00563843   -0.00056929
     atom  355 type  7   force =     0.00373650   -0.00305839   -0.00069769
     atom  356 type  7   force =    -0.00273149   -0.00389795   -0.00048806
     atom  357 type  7   force =     0.00278179    0.00410044   -0.00009049
     atom  358 type  7   force =    -0.00373965    0.00305424   -0.00005884

     Total force =     1.685988     Total SCF correction =     0.000167


     Computing stress (Cartesian axis) and pressure


     negative rho (up, down):  5.936E-02 0.000E+00
          total   stress  (Ry/bohr**3)                   (kbar)     P=        7.99
   0.00005256   0.00000152  -0.00000302            7.73        0.22       -0.44
   0.00000152   0.00006116   0.00000346            0.22        9.00        0.51
  -0.00000302   0.00000346   0.00004918           -0.44        0.51        7.23


     Writing all to output data dir ./outputs/pwscf.save/ :
     XML data file, charge density, pseudopotentials, collected wavefunctions
 
     init_run     :    147.04s CPU    150.14s WALL (       1 calls)
     electrons    :  85533.68s CPU  87298.55s WALL (       1 calls)
     forces       :     93.90s CPU     98.10s WALL (       1 calls)
     stress       :    355.79s CPU    361.32s WALL (       1 calls)

     Called by init_run:
     wfcinit      :    131.19s CPU    133.02s WALL (       1 calls)
     potinit      :      1.18s CPU      1.28s WALL (       1 calls)
     hinit0       :      1.40s CPU      1.45s WALL (       1 calls)

     Called by electrons:
     c_bands      :  71671.43s CPU  72820.02s WALL (     298 calls)
     sum_band     :  12457.68s CPU  12800.05s WALL (     298 calls)
     v_of_rho     :    135.06s CPU    140.93s WALL (     299 calls)
     newd         :   1007.43s CPU   1269.73s WALL (     299 calls)
     PAW_pot      :    168.88s CPU    169.92s WALL (     299 calls)
     mix_rho      :     74.83s CPU     77.98s WALL (     298 calls)

     Called by c_bands:
     init_us_2    :    652.88s CPU    661.32s WALL (     598 calls)
     cegterg      :  70782.59s CPU  71908.48s WALL (     298 calls)

     Called by *egterg:
     cdiaghg      :    998.33s CPU   1007.85s WALL (     642 calls)
     h_psi        :  39278.61s CPU  39784.13s WALL (     643 calls)
     s_psi        :  11746.73s CPU  11852.12s WALL (     643 calls)
     g_psi        :    111.23s CPU    111.98s WALL (     344 calls)

     Called by h_psi:
     h_psi:calbec :  11797.85s CPU  11876.09s WALL (     643 calls)
     vloc_psi     :  15638.49s CPU  15806.26s WALL (     643 calls)
                                        0.00s GPU  (     643 calls)
     add_vuspsi   :  11766.55s CPU  11900.88s WALL (     643 calls)

     General routines
     calbec       :  17981.75s CPU  18095.51s WALL (     958 calls)
     fft          :    131.75s CPU    138.93s WALL (    3910 calls)
     ffts         :     12.08s CPU     12.68s WALL (     597 calls)
     fftw         :  15113.04s CPU  15250.85s WALL ( 1680914 calls)
     interpolate  :     16.86s CPU     17.63s WALL (     299 calls)
 
     Parallel routines
 
     PWSCF        :     23h55m CPU   1d 0h29m WALL

 
   This run was terminated on:  10:22:47   9Mar2026            

=------------------------------------------------------------------------------=
   JOB DONE.
=------------------------------------------------------------------------------=
