
     Program PWSCF v.7.5 starts on 13Mar2026 at 12:15:38 

     This program is part of the open-source Quantum ESPRESSO suite
     for quantum simulation of materials; please cite
         "P. Giannozzi et al., J. Phys.:Condens. Matter 21 395502 (2009);
         "P. Giannozzi et al., J. Phys.:Condens. Matter 29 465901 (2017);
         "P. Giannozzi et al., J. Chem. Phys. 152 154105 (2020);
          URL http://www.quantum-espresso.org", 
     in publications or presentations arising from this work. More details at
     http://www.quantum-espresso.org/quote

     Parallel version (MPI), running on    80 processors

     MPI processes distributed on     4 nodes
     84991 MiB available memory on the printing compute node when the environment starts
 
     Reading input from NaphthaleneOnGlassSite3Snapshot23.in
Warning: card &CELL ignored
Warning: card &FCP ignored
Warning: card &RISM ignored

     Current dimensions of program PWSCF are:
     Max number of different atomic species (ntypx) = 10
     Max number of k-points (npk) =  40000
     Max angular momentum in pseudopotentials (lmaxx) =  4
     file Na.paw.z_9.ld1.psl.v1.0.0-low.upf: wavefunction(s)  2P renormalized
     file O.pbe-n-kjpaw_psl.0.1.UPF: wavefunction(s)  2P renormalized
     file Al.pbe-n-kjpaw_psl.1.0.0.UPF: wavefunction(s)  3S 3P renormalized
     file C.pbe-n-kjpaw_psl.1.0.0.UPF: wavefunction(s)  2S 2P renormalized
 
     R & G space division:  proc/nbgrp/npool/nimage =      80
     Subspace diagonalization in iterative solution of the eigenvalue problem:
     one sub-group per band group will be used
     custom distributed-memory algorithm (size of sub-group:  8*  8 procs)

 
     Parallelization info
     --------------------
     sticks:   dense  smooth     PW     G-vecs:    dense   smooth      PW
     Min         450     400    100               199276   167008   20874
     Max         451     401    101               199303   167021   20885
     Sum       36073   32057   8021             15943719 13361281 1670237
 
     Using Slab Decomposition
 


     bravais-lattice index     =            0
     lattice parameter (alat)  =      35.4885  a.u.
     unit-cell volume          =  138228.4306 (a.u.)^3
     number of atoms/cell      =          358
     number of atomic types    =            7
     number of electrons       =      1872.00
     number of Kohn-Sham states=         1123
     kinetic-energy cutoff     =      80.0000  Ry
     charge density cutoff     =     360.0000  Ry
     scf convergence threshold =      1.0E-08
     mixing beta               =       0.1000
     number of iterations used =            8  plain     mixing
     Exchange-correlation= PBE
                           (   1   4   3   4   0   0   0)

     celldm(1)=  35.488539  celldm(2)=   0.000000  celldm(3)=   0.000000
     celldm(4)=   0.000000  celldm(5)=   0.000000  celldm(6)=   0.000000

     crystal axes: (cart. coord. in units of alat)
               a(1) = (   1.000000   0.000000   0.000000 )  
               a(2) = (   0.000000   1.000000   0.000000 )  
               a(3) = (   0.000000   0.000000   3.092666 )  

     reciprocal axes: (cart. coord. in units 2 pi/alat)
               b(1) = (  1.000000  0.000000  0.000000 )  
               b(2) = (  0.000000  1.000000  0.000000 )  
               b(3) = (  0.000000  0.000000  0.323346 )  


     PseudoPot. # 1 for Na read from file:
     /home/sabeel/VOCC_Simulation/pseudopotentials/SSSP_Precision/Na.paw.z_9.ld1.psl.v1.0.0-low.upf
     MD5 check sum: 32bccecb13d7399e6c7dae6fe6685ff0
     Pseudo is Projector augmented-wave + core cor, Zval =  9.0
     Generated using &quot;atomic&quot; code by A. Dal Corso  v.6.3MaX
     Shape of augmentation charge: PSQ
     Using radial grid of 1121 points,  4 beta functions with: 
                l(1) =   0
                l(2) =   0
                l(3) =   1
                l(4) =   1
     Q(r) pseudized with 0 coefficients 


     PseudoPot. # 2 for B  read from file:
     /home/sabeel/VOCC_Simulation/pseudopotentials/SSSP_Precision/B_pbe_v1.01.uspp.F.UPF
     MD5 check sum: d081ebb89d0c768e112975f650467a00
     Pseudo is Ultrasoft + core correction, Zval =  3.0
     Generated by new atomic code, or converted to UPF format
     Using radial grid of  781 points,  4 beta functions with: 
                l(1) =   0
                l(2) =   0
                l(3) =   1
                l(4) =   1
     Q(r) pseudized with  8 coefficients,  rinner =    1.100   1.100   1.100


     PseudoPot. # 3 for Si read from file:
     /home/sabeel/VOCC_Simulation/pseudopotentials/SSSP_Precision/Si.pbe-n-rrkjus_psl.1.0.0.UPF
     MD5 check sum: 0b0bb1205258b0d07b9f9672cf965d36
     Pseudo is Ultrasoft + core correction, Zval =  4.0
     Generated using "atomic" code by A. Dal Corso  v.5.1
     Using radial grid of 1141 points,  6 beta functions with: 
                l(1) =   0
                l(2) =   0
                l(3) =   1
                l(4) =   1
                l(5) =   2
                l(6) =   2
     Q(r) pseudized with 0 coefficients 


     PseudoPot. # 4 for O  read from file:
     /home/sabeel/VOCC_Simulation/pseudopotentials/SSSP_Precision/O.pbe-n-kjpaw_psl.0.1.UPF
     MD5 check sum: 0234752ac141de4415c5fc33072bef88
     Pseudo is Projector augmented-wave + core cor, Zval =  6.0
     Generated using "atomic" code by A. Dal Corso  v.5.0.99 svn rev. 10869
     Shape of augmentation charge: BESSEL
     Using radial grid of 1095 points,  4 beta functions with: 
                l(1) =   0
                l(2) =   0
                l(3) =   1
                l(4) =   1
     Q(r) pseudized with 0 coefficients 


     PseudoPot. # 5 for Al read from file:
     /home/sabeel/VOCC_Simulation/pseudopotentials/SSSP_Precision/Al.pbe-n-kjpaw_psl.1.0.0.UPF
     MD5 check sum: cfc449ca30b5f3223ec38ddd88ac046d
     Pseudo is Projector augmented-wave + core cor, Zval =  3.0
     Generated using "atomic" code by A. Dal Corso  v.5.1
     Shape of augmentation charge: PSQ
     Using radial grid of 1135 points,  6 beta functions with: 
                l(1) =   0
                l(2) =   0
                l(3) =   1
                l(4) =   1
                l(5) =   2
                l(6) =   2
     Q(r) pseudized with 0 coefficients 


     PseudoPot. # 6 for C  read from file:
     /home/sabeel/VOCC_Simulation/pseudopotentials/SSSP_Precision/C.pbe-n-kjpaw_psl.1.0.0.UPF
     MD5 check sum: 5d2aebdfa2cae82b50a7e79e9516da0f
     Pseudo is Projector augmented-wave + core cor, Zval =  4.0
     Generated using "atomic" code by A. Dal Corso  v.5.1
     Shape of augmentation charge: PSQ
     Using radial grid of 1073 points,  4 beta functions with: 
                l(1) =   0
                l(2) =   0
                l(3) =   1
                l(4) =   1
     Q(r) pseudized with 0 coefficients 


     PseudoPot. # 7 for H  read from file:
     /home/sabeel/VOCC_Simulation/pseudopotentials/SSSP_Precision/H_ONCV_PBE-1.0.oncvpsp.upf
     MD5 check sum: 1790becc920ee074925cf490c71280fe
     Pseudo is Norm-conserving, Zval =  1.0
     Generated using ONCVPSP code by D. R. Hamann
     Using radial grid of 1166 points,  2 beta functions with: 
                l(1) =   0
                l(2) =   0

     atomic species   valence    mass     pseudopotential
     Na                9.00    22.98977     Na( 1.00)
     B                 3.00    10.81000     B ( 1.00)
     Si                4.00    28.08500     Si( 1.00)
     O                 6.00    15.99900     O ( 1.00)
     Al                3.00    26.98154     Al( 1.00)
     C                 4.00    12.01100     C ( 1.00)
     H                 1.00     1.00800     H ( 1.00)

     No symmetry found



   Cartesian axes

     site n.     atom                  positions (alat units)
         1        Na     tau(   1) = (   0.2476327   0.1287261   1.4401902  )
         2        Na     tau(   2) = (   0.2347070   0.3964799   1.8357059  )
         3        Na     tau(   3) = (   0.2580766   0.4457236   1.6551511  )
         4        Na     tau(   4) = (   0.0484944   0.0277893   1.6277847  )
         5        Na     tau(   5) = (   0.2352313   0.0813062   1.2863150  )
         6        Na     tau(   6) = (   0.0747243   0.2371463   1.1982473  )
         7        Na     tau(   7) = (   0.1133306   0.7698962   1.8611434  )
         8        Na     tau(   8) = (   0.9037110   0.1954209   1.2700780  )
         9        Na     tau(   9) = (   0.5181841   0.1014052   1.4940734  )
        10        Na     tau(  10) = (   0.3803624   0.0140251   1.8302637  )
        11        Na     tau(  11) = (   0.3545179   0.4989222   1.3772145  )
        12        B      tau(  12) = (   0.9565860   0.6559989   1.4661680  )
        13        B      tau(  13) = (   0.3779039   0.3190213   1.8506233  )
        14        B      tau(  14) = (   0.6357433   0.7757670   1.3375748  )
        15        B      tau(  15) = (   0.9958362   0.0827877   1.8476266  )
        16        B      tau(  16) = (   0.6987179   0.5586979   1.3943070  )
        17        B      tau(  17) = (   0.0903279   0.5997535   1.2200041  )
        18        B      tau(  18) = (   0.9460845   0.5017876   1.4754679  )
        19        B      tau(  19) = (   0.0032347   0.0527127   1.2839437  )
        20        B      tau(  20) = (   0.1241012   0.5940167   1.6016841  )
        21        B      tau(  21) = (   0.4174729   0.9198072   1.5541475  )
        22        B      tau(  22) = (   0.4638227   0.9107282   1.2322731  )
        23        B      tau(  23) = (   0.5096053   0.7092947   1.5000083  )
        24        B      tau(  24) = (   0.4035376   0.9367665   1.6900270  )
        25        B      tau(  25) = (   0.7132674   0.8560217   1.2558196  )
        26        B      tau(  26) = (   0.2579773   0.4217781   1.2874388  )
        27        B      tau(  27) = (   0.1862793   0.2338812   1.3576537  )
        28        B      tau(  28) = (   0.2134919   0.3664862   1.5073156  )
        29        B      tau(  29) = (   0.3546252   0.0462610   1.5293894  )
        30        B      tau(  30) = (   0.8082206   0.9504483   1.6218439  )
        31        B      tau(  31) = (   0.4915043   0.5408159   1.2913026  )
        32        B      tau(  32) = (   0.2471486   0.9450605   1.4099193  )
        33        B      tau(  33) = (   0.7089246   0.1566090   1.6669558  )
        34        B      tau(  34) = (   0.4858908   0.1745693   1.3498737  )
        35        Si     tau(  35) = (   0.5740761   0.3686341   1.4981594  )
        36        Si     tau(  36) = (   0.9600416   0.6521543   1.2713743  )
        37        Si     tau(  37) = (   0.8029666   0.9237355   1.4090604  )
        38        Si     tau(  38) = (   0.6589027   0.0111466   1.4303706  )
        39        Si     tau(  39) = (   0.7148031   0.8518694   1.6658713  )
        40        Si     tau(  40) = (   0.4062844   0.4370669   1.7000479  )
        41        Si     tau(  41) = (   0.8652299   0.0194200   1.2866760  )
        42        Si     tau(  42) = (   0.8792462   0.4724358   1.3313926  )
        43        Si     tau(  43) = (   0.9761010   0.8191325   1.3004490  )
        44        Si     tau(  44) = (   0.0927580   0.6000365   1.4532062  )
        45        Si     tau(  45) = (   0.8492038   0.6801733   1.8429896  )
        46        Si     tau(  46) = (   0.7648638   0.9759642   1.8781504  )
        47        Si     tau(  47) = (   0.8282769   0.9005504   1.7531841  )
        48        Si     tau(  48) = (   0.2400871   0.2615564   1.6009290  )
        49        Si     tau(  49) = (   0.0782160   0.8578516   1.7113893  )
        50        Si     tau(  50) = (   0.1793983   0.5421597   1.3229395  )
        51        Si     tau(  51) = (   0.3045589   0.3154693   1.3856788  )
        52        Si     tau(  52) = (   0.1868342   0.9496617   1.8144358  )
        53        Si     tau(  53) = (   0.5597482   0.9942014   1.8563540  )
        54        Si     tau(  54) = (   0.3283405   0.8654915   1.7979255  )
        55        Si     tau(  55) = (   0.3944303   0.1342286   1.2558232  )
        56        Si     tau(  56) = (   0.5556116   0.4029995   1.7688172  )
        57        Si     tau(  57) = (   0.8886951   0.0519111   1.5515978  )
        58        Si     tau(  58) = (   0.9177874   0.8266438   1.8602018  )
        59        Si     tau(  59) = (   0.5141592   0.7513592   1.7304853  )
        60        Si     tau(  60) = (   0.6200680   0.7296116   1.5975635  )
        61        Si     tau(  61) = (   0.4531771   0.2653855   1.4551164  )
        62        Si     tau(  62) = (   0.9530092   0.1910999   1.6203079  )
        63        Si     tau(  63) = (   0.9806318   0.2594417   1.4695044  )
        64        Si     tau(  64) = (   0.1810221   0.5658568   1.7318917  )
        65        Si     tau(  65) = (   0.2276537   0.6624309   1.2309086  )
        66        Si     tau(  66) = (   0.7086066   0.3068958   1.4624957  )
        67        Si     tau(  67) = (   0.7573617   0.5008676   1.2102682  )
        68        Si     tau(  68) = (   0.0630774   0.5052222   1.8068999  )
        69        Si     tau(  69) = (   0.9531780   0.4208941   1.7332624  )
        70        Si     tau(  70) = (   0.8429520   0.6341042   1.3864806  )
        71        Si     tau(  71) = (   0.8255070   0.2513717   1.7092992  )
        72        Si     tau(  72) = (   0.4660404   0.3166643   1.5999861  )
        73        Si     tau(  73) = (   0.3218087   0.1696541   1.7095271  )
        74        Si     tau(  74) = (   0.6054871   0.0864265   1.2929813  )
        75        Si     tau(  75) = (   0.4402609   0.0821865   1.6559030  )
        76        Si     tau(  76) = (   0.3770531   0.0317907   1.3941734  )
        77        Si     tau(  77) = (   0.5059912   0.8072476   1.3243503  )
        78        Si     tau(  78) = (   0.6069382   0.5044701   1.6609957  )
        79        Si     tau(  79) = (   0.6370349   0.4244534   1.3741369  )
        80        Si     tau(  80) = (   0.6855674   0.7078304   1.8645318  )
        81        Si     tau(  81) = (   0.0765130   0.9298841   1.2314627  )
        82        Si     tau(  82) = (   0.9863684   0.4054382   1.2235204  )
        83        Si     tau(  83) = (   0.4950631   0.2585395   1.7548401  )
        84        Si     tau(  84) = (   0.5719431   0.1160579   1.7357262  )
        85        Si     tau(  85) = (   0.3566442   0.7389475   1.7027041  )
        86        Si     tau(  86) = (   0.5887626   0.6478135   1.7482870  )
        87        Si     tau(  87) = (   0.3778403   0.4701707   1.1981005  )
        88        Si     tau(  88) = (   0.7705746   0.7745811   1.3546535  )
        89        Si     tau(  89) = (   0.6353056   0.3899359   1.2194797  )
        90        Si     tau(  90) = (   0.3199297   0.6027545   1.8036004  )
        91        Si     tau(  91) = (   0.6901246   0.5787282   1.5496775  )
        92        Si     tau(  92) = (   0.1108815   0.9857043   1.4484254  )
        93        Si     tau(  93) = (   0.0087222   0.8101075   1.4596435  )
        94        Si     tau(  94) = (   0.4662737   0.5842118   1.4387730  )
        95        Si     tau(  95) = (   0.1497603   0.1150345   1.8191784  )
        96        Si     tau(  96) = (   0.9119816   0.9073773   1.5284091  )
        97        Si     tau(  97) = (   0.5081777   0.9347421   1.4393654  )
        98        Si     tau(  98) = (   0.9733658   0.9480751   1.7929925  )
        99        Si     tau(  99) = (   0.2449909   0.7736475   1.5958723  )
       100        Si     tau( 100) = (   0.2568298   0.7840856   1.3334763  )
       101        Si     tau( 101) = (   0.1600543   0.7576293   1.4557816  )
       102        Si     tau( 102) = (   0.9190690   0.2974838   1.8287833  )
       103        Si     tau( 103) = (   0.8499270   0.3745654   1.6104514  )
       104        Si     tau( 104) = (   0.8444491   0.5369054   1.7673517  )
       105        Si     tau( 105) = (   0.1203187   0.1732756   1.6597012  )
       106        Si     tau( 106) = (   0.6321686   0.6005607   1.2681838  )
       107        Si     tau( 107) = (   0.6235724   0.8470731   1.8048529  )
       108        Si     tau( 108) = (   0.7501132   0.1202716   1.2309056  )
       109        Si     tau( 109) = (   0.2746484   0.2046900   1.8670863  )
       110        Si     tau( 110) = (   0.2273259   0.0646953   1.6216725  )
       111        Si     tau( 111) = (   0.0729274   0.4042159   1.4579120  )
       112        Si     tau( 112) = (   0.6640697   0.1601480   1.5162335  )
       113        Si     tau( 113) = (   0.1226817   0.7031938   1.6887692  )
       114        Si     tau( 114) = (   0.8406300   0.5276586   1.5875131  )
       115        Si     tau( 115) = (   0.8389500   0.3149315   1.3901795  )
       116        Si     tau( 116) = (   0.1722727   0.9211130   1.5953570  )
       117        Si     tau( 117) = (   0.0763504   0.1375521   1.3930086  )
       118        Si     tau( 118) = (   0.3256209   0.9115638   1.2548481  )
       119        Si     tau( 119) = (   0.3955849   0.7224945   1.4035300  )
       120        Si     tau( 120) = (   0.4652418   0.5499611   1.5942954  )
       121        Si     tau( 121) = (   0.1212618   0.3651412   1.3045003  )
       122        O      tau( 122) = (   0.0295168   0.4481121   1.8630498  )
       123        O      tau( 123) = (   0.8632305   0.7660730   1.8351295  )
       124        O      tau( 124) = (   0.7865379   0.5198677   1.8292109  )
       125        O      tau( 125) = (   0.7687039   0.8065522   1.2712216  )
       126        O      tau( 126) = (   0.2613316   0.2462125   1.3627201  )
       127        O      tau( 127) = (   0.4383841   0.2721051   1.5384261  )
       128        O      tau( 128) = (   0.4075804   0.9041606   1.6244717  )
       129        O      tau( 129) = (   0.2891632   0.9821156   1.2266374  )
       130        O      tau( 130) = (   0.3003666   0.1796727   1.7902854  )
       131        O      tau( 131) = (   0.5973279   0.4225163   1.2949590  )
       132        O      tau( 132) = (   0.5334428   0.5020140   1.6146071  )
       133        O      tau( 133) = (   0.2755656   0.1058719   1.6786020  )
       134        O      tau( 134) = (   0.1545595   0.1075181   1.6150265  )
       135        O      tau( 135) = (   0.1198242   0.5723265   1.5291309  )
       136        O      tau( 136) = (   0.5826608   0.7211316   1.6806210  )
       137        O      tau( 137) = (   0.4384820   0.7620469   1.6969890  )
       138        O      tau( 138) = (   0.3813441   0.2977472   1.4178316  )
       139        O      tau( 139) = (   0.9518571   0.2429557   1.5505285  )
       140        O      tau( 140) = (   0.6668767   0.5177678   1.6031137  )
       141        O      tau( 141) = (   0.1520770   0.1695411   1.3620472  )
       142        O      tau( 142) = (   0.6925009   0.7509516   1.3753791  )
       143        O      tau( 143) = (   0.1434568   0.6580895   1.2139172  )
       144        O      tau( 144) = (   0.4761486   0.9028411   1.5138988  )
       145        O      tau( 145) = (   0.0631356   0.5782061   1.8492954  )
       146        O      tau( 146) = (   0.5876332   0.4146284   1.8503125  )
       147        O      tau( 147) = (   0.1071621   0.8902567   1.6361869  )
       148        O      tau( 148) = (   0.0331486   0.1967754   1.4407710  )
       149        O      tau( 149) = (   0.9443941   0.9810288   1.5588672  )
       150        O      tau( 150) = (   0.5485694   0.5774714   1.2625723  )
       151        O      tau( 151) = (   0.6090489   0.9225244   1.8421140  )
       152        O      tau( 152) = (   0.3184350   0.7927686   1.7545505  )
       153        O      tau( 153) = (   0.2965868   0.2359092   1.6579206  )
       154        O      tau( 154) = (   0.3399948   0.4149078   1.7451441  )
       155        O      tau( 155) = (   0.6583099   0.3076783   1.2358723  )
       156        O      tau( 156) = (   0.5620926   0.7442927   1.5385442  )
       157        O      tau( 157) = (   0.5556976   0.3175372   1.7688381  )
       158        O      tau( 158) = (   0.3525972   0.6632019   1.7471104  )
       159        O      tau( 159) = (   0.9620412   0.3446718   1.7697440  )
       160        O      tau( 160) = (   0.5313272   0.1848172   1.7709556  )
       161        O      tau( 161) = (   0.9429693   0.0183272   1.3239474  )
       162        O      tau( 162) = (   0.4858005   0.9533180   1.8755890  )
       163        O      tau( 163) = (   0.3657073   0.5328581   1.8345358  )
       164        O      tau( 164) = (   0.4406081   0.5066782   1.2484323  )
       165        O      tau( 165) = (   0.3135028   0.2834622   1.8690668  )
       166        O      tau( 166) = (   0.7907911   0.8360261   1.7119523  )
       167        O      tau( 167) = (   0.7289290   0.9234833   1.2340123  )
       168        O      tau( 168) = (   0.1454692   0.2885690   1.3267456  )
       169        O      tau( 169) = (   0.3914991   0.9066251   1.7575926  )
       170        O      tau( 170) = (   0.7079875   0.2222935   1.4707635  )
       171        O      tau( 171) = (   0.9743698   0.8515159   1.5269402  )
       172        O      tau( 172) = (   0.1330105   0.5361140   1.2470617  )
       173        O      tau( 173) = (   0.5827735   0.0420994   1.2254729  )
       174        O      tau( 174) = (   0.8602910   0.6220068   1.7811976  )
       175        O      tau( 175) = (   0.5252483   0.6418342   1.4684534  )
       176        O      tau( 176) = (   0.6556139   0.6691234   1.7930720  )
       177        O      tau( 177) = (   0.9478947   0.4555202   1.2814895  )
       178        O      tau( 178) = (   0.9699578   0.0766966   1.2188133  )
       179        O      tau( 179) = (   0.5480526   0.8088247   1.7836236  )
       180        O      tau( 180) = (   0.3152477   0.7447790   1.3880620  )
       181        O      tau( 181) = (   0.1477991   0.6460434   1.7450578  )
       182        O      tau( 182) = (   0.4226375   0.0083615   1.6949577  )
       183        O      tau( 183) = (   0.5004654   0.8461638   1.2447985  )
       184        O      tau( 184) = (   0.7864920   0.8423242   1.4036977  )
       185        O      tau( 185) = (   0.9046070   0.6136339   1.3286598  )
       186        O      tau( 186) = (   0.1308852   0.5564651   1.3912596  )
       187        O      tau( 187) = (   0.0181193   0.9388870   1.8632981  )
       188        O      tau( 188) = (   0.5236768   0.3172741   1.4469420  )
       189        O      tau( 189) = (   0.6771903   0.1363695   1.2729556  )
       190        O      tau( 190) = (   0.5668565   0.7520726   1.3411952  )
       191        O      tau( 191) = (   0.4390184   0.1054952   1.8920128  )
       192        O      tau( 192) = (   0.2801127   0.0556319   1.5537880  )
       193        O      tau( 193) = (   0.9517833   0.2240015   1.8530263  )
       194        O      tau( 194) = (   0.4078786   0.5134087   1.6517908  )
       195        O      tau( 195) = (   0.6735166   0.7941076   1.8547702  )
       196        O      tau( 196) = (   0.7896414   0.2674110   1.3392843  )
       197        O      tau( 197) = (   0.9136500   0.5214282   1.5392122  )
       198        O      tau( 198) = (   0.5881526   0.4350093   1.4460280  )
       199        O      tau( 199) = (   0.7745755   0.5842257   1.3844862  )
       200        O      tau( 200) = (   0.2034896   0.9862494   1.6415920  )
       201        O      tau( 201) = (   0.1233221   0.6813655   1.4530684  )
       202        O      tau( 202) = (   0.7937827   0.3272627   1.4639956  )
       203        O      tau( 203) = (   0.4473563   0.5396589   1.5104804  )
       204        O      tau( 204) = (   0.6542799   0.3403998   1.5182787  )
       205        O      tau( 205) = (   0.8234572   0.7113307   1.3622509  )
       206        O      tau( 206) = (   0.8127487   0.4431771   1.5824090  )
       207        O      tau( 207) = (   0.5134106   0.6764784   1.7758121  )
       208        O      tau( 208) = (   0.1836556   0.7783442   1.3761575  )
       209        O      tau( 209) = (   0.8104766   0.3105590   1.6473803  )
       210        O      tau( 210) = (   0.3044033   0.9850075   1.3843284  )
       211        O      tau( 211) = (   0.1301504   0.8965179   1.7717389  )
       212        O      tau( 212) = (   0.3197141   0.1653364   1.2298596  )
       213        O      tau( 213) = (   0.4699233   0.1934200   1.4196372  )
       214        O      tau( 214) = (   0.2809558   0.8612246   1.3097159  )
       215        O      tau( 215) = (   0.4264163   0.2824703   1.8051299  )
       216        O      tau( 216) = (   0.6599679   0.6539216   1.5790006  )
       217        O      tau( 217) = (   0.7349642   0.9291111   1.6364595  )
       218        O      tau( 218) = (   0.0099961   0.4612132   1.4800917  )
       219        O      tau( 219) = (   0.5892025   0.1978638   1.5290320  )
       220        O      tau( 220) = (   0.0485841   0.8646896   1.2765110  )
       221        O      tau( 221) = (   0.9732948   0.8322736   1.3845405  )
       222        O      tau( 222) = (   0.4005127   0.1467648   1.7001924  )
       223        O      tau( 223) = (   0.8561165   0.3880932   1.3551362  )
       224        O      tau( 224) = (   0.1908703   0.7320545   1.6493092  )
       225        O      tau( 225) = (   0.5316561   0.3624401   1.5720686  )
       226        O      tau( 226) = (   0.6407674   0.0341441   1.3503554  )
       227        O      tau( 227) = (   0.2507360   0.3493753   1.4464087  )
       228        O      tau( 228) = (   0.5138994   0.8709061   1.3834646  )
       229        O      tau( 229) = (   0.9079300   0.5013233   1.4088368  )
       230        O      tau( 230) = (   0.4395504   0.1937154   1.2966161  )
       231        O      tau( 231) = (   0.2308999   0.6103161   1.2990312  )
       232        O      tau( 232) = (   0.3685013   0.9700313   1.5258447  )
       233        O      tau( 233) = (   0.8514985   0.9494698   1.6877232  )
       234        O      tau( 234) = (   0.0187499   0.4824011   1.7364241  )
       235        O      tau( 235) = (   0.2414021   0.3421124   1.5740169  )
       236        O      tau( 236) = (   0.6097970   0.4413714   1.7163163  )
       237        O      tau( 237) = (   0.4788214   0.4352721   1.7472383  )
       238        O      tau( 238) = (   0.1395403   0.9630524   1.5257738  )
       239        O      tau( 239) = (   0.3787358   0.0784353   1.3203646  )
       240        O      tau( 240) = (   0.5839692   0.9685892   1.4551464  )
       241        O      tau( 241) = (   0.9110607   0.6557788   1.2003494  )
       242        O      tau( 242) = (   0.0686474   0.1043740   1.8437037  )
       243        O      tau( 243) = (   0.1460976   0.3999842   1.5060950  )
       244        O      tau( 244) = (   0.4166165   0.3782170   1.6358330  )
       245        O      tau( 245) = (   0.0075933   0.9084354   1.7265037  )
       246        O      tau( 246) = (   0.8482460   0.9888286   1.2074661  )
       247        O      tau( 247) = (   0.6787187   0.3475581   1.3906861  )
       248        O      tau( 248) = (   0.2793975   0.6318760   1.8700688  )
       249        O      tau( 249) = (   0.1753735   0.9662414   1.3957977  )
       250        O      tau( 250) = (   0.0079684   0.6039592   1.4520956  )
       251        O      tau( 251) = (   0.6799702   0.7916690   1.6137563  )
       252        O      tau( 252) = (   0.8228944   0.4963375   1.2716413  )
       253        O      tau( 253) = (   0.1652982   0.5553089   1.6491463  )
       254        O      tau( 254) = (   0.6527640   0.8346788   1.2935381  )
       255        O      tau( 255) = (   0.0358116   0.1810737   1.6422342  )
       256        O      tau( 256) = (   0.5638762   0.0484964   1.7892635  )
       257        O      tau( 257) = (   0.7314789   0.9670683   1.4359075  )
       258        O      tau( 258) = (   0.2559548   0.8899428   1.4535926  )
       259        O      tau( 259) = (   0.7774448   0.5773609   1.5598674  )
       260        O      tau( 260) = (   0.0868638   0.6515873   1.6288983  )
       261        O      tau( 261) = (   0.2614827   0.9212168   1.7891965  )
       262        O      tau( 262) = (   0.1954831   0.1735609   1.8664394  )
       263        O      tau( 263) = (   0.9906684   0.7948073   1.8435173  )
       264        O      tau( 264) = (   0.4575167   0.9955248   1.4051103  )
       265        O      tau( 265) = (   0.7735858   0.2011661   1.2118609  )
       266        O      tau( 266) = (   0.8814090   0.9281431   1.4499689  )
       267        O      tau( 267) = (   0.4072071   0.9256292   1.2771435  )
       268        O      tau( 268) = (   0.8399764   0.8937974   1.5751596  )
       269        O      tau( 269) = (   0.9802476   0.7272430   1.4739436  )
       270        O      tau( 270) = (   0.4029974   0.6353892   1.4077172  )
       271        O      tau( 271) = (   0.5236271   0.0940762   1.6637713  )
       272        O      tau( 272) = (   0.2291142   0.8566340   1.6031926  )
       273        O      tau( 273) = (   0.1369597   0.1529802   1.7410824  )
       274        O      tau( 274) = (   0.8956842   0.4684356   1.7728116  )
       275        O      tau( 275) = (   0.0304714   0.3296381   1.4668483  )
       276        O      tau( 276) = (   0.9261533   0.1126670   1.5937994  )
       277        O      tau( 277) = (   0.3196110   0.7473434   1.6269653  )
       278        O      tau( 278) = (   0.2346612   0.4755155   1.3381933  )
       279        O      tau( 279) = (   0.0309321   0.9618656   1.4299785  )
       280        O      tau( 280) = (   0.1026240   0.4047238   1.3770124  )
       281        O      tau( 281) = (   0.0996948   0.0720356   1.4419196  )
       282        O      tau( 282) = (   0.9796419   0.7336502   1.2951357  )
       283        O      tau( 283) = (   0.4798587   0.2721799   1.6719849  )
       284        O      tau( 284) = (   0.1447462   0.5042309   1.7791641  )
       285        O      tau( 285) = (   0.6584207   0.0850578   1.4744274  )
       286        O      tau( 286) = (   0.8447302   0.2856675   1.7867899  )
       287        O      tau( 287) = (   0.9236456   0.3532967   1.8933803  )
       288        O      tau( 288) = (   0.7131244   0.4260542   1.2089447  )
       289        O      tau( 289) = (   0.1815374   0.0351118   1.8104616  )
       290        O      tau( 290) = (   0.0329975   0.6097415   1.2681351  )
       291        O      tau( 291) = (   0.8998275   0.8951096   1.8045433  )
       292        O      tau( 292) = (   0.3016404   0.4593341   1.2337882  )
       293        O      tau( 293) = (   0.2631331   0.5633327   1.7490475  )
       294        O      tau( 294) = (   0.7023044   0.1539457   1.5910141  )
       295        O      tau( 295) = (   0.5450848   0.1349270   1.3303906  )
       296        O      tau( 296) = (   0.1632620   0.2443342   1.6379519  )
       297        O      tau( 297) = (   0.1916640   0.3894955   1.2601897  )
       298        O      tau( 298) = (   0.0615898   0.0043928   1.2718305  )
       299        O      tau( 299) = (   0.3967139   0.3875856   1.8762703  )
       300        O      tau( 300) = (   0.4846187   0.5410669   1.3666698  )
       301        O      tau( 301) = (   0.8186424   0.0168112   1.5820830  )
       302        O      tau( 302) = (   0.5974300   0.5762403   1.7036424  )
       303        O      tau( 303) = (   0.4323575   0.7667648   1.3386386  )
       304        O      tau( 304) = (   0.7719883   0.9374236   1.8028857  )
       305        O      tau( 305) = (   0.7672182   0.1900179   1.6976508  )
       306        O      tau( 306) = (   0.8994379   0.0650389   1.4672678  )
       307        O      tau( 307) = (   0.4462121   0.7426137   1.4731770  )
       308        O      tau( 308) = (   0.9211726   0.3961581   1.6533343  )
       309        O      tau( 309) = (   0.2420202   0.2200105   1.5251544  )
       310        O      tau( 310) = (   0.8842963   0.6436934   1.4589679  )
       311        O      tau( 311) = (   0.6482991   0.6785877   1.2330670  )
       312        O      tau( 312) = (   0.4832983   0.6325017   1.6039613  )
       313        O      tau( 313) = (   0.7361349   0.0571749   1.8732737  )
       314        O      tau( 314) = (   0.6649925   0.8590630   1.7336776  )
       315        O      tau( 315) = (   0.9130296   0.2721061   1.4159943  )
       316        O      tau( 316) = (   0.6511009   0.5989696   1.3506902  )
       317        O      tau( 317) = (   0.8131240   0.0898692   1.2825970  )
       318        O      tau( 318) = (   0.6524595   0.1336951   1.7108949  )
       319        O      tau( 319) = (   0.6784211   0.5695802   1.4690337  )
       320        O      tau( 320) = (   0.9018920   0.2183548   1.6834522  )
       321        O      tau( 321) = (   0.9678130   0.0358255   1.7940055  )
       322        O      tau( 322) = (   0.8368182   0.5391156   1.6776043  )
       323        O      tau( 323) = (   0.7668768   0.6856661   1.8697035  )
       324        O      tau( 324) = (   0.1531671   0.9301796   1.8945654  )
       325        O      tau( 325) = (   0.2178402   0.7542098   1.5177838  )
       326        O      tau( 326) = (   0.3614324   0.0782581   1.4600024  )
       327        O      tau( 327) = (   0.4053368   0.0766386   1.5793453  )
       328        O      tau( 328) = (   0.3320739   0.8564650   1.8828345  )
       329        O      tau( 329) = (   0.0914304   0.8126101   1.4681485  )
       330        O      tau( 330) = (   0.2416337   0.7445048   1.2588964  )
       331        O      tau( 331) = (   0.8232583   0.9617889   1.3373563  )
       332        O      tau( 332) = (   0.0224173   0.1103921   1.3331986  )
       333        O      tau( 333) = (   0.0827261   0.7743688   1.7158336  )
       334        O      tau( 334) = (   0.3058372   0.3697607   1.3216954  )
       335        O      tau( 335) = (   0.6940744   0.4843818   1.3763524  )
       336        O      tau( 336) = (   0.0505520   0.3569640   1.2588409  )
       337        O      tau( 337) = (   0.6956442   0.5556100   1.2255199  )
       338        O      tau( 338) = (   0.9205918   0.8444316   1.2442634  )
       339        Al     tau( 339) = (   0.9474166   0.9984982   1.4171699  )
       340        Al     tau( 340) = (   0.7317137   0.2651324   1.2660316  )
       341        C      tau( 341) = (   0.5691377   0.4617851   2.5658197  )
       342        C      tau( 342) = (   0.4944784   0.4516561   2.5673036  )
       343        C      tau( 343) = (   0.6140474   0.4021687   2.5611935  )
       344        C      tau( 344) = (   0.4669239   0.3822075   2.5641332  )
       345        C      tau( 345) = (   0.5966869   0.5312330   2.5689902  )
       346        C      tau( 346) = (   0.4495738   0.5112736   2.5719244  )
       347        C      tau( 347) = (   0.5857528   0.3335483   2.5580799  )
       348        C      tau( 348) = (   0.5123336   0.3235869   2.5595496  )
       349        C      tau( 349) = (   0.5512823   0.5898546   2.5735684  )
       350        C      tau( 350) = (   0.4778681   0.5798945   2.5750274  )
       351        H      tau( 351) = (   0.6715984   0.4086951   2.5599676  )
       352        H      tau( 352) = (   0.4097061   0.3731626   2.5652018  )
       353        H      tau( 353) = (   0.6539041   0.5402829   2.5679272  )
       354        H      tau( 354) = (   0.3920120   0.5047463   2.5731399  )
       355        H      tau( 355) = (   0.6210717   0.2878911   2.5545154  )
       356        H      tau( 356) = (   0.4903398   0.2701488   2.5571226  )
       357        H      tau( 357) = (   0.5732767   0.6432877   2.5759898  )
       358        H      tau( 358) = (   0.4425484   0.6255570   2.5785922  )

     number of k points=     1  Gaussian smearing, width (Ry)=  0.0100
                       cart. coord. in units 2pi/alat
        k(    1) = (   0.0000000   0.0000000   0.0000000), wk =   2.0000000

     Dense  grid: 15943719 G-vectors     FFT dimensions: ( 216, 216, 675)

     Smooth grid: 13361281 G-vectors     FFT dimensions: ( 216, 216, 625)

     Estimated max dynamical RAM per process >       4.14 GB

     Estimated total dynamical RAM >     331.13 GB

     Check: negative core charge=   -0.000001

     Initial potential from superposition of free atoms

     starting charge    1871.8703, renormalised to    1872.0000

     negative rho (up, down):  4.170E-02 0.000E+00
     Starting wfcs are 1419 randomized atomic wfcs
     Checking if some PAW data can be deallocated... 

     total cpu time spent up to now is      149.0 secs

     per-process dynamical memory:  1754.0 Mb

     Self-consistent Calculation

     iteration #  1     ecut=    80.00 Ry     beta= 0.10
     Davidson diagonalization with overlap
     ethr =  1.00E-02,  avg # of iterations =  3.0

     negative rho (up, down):  4.376E-02 0.000E+00

     total cpu time spent up to now is      636.2 secs

     total energy              =  -11693.36961633 Ry
     estimated scf accuracy    <     115.61179257 Ry

     iteration #  2     ecut=    80.00 Ry     beta= 0.10
     Davidson diagonalization with overlap
     ethr =  6.18E-03,  avg # of iterations =  1.0

     negative rho (up, down):  4.548E-02 0.000E+00

     total cpu time spent up to now is      921.5 secs

     total energy              =  -11688.11155794 Ry
     estimated scf accuracy    <      84.89205457 Ry

     iteration #  3     ecut=    80.00 Ry     beta= 0.10
     Davidson diagonalization with overlap
     ethr =  4.53E-03,  avg # of iterations =  1.0

     negative rho (up, down):  4.732E-02 0.000E+00

     total cpu time spent up to now is     1206.3 secs

     total energy              =  -11681.50046384 Ry
     estimated scf accuracy    <      59.18292345 Ry

     iteration #  4     ecut=    80.00 Ry     beta= 0.10
     Davidson diagonalization with overlap
     ethr =  3.16E-03,  avg # of iterations =  2.0

     negative rho (up, down):  4.842E-02 0.000E+00

     total cpu time spent up to now is     1525.7 secs

     total energy              =  -11682.82137204 Ry
     estimated scf accuracy    <      60.37361495 Ry

     iteration #  5     ecut=    80.00 Ry     beta= 0.10
     Davidson diagonalization with overlap
     ethr =  3.16E-03,  avg # of iterations =  1.0

     negative rho (up, down):  4.954E-02 0.000E+00

     total cpu time spent up to now is     1809.2 secs

     total energy              =  -11682.20149747 Ry
     estimated scf accuracy    <      39.45724517 Ry

     iteration #  6     ecut=    80.00 Ry     beta= 0.10
     Davidson diagonalization with overlap
     ethr =  2.11E-03,  avg # of iterations =  2.0

     negative rho (up, down):  5.040E-02 0.000E+00

     total cpu time spent up to now is     2126.1 secs

     total energy              =  -11682.42894375 Ry
     estimated scf accuracy    <      26.77478185 Ry

     iteration #  7     ecut=    80.00 Ry     beta= 0.10
     Davidson diagonalization with overlap
     ethr =  1.43E-03,  avg # of iterations =  2.0

     negative rho (up, down):  5.122E-02 0.000E+00

     total cpu time spent up to now is     2444.3 secs

     total energy              =  -11682.17697916 Ry
     estimated scf accuracy    <      34.73606523 Ry

     iteration #  8     ecut=    80.00 Ry     beta= 0.10
     Davidson diagonalization with overlap
     ethr =  1.43E-03,  avg # of iterations =  2.0

     negative rho (up, down):  5.180E-02 0.000E+00

     total cpu time spent up to now is     2761.1 secs

     total energy              =  -11682.32695691 Ry
     estimated scf accuracy    <      19.55800669 Ry

     iteration #  9     ecut=    80.00 Ry     beta= 0.10
     Davidson diagonalization with overlap
     ethr =  1.04E-03,  avg # of iterations =  2.0

     negative rho (up, down):  5.239E-02 0.000E+00

     total cpu time spent up to now is     3078.3 secs

     total energy              =  -11682.16677684 Ry
     estimated scf accuracy    <      18.58512078 Ry

     iteration # 10     ecut=    80.00 Ry     beta= 0.10
     Davidson diagonalization with overlap
     ethr =  9.93E-04,  avg # of iterations =  1.0

     negative rho (up, down):  5.291E-02 0.000E+00

     total cpu time spent up to now is     3361.6 secs

     total energy              =  -11682.15181033 Ry
     estimated scf accuracy    <      11.97909571 Ry

     iteration # 11     ecut=    80.00 Ry     beta= 0.10
     Davidson diagonalization with overlap
     ethr =  6.40E-04,  avg # of iterations =  4.0

     negative rho (up, down):  5.326E-02 0.000E+00

     total cpu time spent up to now is     3683.6 secs

     total energy              =  -11682.02905942 Ry
     estimated scf accuracy    <      23.57593024 Ry

     iteration # 12     ecut=    80.00 Ry     beta= 0.10
     Davidson diagonalization with overlap
     ethr =  6.40E-04,  avg # of iterations =  2.0

     negative rho (up, down):  5.356E-02 0.000E+00

     total cpu time spent up to now is     4001.8 secs

     total energy              =  -11682.31269281 Ry
     estimated scf accuracy    <       5.19014363 Ry

     iteration # 13     ecut=    80.00 Ry     beta= 0.10
     Davidson diagonalization with overlap
     ethr =  2.77E-04,  avg # of iterations = 17.0

     negative rho (up, down):  5.395E-02 0.000E+00

     total cpu time spent up to now is     4450.6 secs

     total energy              =  -11682.23509198 Ry
     estimated scf accuracy    <       6.68180063 Ry

     iteration # 14     ecut=    80.00 Ry     beta= 0.10
     Davidson diagonalization with overlap
     ethr =  2.77E-04,  avg # of iterations =  1.0

     negative rho (up, down):  5.449E-02 0.000E+00

     total cpu time spent up to now is     4734.2 secs

     total energy              =  -11682.08306799 Ry
     estimated scf accuracy    <       4.97467890 Ry

     iteration # 15     ecut=    80.00 Ry     beta= 0.10
     Davidson diagonalization with overlap
     ethr =  2.66E-04,  avg # of iterations =  1.0

     negative rho (up, down):  5.450E-02 0.000E+00

     total cpu time spent up to now is     5018.1 secs

     total energy              =  -11681.93299902 Ry
     estimated scf accuracy    <      17.65718852 Ry

     iteration # 16     ecut=    80.00 Ry     beta= 0.10
     Davidson diagonalization with overlap
     ethr =  2.66E-04,  avg # of iterations =  2.0

     negative rho (up, down):  5.481E-02 0.000E+00

     total cpu time spent up to now is     5335.9 secs

     total energy              =  -11682.15686337 Ry
     estimated scf accuracy    <       3.91577291 Ry

     iteration # 17     ecut=    80.00 Ry     beta= 0.10
     Davidson diagonalization with overlap
     ethr =  2.09E-04,  avg # of iterations =  1.0

     negative rho (up, down):  5.547E-02 0.000E+00

     total cpu time spent up to now is     5619.9 secs

     total energy              =  -11682.07627785 Ry
     estimated scf accuracy    <       2.86281594 Ry

     iteration # 18     ecut=    80.00 Ry     beta= 0.10
     Davidson diagonalization with overlap
     ethr =  1.53E-04,  avg # of iterations =  2.0

     negative rho (up, down):  5.540E-02 0.000E+00

     total cpu time spent up to now is     5938.0 secs

     total energy              =  -11681.94631465 Ry
     estimated scf accuracy    <       9.87166557 Ry

     iteration # 19     ecut=    80.00 Ry     beta= 0.10
     Davidson diagonalization with overlap
     ethr =  1.53E-04,  avg # of iterations =  2.0

     negative rho (up, down):  5.563E-02 0.000E+00

     total cpu time spent up to now is     6256.5 secs

     total energy              =  -11682.12630766 Ry
     estimated scf accuracy    <       2.45990693 Ry

     iteration # 20     ecut=    80.00 Ry     beta= 0.10
     Davidson diagonalization with overlap
     ethr =  1.31E-04,  avg # of iterations =  1.0

     negative rho (up, down):  5.604E-02 0.000E+00

     total cpu time spent up to now is     6540.4 secs

     total energy              =  -11682.08504137 Ry
     estimated scf accuracy    <       2.37279846 Ry

     iteration # 21     ecut=    80.00 Ry     beta= 0.10
     Davidson diagonalization with overlap
     ethr =  1.27E-04,  avg # of iterations =  1.0

     negative rho (up, down):  5.615E-02 0.000E+00

     total cpu time spent up to now is     6824.5 secs

     total energy              =  -11682.01319692 Ry
     estimated scf accuracy    <       7.93368489 Ry

     iteration # 22     ecut=    80.00 Ry     beta= 0.10
     Davidson diagonalization with overlap
     ethr =  1.27E-04,  avg # of iterations =  1.0

     negative rho (up, down):  5.642E-02 0.000E+00

     total cpu time spent up to now is     7108.1 secs

     total energy              =  -11682.04005707 Ry
     estimated scf accuracy    <      10.86257618 Ry

     iteration # 23     ecut=    80.00 Ry     beta= 0.10
     Davidson diagonalization with overlap
     ethr =  1.27E-04,  avg # of iterations =  1.0

     negative rho (up, down):  5.636E-02 0.000E+00

     total cpu time spent up to now is     7392.3 secs

     total energy              =  -11682.06020404 Ry
     estimated scf accuracy    <       4.47257514 Ry

     iteration # 24     ecut=    80.00 Ry     beta= 0.10
     Davidson diagonalization with overlap
     ethr =  1.27E-04,  avg # of iterations =  1.0

     negative rho (up, down):  5.683E-02 0.000E+00

     total cpu time spent up to now is     7675.7 secs

     total energy              =  -11682.06030227 Ry
     estimated scf accuracy    <       4.59848759 Ry

     iteration # 25     ecut=    80.00 Ry     beta= 0.10
     Davidson diagonalization with overlap
     ethr =  1.27E-04,  avg # of iterations =  1.0

     negative rho (up, down):  5.699E-02 0.000E+00

     total cpu time spent up to now is     7960.2 secs

     total energy              =  -11682.08461912 Ry
     estimated scf accuracy    <       2.21884984 Ry

     iteration # 26     ecut=    80.00 Ry     beta= 0.10
     Davidson diagonalization with overlap
     ethr =  1.19E-04,  avg # of iterations =  1.0

     negative rho (up, down):  5.712E-02 0.000E+00

     total cpu time spent up to now is     8245.0 secs

     total energy              =  -11682.08263979 Ry
     estimated scf accuracy    <       1.28846054 Ry

     iteration # 27     ecut=    80.00 Ry     beta= 0.10
     Davidson diagonalization with overlap
     ethr =  6.88E-05,  avg # of iterations =  1.0

     negative rho (up, down):  5.774E-02 0.000E+00

     total cpu time spent up to now is     8528.8 secs

     total energy              =  -11682.06630448 Ry
     estimated scf accuracy    <       2.89720412 Ry

     iteration # 28     ecut=    80.00 Ry     beta= 0.10
     Davidson diagonalization with overlap
     ethr =  6.88E-05,  avg # of iterations =  1.0

     negative rho (up, down):  5.722E-02 0.000E+00

     total cpu time spent up to now is     8812.4 secs

     total energy              =  -11682.00898681 Ry
     estimated scf accuracy    <       5.38135075 Ry

     iteration # 29     ecut=    80.00 Ry     beta= 0.10
     Davidson diagonalization with overlap
     ethr =  6.88E-05,  avg # of iterations =  1.0

     negative rho (up, down):  5.737E-02 0.000E+00

     total cpu time spent up to now is     9096.8 secs

     total energy              =  -11682.07787500 Ry
     estimated scf accuracy    <       4.99402767 Ry

     iteration # 30     ecut=    80.00 Ry     beta= 0.10
     Davidson diagonalization with overlap
     ethr =  6.88E-05,  avg # of iterations =  1.0

     negative rho (up, down):  5.749E-02 0.000E+00

     total cpu time spent up to now is     9381.3 secs

     total energy              =  -11682.09702055 Ry
     estimated scf accuracy    <       1.16929582 Ry

     iteration # 31     ecut=    80.00 Ry     beta= 0.10
     Davidson diagonalization with overlap
     ethr =  6.25E-05,  avg # of iterations =  1.0

     negative rho (up, down):  5.771E-02 0.000E+00

     total cpu time spent up to now is     9665.2 secs

     total energy              =  -11682.10142486 Ry
     estimated scf accuracy    <       0.59848614 Ry

     iteration # 32     ecut=    80.00 Ry     beta= 0.10
     Davidson diagonalization with overlap
     ethr =  3.20E-05,  avg # of iterations =  1.0

     negative rho (up, down):  5.780E-02 0.000E+00

     total cpu time spent up to now is     9949.0 secs

     total energy              =  -11682.08834414 Ry
     estimated scf accuracy    <       2.19922553 Ry

     iteration # 33     ecut=    80.00 Ry     beta= 0.10
     Davidson diagonalization with overlap
     ethr =  3.20E-05,  avg # of iterations =  1.0

     negative rho (up, down):  5.778E-02 0.000E+00

     total cpu time spent up to now is    10232.8 secs

     total energy              =  -11682.09816847 Ry
     estimated scf accuracy    <       1.06623660 Ry

     iteration # 34     ecut=    80.00 Ry     beta= 0.10
     Davidson diagonalization with overlap
     ethr =  3.20E-05,  avg # of iterations =  1.0

     negative rho (up, down):  5.814E-02 0.000E+00

     total cpu time spent up to now is    10516.7 secs

     total energy              =  -11682.10208188 Ry
     estimated scf accuracy    <       0.48836145 Ry

     iteration # 35     ecut=    80.00 Ry     beta= 0.10
     Davidson diagonalization with overlap
     ethr =  2.61E-05,  avg # of iterations =  1.0

     negative rho (up, down):  5.802E-02 0.000E+00

     total cpu time spent up to now is    10806.1 secs

     total energy              =  -11682.08846581 Ry
     estimated scf accuracy    <       1.17393697 Ry

     iteration # 36     ecut=    80.00 Ry     beta= 0.10
     Davidson diagonalization with overlap
     ethr =  2.61E-05,  avg # of iterations =  1.0

     negative rho (up, down):  5.821E-02 0.000E+00

     total cpu time spent up to now is    11095.7 secs

     total energy              =  -11682.10063849 Ry
     estimated scf accuracy    <       0.60026559 Ry

     iteration # 37     ecut=    80.00 Ry     beta= 0.10
     Davidson diagonalization with overlap
     ethr =  2.61E-05,  avg # of iterations =  1.0

     negative rho (up, down):  5.887E-02 0.000E+00

     total cpu time spent up to now is    11387.5 secs

     total energy              =  -11682.09096765 Ry
     estimated scf accuracy    <       1.18552466 Ry

     iteration # 38     ecut=    80.00 Ry     beta= 0.10
     Davidson diagonalization with overlap
     ethr =  2.61E-05,  avg # of iterations = 20.0

     negative rho (up, down):  5.873E-02 0.000E+00

     total cpu time spent up to now is    11797.8 secs

     total energy              =  -11682.06098054 Ry
     estimated scf accuracy    <       4.79904349 Ry

     iteration # 39     ecut=    80.00 Ry     beta= 0.10
     Davidson diagonalization with overlap
     ethr =  2.61E-05,  avg # of iterations =  1.0

     negative rho (up, down):  5.829E-02 0.000E+00

     total cpu time spent up to now is    12081.4 secs

     total energy              =  -11682.07009150 Ry
     estimated scf accuracy    <       4.04252359 Ry

     iteration # 40     ecut=    80.00 Ry     beta= 0.10
     Davidson diagonalization with overlap
     ethr =  2.61E-05,  avg # of iterations =  1.0

     negative rho (up, down):  5.840E-02 0.000E+00

     total cpu time spent up to now is    12364.4 secs

     total energy              =  -11682.09844647 Ry
     estimated scf accuracy    <       0.85031602 Ry

     iteration # 41     ecut=    80.00 Ry     beta= 0.10
     Davidson diagonalization with overlap
     ethr =  2.61E-05,  avg # of iterations =  1.0

     negative rho (up, down):  5.864E-02 0.000E+00

     total cpu time spent up to now is    12648.1 secs

     total energy              =  -11682.10218020 Ry
     estimated scf accuracy    <       0.54592372 Ry

     iteration # 42     ecut=    80.00 Ry     beta= 0.10
     Davidson diagonalization with overlap
     ethr =  2.61E-05,  avg # of iterations =  1.0

     negative rho (up, down):  5.871E-02 0.000E+00

     total cpu time spent up to now is    12931.1 secs

     total energy              =  -11682.10094759 Ry
     estimated scf accuracy    <       0.54213488 Ry

     iteration # 43     ecut=    80.00 Ry     beta= 0.10
     Davidson diagonalization with overlap
     ethr =  2.61E-05,  avg # of iterations =  1.0

     negative rho (up, down):  5.857E-02 0.000E+00

     total cpu time spent up to now is    13215.1 secs

     total energy              =  -11682.09725212 Ry
     estimated scf accuracy    <       1.26495288 Ry

     iteration # 44     ecut=    80.00 Ry     beta= 0.10
     Davidson diagonalization with overlap
     ethr =  2.61E-05,  avg # of iterations =  1.0

     negative rho (up, down):  5.880E-02 0.000E+00

     total cpu time spent up to now is    13499.0 secs

     total energy              =  -11682.09951392 Ry
     estimated scf accuracy    <       0.82194104 Ry

     iteration # 45     ecut=    80.00 Ry     beta= 0.10
     Davidson diagonalization with overlap
     ethr =  2.61E-05,  avg # of iterations =  1.0

     negative rho (up, down):  5.876E-02 0.000E+00

     total cpu time spent up to now is    13783.7 secs

     total energy              =  -11682.09731429 Ry
     estimated scf accuracy    <       0.85184890 Ry

     iteration # 46     ecut=    80.00 Ry     beta= 0.10
     Davidson diagonalization with overlap
     ethr =  2.61E-05,  avg # of iterations =  1.0

     negative rho (up, down):  5.881E-02 0.000E+00

     total cpu time spent up to now is    14066.6 secs

     total energy              =  -11682.10402354 Ry
     estimated scf accuracy    <       0.32426420 Ry

     iteration # 47     ecut=    80.00 Ry     beta= 0.10
     Davidson diagonalization with overlap
     ethr =  1.73E-05,  avg # of iterations =  1.0

     negative rho (up, down):  5.904E-02 0.000E+00

     total cpu time spent up to now is    14350.6 secs

     total energy              =  -11682.10539297 Ry
     estimated scf accuracy    <       0.08634786 Ry

     iteration # 48     ecut=    80.00 Ry     beta= 0.10
     Davidson diagonalization with overlap
     ethr =  4.61E-06,  avg # of iterations =  1.0

     negative rho (up, down):  5.904E-02 0.000E+00

     total cpu time spent up to now is    14634.0 secs

     total energy              =  -11682.09837643 Ry
     estimated scf accuracy    <       1.07282792 Ry

     iteration # 49     ecut=    80.00 Ry     beta= 0.10
     Davidson diagonalization with overlap
     ethr =  4.61E-06,  avg # of iterations =  1.0

     negative rho (up, down):  5.897E-02 0.000E+00

     total cpu time spent up to now is    14917.4 secs

     total energy              =  -11682.10391275 Ry
     estimated scf accuracy    <       0.17146917 Ry

     iteration # 50     ecut=    80.00 Ry     beta= 0.10
     Davidson diagonalization with overlap
     ethr =  4.61E-06,  avg # of iterations =  1.0

     negative rho (up, down):  5.895E-02 0.000E+00

     total cpu time spent up to now is    15200.7 secs

     total energy              =  -11682.09841258 Ry
     estimated scf accuracy    <       1.08545343 Ry

     iteration # 51     ecut=    80.00 Ry     beta= 0.10
     Davidson diagonalization with overlap
     ethr =  4.61E-06,  avg # of iterations =  1.0

     negative rho (up, down):  5.904E-02 0.000E+00

     total cpu time spent up to now is    15484.1 secs

     total energy              =  -11682.10399549 Ry
     estimated scf accuracy    <       0.43008263 Ry

     iteration # 52     ecut=    80.00 Ry     beta= 0.10
     Davidson diagonalization with overlap
     ethr =  4.61E-06,  avg # of iterations =  1.0

     negative rho (up, down):  5.910E-02 0.000E+00

     total cpu time spent up to now is    15767.8 secs

     total energy              =  -11682.10709136 Ry
     estimated scf accuracy    <       0.08251954 Ry

     iteration # 53     ecut=    80.00 Ry     beta= 0.10
     Davidson diagonalization with overlap
     ethr =  4.41E-06,  avg # of iterations =  1.0

     negative rho (up, down):  5.910E-02 0.000E+00

     total cpu time spent up to now is    16051.7 secs

     total energy              =  -11682.10635855 Ry
     estimated scf accuracy    <       0.12709148 Ry

     iteration # 54     ecut=    80.00 Ry     beta= 0.10
     Davidson diagonalization with overlap
     ethr =  4.41E-06,  avg # of iterations =  1.0

     negative rho (up, down):  5.919E-02 0.000E+00

     total cpu time spent up to now is    16336.4 secs

     total energy              =  -11682.10583344 Ry
     estimated scf accuracy    <       0.28897579 Ry

     iteration # 55     ecut=    80.00 Ry     beta= 0.10
     Davidson diagonalization with overlap
     ethr =  4.41E-06,  avg # of iterations =  1.0

     negative rho (up, down):  5.920E-02 0.000E+00

     total cpu time spent up to now is    16621.1 secs

     total energy              =  -11682.10703411 Ry
     estimated scf accuracy    <       0.13828186 Ry

     iteration # 56     ecut=    80.00 Ry     beta= 0.10
     Davidson diagonalization with overlap
     ethr =  4.41E-06,  avg # of iterations =  1.0

     negative rho (up, down):  5.916E-02 0.000E+00

     total cpu time spent up to now is    16904.5 secs

     total energy              =  -11682.10702824 Ry
     estimated scf accuracy    <       0.10205336 Ry

     iteration # 57     ecut=    80.00 Ry     beta= 0.10
     Davidson diagonalization with overlap
     ethr =  4.41E-06,  avg # of iterations =  1.0

     negative rho (up, down):  5.928E-02 0.000E+00

     total cpu time spent up to now is    17188.7 secs

     total energy              =  -11682.10823261 Ry
     estimated scf accuracy    <       0.03777662 Ry

     iteration # 58     ecut=    80.00 Ry     beta= 0.10
     Davidson diagonalization with overlap
     ethr =  2.02E-06,  avg # of iterations =  1.0

     negative rho (up, down):  5.928E-02 0.000E+00

     total cpu time spent up to now is    17472.5 secs

     total energy              =  -11682.10799692 Ry
     estimated scf accuracy    <       0.05360099 Ry

     iteration # 59     ecut=    80.00 Ry     beta= 0.10
     Davidson diagonalization with overlap
     ethr =  2.02E-06,  avg # of iterations =  1.0

     negative rho (up, down):  5.933E-02 0.000E+00

     total cpu time spent up to now is    17756.0 secs

     total energy              =  -11682.10830186 Ry
     estimated scf accuracy    <       0.03962604 Ry

     iteration # 60     ecut=    80.00 Ry     beta= 0.10
     Davidson diagonalization with overlap
     ethr =  2.02E-06,  avg # of iterations =  1.0

     negative rho (up, down):  5.934E-02 0.000E+00

     total cpu time spent up to now is    18039.1 secs

     total energy              =  -11682.10702275 Ry
     estimated scf accuracy    <       0.22840067 Ry

     iteration # 61     ecut=    80.00 Ry     beta= 0.10
     Davidson diagonalization with overlap
     ethr =  2.02E-06,  avg # of iterations =  1.0

     negative rho (up, down):  5.933E-02 0.000E+00

     total cpu time spent up to now is    18322.6 secs

     total energy              =  -11682.10708177 Ry
     estimated scf accuracy    <       0.16524792 Ry

     iteration # 62     ecut=    80.00 Ry     beta= 0.10
     Davidson diagonalization with overlap
     ethr =  2.02E-06,  avg # of iterations =  1.0

     negative rho (up, down):  5.935E-02 0.000E+00

     total cpu time spent up to now is    18605.8 secs

     total energy              =  -11682.10804496 Ry
     estimated scf accuracy    <       0.06439097 Ry

     iteration # 63     ecut=    80.00 Ry     beta= 0.10
     Davidson diagonalization with overlap
     ethr =  2.02E-06,  avg # of iterations =  1.0

     negative rho (up, down):  5.938E-02 0.000E+00

     total cpu time spent up to now is    18889.3 secs

     total energy              =  -11682.10843462 Ry
     estimated scf accuracy    <       0.06094660 Ry

     iteration # 64     ecut=    80.00 Ry     beta= 0.10
     Davidson diagonalization with overlap
     ethr =  2.02E-06,  avg # of iterations =  1.0

     negative rho (up, down):  5.943E-02 0.000E+00

     total cpu time spent up to now is    19172.7 secs

     total energy              =  -11682.10846171 Ry
     estimated scf accuracy    <       0.08238212 Ry

     iteration # 65     ecut=    80.00 Ry     beta= 0.10
     Davidson diagonalization with overlap
     ethr =  2.02E-06,  avg # of iterations =  1.0

     negative rho (up, down):  5.942E-02 0.000E+00

     total cpu time spent up to now is    19456.7 secs

     total energy              =  -11682.10859472 Ry
     estimated scf accuracy    <       0.05571366 Ry

     iteration # 66     ecut=    80.00 Ry     beta= 0.10
     Davidson diagonalization with overlap
     ethr =  2.02E-06,  avg # of iterations =  1.0

     negative rho (up, down):  5.939E-02 0.000E+00

     total cpu time spent up to now is    19740.9 secs

     total energy              =  -11682.10848528 Ry
     estimated scf accuracy    <       0.04624743 Ry

     iteration # 67     ecut=    80.00 Ry     beta= 0.10
     Davidson diagonalization with overlap
     ethr =  2.02E-06,  avg # of iterations =  1.0

     negative rho (up, down):  5.947E-02 0.000E+00

     total cpu time spent up to now is    20024.6 secs

     total energy              =  -11682.10911046 Ry
     estimated scf accuracy    <       0.01794327 Ry

     iteration # 68     ecut=    80.00 Ry     beta= 0.10
     Davidson diagonalization with overlap
     ethr =  9.59E-07,  avg # of iterations =  1.0

     negative rho (up, down):  5.945E-02 0.000E+00

     total cpu time spent up to now is    20307.5 secs

     total energy              =  -11682.10889763 Ry
     estimated scf accuracy    <       0.01876619 Ry

     iteration # 69     ecut=    80.00 Ry     beta= 0.10
     Davidson diagonalization with overlap
     ethr =  9.59E-07,  avg # of iterations =  1.0

     negative rho (up, down):  5.948E-02 0.000E+00

     total cpu time spent up to now is    20590.7 secs

     total energy              =  -11682.10913160 Ry
     estimated scf accuracy    <       0.01865808 Ry

     iteration # 70     ecut=    80.00 Ry     beta= 0.10
     Davidson diagonalization with overlap
     ethr =  9.59E-07,  avg # of iterations =  1.0

     negative rho (up, down):  5.954E-02 0.000E+00

     total cpu time spent up to now is    20874.8 secs

     total energy              =  -11682.10922836 Ry
     estimated scf accuracy    <       0.02011499 Ry

     iteration # 71     ecut=    80.00 Ry     beta= 0.10
     Davidson diagonalization with overlap
     ethr =  9.59E-07,  avg # of iterations =  1.0

     negative rho (up, down):  5.954E-02 0.000E+00

     total cpu time spent up to now is    21158.8 secs

     total energy              =  -11682.10897794 Ry
     estimated scf accuracy    <       0.03848480 Ry

     iteration # 72     ecut=    80.00 Ry     beta= 0.10
     Davidson diagonalization with overlap
     ethr =  9.59E-07,  avg # of iterations =  1.0

     negative rho (up, down):  5.953E-02 0.000E+00

     total cpu time spent up to now is    21442.6 secs

     total energy              =  -11682.10903143 Ry
     estimated scf accuracy    <       0.02787161 Ry

     iteration # 73     ecut=    80.00 Ry     beta= 0.10
     Davidson diagonalization with overlap
     ethr =  9.59E-07,  avg # of iterations =  1.0

     negative rho (up, down):  5.957E-02 0.000E+00

     total cpu time spent up to now is    21726.4 secs

     total energy              =  -11682.10914104 Ry
     estimated scf accuracy    <       0.04306232 Ry

     iteration # 74     ecut=    80.00 Ry     beta= 0.10
     Davidson diagonalization with overlap
     ethr =  9.59E-07,  avg # of iterations =  1.0

     negative rho (up, down):  5.959E-02 0.000E+00

     total cpu time spent up to now is    22009.8 secs

     total energy              =  -11682.10921419 Ry
     estimated scf accuracy    <       0.03417769 Ry

     iteration # 75     ecut=    80.00 Ry     beta= 0.10
     Davidson diagonalization with overlap
     ethr =  9.59E-07,  avg # of iterations =  1.0

     negative rho (up, down):  5.960E-02 0.000E+00

     total cpu time spent up to now is    22293.5 secs

     total energy              =  -11682.10928484 Ry
     estimated scf accuracy    <       0.02946446 Ry

     iteration # 76     ecut=    80.00 Ry     beta= 0.10
     Davidson diagonalization with overlap
     ethr =  9.59E-07,  avg # of iterations =  1.0

     negative rho (up, down):  5.955E-02 0.000E+00

     total cpu time spent up to now is    22577.1 secs

     total energy              =  -11682.10904426 Ry
     estimated scf accuracy    <       0.03437869 Ry

     iteration # 77     ecut=    80.00 Ry     beta= 0.10
     Davidson diagonalization with overlap
     ethr =  9.59E-07,  avg # of iterations =  1.0

     negative rho (up, down):  5.962E-02 0.000E+00

     total cpu time spent up to now is    22860.5 secs

     total energy              =  -11682.10929630 Ry
     estimated scf accuracy    <       0.03333661 Ry

     iteration # 78     ecut=    80.00 Ry     beta= 0.10
     Davidson diagonalization with overlap
     ethr =  9.59E-07,  avg # of iterations =  1.0

     negative rho (up, down):  5.960E-02 0.000E+00

     total cpu time spent up to now is    23143.4 secs

     total energy              =  -11682.10937113 Ry
     estimated scf accuracy    <       0.01551727 Ry

     iteration # 79     ecut=    80.00 Ry     beta= 0.10
     Davidson diagonalization with overlap
     ethr =  8.29E-07,  avg # of iterations =  1.0

     negative rho (up, down):  5.962E-02 0.000E+00

     total cpu time spent up to now is    23427.5 secs

     total energy              =  -11682.10948808 Ry
     estimated scf accuracy    <       0.01475706 Ry

     iteration # 80     ecut=    80.00 Ry     beta= 0.10
     Davidson diagonalization with overlap
     ethr =  7.88E-07,  avg # of iterations =  1.0

     negative rho (up, down):  5.965E-02 0.000E+00

     total cpu time spent up to now is    23710.8 secs

     total energy              =  -11682.10961807 Ry
     estimated scf accuracy    <       0.00405910 Ry

     iteration # 81     ecut=    80.00 Ry     beta= 0.10
     Davidson diagonalization with overlap
     ethr =  2.17E-07,  avg # of iterations =  1.0

     negative rho (up, down):  5.966E-02 0.000E+00

     total cpu time spent up to now is    23993.8 secs

     total energy              =  -11682.10958895 Ry
     estimated scf accuracy    <       0.00684538 Ry

     iteration # 82     ecut=    80.00 Ry     beta= 0.10
     Davidson diagonalization with overlap
     ethr =  2.17E-07,  avg # of iterations =  1.0

     negative rho (up, down):  5.966E-02 0.000E+00

     total cpu time spent up to now is    24278.2 secs

     total energy              =  -11682.10956160 Ry
     estimated scf accuracy    <       0.00879455 Ry

     iteration # 83     ecut=    80.00 Ry     beta= 0.10
     Davidson diagonalization with overlap
     ethr =  2.17E-07,  avg # of iterations =  1.0

     negative rho (up, down):  5.968E-02 0.000E+00

     total cpu time spent up to now is    24562.0 secs

     total energy              =  -11682.10963385 Ry
     estimated scf accuracy    <       0.00940266 Ry

     iteration # 84     ecut=    80.00 Ry     beta= 0.10
     Davidson diagonalization with overlap
     ethr =  2.17E-07,  avg # of iterations =  1.0

     negative rho (up, down):  5.969E-02 0.000E+00

     total cpu time spent up to now is    24847.1 secs

     total energy              =  -11682.10966078 Ry
     estimated scf accuracy    <       0.00706818 Ry

     iteration # 85     ecut=    80.00 Ry     beta= 0.10
     Davidson diagonalization with overlap
     ethr =  2.17E-07,  avg # of iterations =  1.0

     negative rho (up, down):  5.970E-02 0.000E+00

     total cpu time spent up to now is    25130.8 secs

     total energy              =  -11682.10965801 Ry
     estimated scf accuracy    <       0.01114781 Ry

     iteration # 86     ecut=    80.00 Ry     beta= 0.10
     Davidson diagonalization with overlap
     ethr =  2.17E-07,  avg # of iterations =  1.0

     negative rho (up, down):  5.970E-02 0.000E+00

     total cpu time spent up to now is    25414.0 secs

     total energy              =  -11682.10960352 Ry
     estimated scf accuracy    <       0.01326968 Ry

     iteration # 87     ecut=    80.00 Ry     beta= 0.10
     Davidson diagonalization with overlap
     ethr =  2.17E-07,  avg # of iterations =  1.0

     negative rho (up, down):  5.974E-02 0.000E+00

     total cpu time spent up to now is    25697.5 secs

     total energy              =  -11682.10965825 Ry
     estimated scf accuracy    <       0.01634068 Ry

     iteration # 88     ecut=    80.00 Ry     beta= 0.10
     Davidson diagonalization with overlap
     ethr =  2.17E-07,  avg # of iterations =  1.0

     negative rho (up, down):  5.971E-02 0.000E+00

     total cpu time spent up to now is    25981.8 secs

     total energy              =  -11682.10964119 Ry
     estimated scf accuracy    <       0.00919960 Ry

     iteration # 89     ecut=    80.00 Ry     beta= 0.10
     Davidson diagonalization with overlap
     ethr =  2.17E-07,  avg # of iterations =  1.0

     negative rho (up, down):  5.972E-02 0.000E+00

     total cpu time spent up to now is    26265.9 secs

     total energy              =  -11682.10965434 Ry
     estimated scf accuracy    <       0.01651701 Ry

     iteration # 90     ecut=    80.00 Ry     beta= 0.10
     Davidson diagonalization with overlap
     ethr =  2.17E-07,  avg # of iterations =  1.0

     negative rho (up, down):  5.975E-02 0.000E+00

     total cpu time spent up to now is    26549.9 secs

     total energy              =  -11682.10978607 Ry
     estimated scf accuracy    <       0.00282352 Ry

     iteration # 91     ecut=    80.00 Ry     beta= 0.10
     Davidson diagonalization with overlap
     ethr =  1.51E-07,  avg # of iterations =  1.0

     negative rho (up, down):  5.975E-02 0.000E+00

     total cpu time spent up to now is    26840.3 secs

     total energy              =  -11682.10978166 Ry
     estimated scf accuracy    <       0.00377064 Ry

     iteration # 92     ecut=    80.00 Ry     beta= 0.10
     Davidson diagonalization with overlap
     ethr =  1.51E-07,  avg # of iterations =  1.0

     negative rho (up, down):  5.975E-02 0.000E+00

     total cpu time spent up to now is    27124.8 secs

     total energy              =  -11682.10976859 Ry
     estimated scf accuracy    <       0.00429851 Ry

     iteration # 93     ecut=    80.00 Ry     beta= 0.10
     Davidson diagonalization with overlap
     ethr =  1.51E-07,  avg # of iterations =  1.0

     negative rho (up, down):  5.976E-02 0.000E+00

     total cpu time spent up to now is    27408.6 secs

     total energy              =  -11682.10980144 Ry
     estimated scf accuracy    <       0.00490714 Ry

     iteration # 94     ecut=    80.00 Ry     beta= 0.10
     Davidson diagonalization with overlap
     ethr =  1.51E-07,  avg # of iterations =  1.0

     negative rho (up, down):  5.977E-02 0.000E+00

     total cpu time spent up to now is    27692.3 secs

     total energy              =  -11682.10982458 Ry
     estimated scf accuracy    <       0.00257594 Ry

     iteration # 95     ecut=    80.00 Ry     beta= 0.10
     Davidson diagonalization with overlap
     ethr =  1.38E-07,  avg # of iterations =  1.0

     negative rho (up, down):  5.978E-02 0.000E+00

     total cpu time spent up to now is    27975.9 secs

     total energy              =  -11682.10982991 Ry
     estimated scf accuracy    <       0.00365322 Ry

     iteration # 96     ecut=    80.00 Ry     beta= 0.10
     Davidson diagonalization with overlap
     ethr =  1.38E-07,  avg # of iterations =  1.0

     negative rho (up, down):  5.980E-02 0.000E+00

     total cpu time spent up to now is    28259.0 secs

     total energy              =  -11682.10983717 Ry
     estimated scf accuracy    <       0.00448167 Ry

     iteration # 97     ecut=    80.00 Ry     beta= 0.10
     Davidson diagonalization with overlap
     ethr =  1.38E-07,  avg # of iterations =  1.0

     negative rho (up, down):  5.981E-02 0.000E+00

     total cpu time spent up to now is    28542.2 secs

     total energy              =  -11682.10982867 Ry
     estimated scf accuracy    <       0.00699648 Ry

     iteration # 98     ecut=    80.00 Ry     beta= 0.10
     Davidson diagonalization with overlap
     ethr =  1.38E-07,  avg # of iterations =  1.0

     negative rho (up, down):  5.980E-02 0.000E+00

     total cpu time spent up to now is    28826.3 secs

     total energy              =  -11682.10983853 Ry
     estimated scf accuracy    <       0.00318098 Ry

     iteration # 99     ecut=    80.00 Ry     beta= 0.10
     Davidson diagonalization with overlap
     ethr =  1.38E-07,  avg # of iterations =  1.0

     negative rho (up, down):  5.980E-02 0.000E+00

     total cpu time spent up to now is    29110.3 secs

     total energy              =  -11682.10979817 Ry
     estimated scf accuracy    <       0.01039819 Ry

     iteration #100     ecut=    80.00 Ry     beta= 0.10
     Davidson diagonalization with overlap
     ethr =  1.38E-07,  avg # of iterations =  1.0

     negative rho (up, down):  5.982E-02 0.000E+00

     total cpu time spent up to now is    29393.9 secs

     total energy              =  -11682.10988148 Ry
     estimated scf accuracy    <       0.00240459 Ry

     iteration #101     ecut=    80.00 Ry     beta= 0.10
     Davidson diagonalization with overlap
     ethr =  1.28E-07,  avg # of iterations =  1.0

     negative rho (up, down):  5.983E-02 0.000E+00

     total cpu time spent up to now is    29677.6 secs

     total energy              =  -11682.10988473 Ry
     estimated scf accuracy    <       0.00243843 Ry

     iteration #102     ecut=    80.00 Ry     beta= 0.10
     Davidson diagonalization with overlap
     ethr =  1.28E-07,  avg # of iterations =  1.0

     negative rho (up, down):  5.982E-02 0.000E+00

     total cpu time spent up to now is    29961.5 secs

     total energy              =  -11682.10987626 Ry
     estimated scf accuracy    <       0.00286781 Ry

     iteration #103     ecut=    80.00 Ry     beta= 0.10
     Davidson diagonalization with overlap
     ethr =  1.28E-07,  avg # of iterations =  1.0

     negative rho (up, down):  5.983E-02 0.000E+00

     total cpu time spent up to now is    30245.6 secs

     total energy              =  -11682.10988590 Ry
     estimated scf accuracy    <       0.00385859 Ry

     iteration #104     ecut=    80.00 Ry     beta= 0.10
     Davidson diagonalization with overlap
     ethr =  1.28E-07,  avg # of iterations =  1.0

     negative rho (up, down):  5.984E-02 0.000E+00

     total cpu time spent up to now is    30529.7 secs

     total energy              =  -11682.10990523 Ry
     estimated scf accuracy    <       0.00147667 Ry

     iteration #105     ecut=    80.00 Ry     beta= 0.10
     Davidson diagonalization with overlap
     ethr =  7.89E-08,  avg # of iterations =  1.0

     negative rho (up, down):  5.984E-02 0.000E+00

     total cpu time spent up to now is    30814.1 secs

     total energy              =  -11682.10991419 Ry
     estimated scf accuracy    <       0.00137947 Ry

     iteration #106     ecut=    80.00 Ry     beta= 0.10
     Davidson diagonalization with overlap
     ethr =  7.37E-08,  avg # of iterations =  1.0

     negative rho (up, down):  5.986E-02 0.000E+00

     total cpu time spent up to now is    31097.2 secs

     total energy              =  -11682.10993214 Ry
     estimated scf accuracy    <       0.00134227 Ry

     iteration #107     ecut=    80.00 Ry     beta= 0.10
     Davidson diagonalization with overlap
     ethr =  7.17E-08,  avg # of iterations =  1.0

     negative rho (up, down):  5.986E-02 0.000E+00

     total cpu time spent up to now is    31381.4 secs

     total energy              =  -11682.10992350 Ry
     estimated scf accuracy    <       0.00175654 Ry

     iteration #108     ecut=    80.00 Ry     beta= 0.10
     Davidson diagonalization with overlap
     ethr =  7.17E-08,  avg # of iterations =  1.0

     negative rho (up, down):  5.987E-02 0.000E+00

     total cpu time spent up to now is    31672.7 secs

     total energy              =  -11682.10993072 Ry
     estimated scf accuracy    <       0.00109233 Ry

     iteration #109     ecut=    80.00 Ry     beta= 0.10
     Davidson diagonalization with overlap
     ethr =  5.84E-08,  avg # of iterations =  1.0

     negative rho (up, down):  5.986E-02 0.000E+00

     total cpu time spent up to now is    31956.7 secs

     total energy              =  -11682.10990072 Ry
     estimated scf accuracy    <       0.00514864 Ry

     iteration #110     ecut=    80.00 Ry     beta= 0.10
     Davidson diagonalization with overlap
     ethr =  5.84E-08,  avg # of iterations =  1.0

     negative rho (up, down):  5.988E-02 0.000E+00

     total cpu time spent up to now is    32240.3 secs

     total energy              =  -11682.10993832 Ry
     estimated scf accuracy    <       0.00164222 Ry

     iteration #111     ecut=    80.00 Ry     beta= 0.10
     Davidson diagonalization with overlap
     ethr =  5.84E-08,  avg # of iterations =  1.0

     negative rho (up, down):  5.988E-02 0.000E+00

     total cpu time spent up to now is    32524.0 secs

     total energy              =  -11682.10994538 Ry
     estimated scf accuracy    <       0.00138080 Ry

     iteration #112     ecut=    80.00 Ry     beta= 0.10
     Davidson diagonalization with overlap
     ethr =  5.84E-08,  avg # of iterations =  1.0

     negative rho (up, down):  5.989E-02 0.000E+00

     total cpu time spent up to now is    32807.7 secs

     total energy              =  -11682.10994108 Ry
     estimated scf accuracy    <       0.00165103 Ry

     iteration #113     ecut=    80.00 Ry     beta= 0.10
     Davidson diagonalization with overlap
     ethr =  5.84E-08,  avg # of iterations =  1.0

     negative rho (up, down):  5.989E-02 0.000E+00

     total cpu time spent up to now is    33091.9 secs

     total energy              =  -11682.10993698 Ry
     estimated scf accuracy    <       0.00303990 Ry

     iteration #114     ecut=    80.00 Ry     beta= 0.10
     Davidson diagonalization with overlap
     ethr =  5.84E-08,  avg # of iterations =  1.0

     negative rho (up, down):  5.989E-02 0.000E+00

     total cpu time spent up to now is    33375.0 secs

     total energy              =  -11682.10994953 Ry
     estimated scf accuracy    <       0.00116139 Ry

     iteration #115     ecut=    80.00 Ry     beta= 0.10
     Davidson diagonalization with overlap
     ethr =  5.84E-08,  avg # of iterations =  1.0

     negative rho (up, down):  5.989E-02 0.000E+00

     total cpu time spent up to now is    33659.0 secs

     total energy              =  -11682.10995552 Ry
     estimated scf accuracy    <       0.00100708 Ry

     iteration #116     ecut=    80.00 Ry     beta= 0.10
     Davidson diagonalization with overlap
     ethr =  5.38E-08,  avg # of iterations =  1.0

     negative rho (up, down):  5.990E-02 0.000E+00

     total cpu time spent up to now is    33942.6 secs

     total energy              =  -11682.10996860 Ry
     estimated scf accuracy    <       0.00065880 Ry

     iteration #117     ecut=    80.00 Ry     beta= 0.10
     Davidson diagonalization with overlap
     ethr =  3.52E-08,  avg # of iterations =  1.0

     negative rho (up, down):  5.990E-02 0.000E+00

     total cpu time spent up to now is    34226.7 secs

     total energy              =  -11682.10996496 Ry
     estimated scf accuracy    <       0.00053717 Ry

     iteration #118     ecut=    80.00 Ry     beta= 0.10
     Davidson diagonalization with overlap
     ethr =  2.87E-08,  avg # of iterations =  1.0

     negative rho (up, down):  5.991E-02 0.000E+00

     total cpu time spent up to now is    34510.3 secs

     total energy              =  -11682.10997263 Ry
     estimated scf accuracy    <       0.00041053 Ry

     iteration #119     ecut=    80.00 Ry     beta= 0.10
     Davidson diagonalization with overlap
     ethr =  2.19E-08,  avg # of iterations =  1.0

     negative rho (up, down):  5.991E-02 0.000E+00

     total cpu time spent up to now is    34793.8 secs

     total energy              =  -11682.10996235 Ry
     estimated scf accuracy    <       0.00158342 Ry

     iteration #120     ecut=    80.00 Ry     beta= 0.10
     Davidson diagonalization with overlap
     ethr =  2.19E-08,  avg # of iterations =  1.0

     negative rho (up, down):  5.992E-02 0.000E+00

     total cpu time spent up to now is    35078.8 secs

     total energy              =  -11682.10997305 Ry
     estimated scf accuracy    <       0.00084188 Ry

     iteration #121     ecut=    80.00 Ry     beta= 0.10
     Davidson diagonalization with overlap
     ethr =  2.19E-08,  avg # of iterations =  1.0

     negative rho (up, down):  5.992E-02 0.000E+00

     total cpu time spent up to now is    35363.1 secs

     total energy              =  -11682.10997887 Ry
     estimated scf accuracy    <       0.00059098 Ry

     iteration #122     ecut=    80.00 Ry     beta= 0.10
     Davidson diagonalization with overlap
     ethr =  2.19E-08,  avg # of iterations =  1.0

     negative rho (up, down):  5.993E-02 0.000E+00

     total cpu time spent up to now is    35647.1 secs

     total energy              =  -11682.10997960 Ry
     estimated scf accuracy    <       0.00073240 Ry

     iteration #123     ecut=    80.00 Ry     beta= 0.10
     Davidson diagonalization with overlap
     ethr =  2.19E-08,  avg # of iterations =  1.0

     negative rho (up, down):  5.993E-02 0.000E+00

     total cpu time spent up to now is    35931.4 secs

     total energy              =  -11682.10997216 Ry
     estimated scf accuracy    <       0.00161840 Ry

     iteration #124     ecut=    80.00 Ry     beta= 0.10
     Davidson diagonalization with overlap
     ethr =  2.19E-08,  avg # of iterations =  1.0

     negative rho (up, down):  5.993E-02 0.000E+00

     total cpu time spent up to now is    36215.2 secs

     total energy              =  -11682.10997576 Ry
     estimated scf accuracy    <       0.00089338 Ry

     iteration #125     ecut=    80.00 Ry     beta= 0.10
     Davidson diagonalization with overlap
     ethr =  2.19E-08,  avg # of iterations =  1.0

     negative rho (up, down):  5.993E-02 0.000E+00

     total cpu time spent up to now is    36499.3 secs

     total energy              =  -11682.10997803 Ry
     estimated scf accuracy    <       0.00097953 Ry

     iteration #126     ecut=    80.00 Ry     beta= 0.10
     Davidson diagonalization with overlap
     ethr =  2.19E-08,  avg # of iterations =  1.0

     negative rho (up, down):  5.994E-02 0.000E+00

     total cpu time spent up to now is    36782.9 secs

     total energy              =  -11682.10998821 Ry
     estimated scf accuracy    <       0.00058894 Ry

     iteration #127     ecut=    80.00 Ry     beta= 0.10
     Davidson diagonalization with overlap
     ethr =  2.19E-08,  avg # of iterations =  1.0

     negative rho (up, down):  5.994E-02 0.000E+00

     total cpu time spent up to now is    37069.7 secs

     total energy              =  -11682.10998603 Ry
     estimated scf accuracy    <       0.00031126 Ry

     iteration #128     ecut=    80.00 Ry     beta= 0.10
     Davidson diagonalization with overlap
     ethr =  1.66E-08,  avg # of iterations =  1.0

     negative rho (up, down):  5.994E-02 0.000E+00

     total cpu time spent up to now is    37354.4 secs

     total energy              =  -11682.10999103 Ry
     estimated scf accuracy    <       0.00024376 Ry

     iteration #129     ecut=    80.00 Ry     beta= 0.10
     Davidson diagonalization with overlap
     ethr =  1.30E-08,  avg # of iterations =  1.0

     negative rho (up, down):  5.994E-02 0.000E+00

     total cpu time spent up to now is    37644.5 secs

     total energy              =  -11682.10999025 Ry
     estimated scf accuracy    <       0.00036581 Ry

     iteration #130     ecut=    80.00 Ry     beta= 0.10
     Davidson diagonalization with overlap
     ethr =  1.30E-08,  avg # of iterations =  1.0

     negative rho (up, down):  5.995E-02 0.000E+00

     total cpu time spent up to now is    37928.7 secs

     total energy              =  -11682.10999136 Ry
     estimated scf accuracy    <       0.00047543 Ry

     iteration #131     ecut=    80.00 Ry     beta= 0.10
     Davidson diagonalization with overlap
     ethr =  1.30E-08,  avg # of iterations =  1.0

     negative rho (up, down):  5.995E-02 0.000E+00

     total cpu time spent up to now is    38212.5 secs

     total energy              =  -11682.10999591 Ry
     estimated scf accuracy    <       0.00019485 Ry

     iteration #132     ecut=    80.00 Ry     beta= 0.10
     Davidson diagonalization with overlap
     ethr =  1.04E-08,  avg # of iterations =  1.0

     negative rho (up, down):  5.996E-02 0.000E+00

     total cpu time spent up to now is    38497.1 secs

     total energy              =  -11682.10999743 Ry
     estimated scf accuracy    <       0.00025949 Ry

     iteration #133     ecut=    80.00 Ry     beta= 0.10
     Davidson diagonalization with overlap
     ethr =  1.04E-08,  avg # of iterations =  1.0

     negative rho (up, down):  5.996E-02 0.000E+00

     total cpu time spent up to now is    38781.8 secs

     total energy              =  -11682.10999465 Ry
     estimated scf accuracy    <       0.00054650 Ry

     iteration #134     ecut=    80.00 Ry     beta= 0.10
     Davidson diagonalization with overlap
     ethr =  1.04E-08,  avg # of iterations =  1.0

     negative rho (up, down):  5.996E-02 0.000E+00

     total cpu time spent up to now is    39065.7 secs

     total energy              =  -11682.10999423 Ry
     estimated scf accuracy    <       0.00050003 Ry

     iteration #135     ecut=    80.00 Ry     beta= 0.10
     Davidson diagonalization with overlap
     ethr =  1.04E-08,  avg # of iterations =  1.0

     negative rho (up, down):  5.996E-02 0.000E+00

     total cpu time spent up to now is    39349.3 secs

     total energy              =  -11682.10999291 Ry
     estimated scf accuracy    <       0.00074196 Ry

     iteration #136     ecut=    80.00 Ry     beta= 0.10
     Davidson diagonalization with overlap
     ethr =  1.04E-08,  avg # of iterations =  1.0

     negative rho (up, down):  5.997E-02 0.000E+00

     total cpu time spent up to now is    39633.0 secs

     total energy              =  -11682.10999869 Ry
     estimated scf accuracy    <       0.00058470 Ry

     iteration #137     ecut=    80.00 Ry     beta= 0.10
     Davidson diagonalization with overlap
     ethr =  1.04E-08,  avg # of iterations =  1.0

     negative rho (up, down):  5.996E-02 0.000E+00

     total cpu time spent up to now is    39917.2 secs

     total energy              =  -11682.10999844 Ry
     estimated scf accuracy    <       0.00019344 Ry

     iteration #138     ecut=    80.00 Ry     beta= 0.10
     Davidson diagonalization with overlap
     ethr =  1.03E-08,  avg # of iterations =  1.0

     negative rho (up, down):  5.997E-02 0.000E+00

     total cpu time spent up to now is    40200.8 secs

     total energy              =  -11682.11000141 Ry
     estimated scf accuracy    <       0.00019106 Ry

     iteration #139     ecut=    80.00 Ry     beta= 0.10
     Davidson diagonalization with overlap
     ethr =  1.02E-08,  avg # of iterations =  1.0

     negative rho (up, down):  5.997E-02 0.000E+00

     total cpu time spent up to now is    40484.4 secs

     total energy              =  -11682.11000199 Ry
     estimated scf accuracy    <       0.00017549 Ry

     iteration #140     ecut=    80.00 Ry     beta= 0.10
     Davidson diagonalization with overlap
     ethr =  9.37E-09,  avg # of iterations =  1.0

     negative rho (up, down):  5.997E-02 0.000E+00

     total cpu time spent up to now is    40768.2 secs

     total energy              =  -11682.11000181 Ry
     estimated scf accuracy    <       0.00023606 Ry

     iteration #141     ecut=    80.00 Ry     beta= 0.10
     Davidson diagonalization with overlap
     ethr =  9.37E-09,  avg # of iterations =  1.0

     negative rho (up, down):  5.997E-02 0.000E+00

     total cpu time spent up to now is    41052.3 secs

     total energy              =  -11682.11000417 Ry
     estimated scf accuracy    <       0.00008583 Ry

     iteration #142     ecut=    80.00 Ry     beta= 0.10
     Davidson diagonalization with overlap
     ethr =  4.58E-09,  avg # of iterations =  1.0

     negative rho (up, down):  5.998E-02 0.000E+00

     total cpu time spent up to now is    41336.4 secs

     total energy              =  -11682.11000553 Ry
     estimated scf accuracy    <       0.00008923 Ry

     iteration #143     ecut=    80.00 Ry     beta= 0.10
     Davidson diagonalization with overlap
     ethr =  4.58E-09,  avg # of iterations =  1.0

     negative rho (up, down):  5.998E-02 0.000E+00

     total cpu time spent up to now is    41620.3 secs

     total energy              =  -11682.11000515 Ry
     estimated scf accuracy    <       0.00013828 Ry

     iteration #144     ecut=    80.00 Ry     beta= 0.10
     Davidson diagonalization with overlap
     ethr =  4.58E-09,  avg # of iterations =  1.0

     negative rho (up, down):  5.998E-02 0.000E+00

     total cpu time spent up to now is    41904.4 secs

     total energy              =  -11682.11000501 Ry
     estimated scf accuracy    <       0.00021074 Ry

     iteration #145     ecut=    80.00 Ry     beta= 0.10
     Davidson diagonalization with overlap
     ethr =  4.58E-09,  avg # of iterations =  1.0

     negative rho (up, down):  5.998E-02 0.000E+00

     total cpu time spent up to now is    42189.1 secs

     total energy              =  -11682.11000374 Ry
     estimated scf accuracy    <       0.00037737 Ry

     iteration #146     ecut=    80.00 Ry     beta= 0.10
     Davidson diagonalization with overlap
     ethr =  4.58E-09,  avg # of iterations =  1.0

     negative rho (up, down):  5.998E-02 0.000E+00

     total cpu time spent up to now is    42473.5 secs

     total energy              =  -11682.11000526 Ry
     estimated scf accuracy    <       0.00041925 Ry

     iteration #147     ecut=    80.00 Ry     beta= 0.10
     Davidson diagonalization with overlap
     ethr =  4.58E-09,  avg # of iterations =  1.0

     negative rho (up, down):  5.998E-02 0.000E+00

     total cpu time spent up to now is    42760.3 secs

     total energy              =  -11682.11000576 Ry
     estimated scf accuracy    <       0.00010868 Ry

     iteration #148     ecut=    80.00 Ry     beta= 0.10
     Davidson diagonalization with overlap
     ethr =  4.58E-09,  avg # of iterations =  1.0

     negative rho (up, down):  5.999E-02 0.000E+00

     total cpu time spent up to now is    43043.7 secs

     total energy              =  -11682.11000708 Ry
     estimated scf accuracy    <       0.00017038 Ry

     iteration #149     ecut=    80.00 Ry     beta= 0.10
     Davidson diagonalization with overlap
     ethr =  4.58E-09,  avg # of iterations =  1.0

     negative rho (up, down):  5.999E-02 0.000E+00

     total cpu time spent up to now is    43326.8 secs

     total energy              =  -11682.11000811 Ry
     estimated scf accuracy    <       0.00011814 Ry

     iteration #150     ecut=    80.00 Ry     beta= 0.10
     Davidson diagonalization with overlap
     ethr =  4.58E-09,  avg # of iterations =  1.0

     negative rho (up, down):  5.999E-02 0.000E+00

     total cpu time spent up to now is    43610.6 secs

     total energy              =  -11682.11000738 Ry
     estimated scf accuracy    <       0.00014104 Ry

     iteration #151     ecut=    80.00 Ry     beta= 0.10
     Davidson diagonalization with overlap
     ethr =  4.58E-09,  avg # of iterations =  1.0

     negative rho (up, down):  5.999E-02 0.000E+00

     total cpu time spent up to now is    43893.9 secs

     total energy              =  -11682.11000869 Ry
     estimated scf accuracy    <       0.00006093 Ry

     iteration #152     ecut=    80.00 Ry     beta= 0.10
     Davidson diagonalization with overlap
     ethr =  3.25E-09,  avg # of iterations =  1.0

     negative rho (up, down):  5.999E-02 0.000E+00

     total cpu time spent up to now is    44188.4 secs

     total energy              =  -11682.11000958 Ry
     estimated scf accuracy    <       0.00003926 Ry

     iteration #153     ecut=    80.00 Ry     beta= 0.10
     Davidson diagonalization with overlap
     ethr =  2.10E-09,  avg # of iterations =  1.0

     negative rho (up, down):  5.999E-02 0.000E+00

     total cpu time spent up to now is    44471.7 secs

     total energy              =  -11682.11000983 Ry
     estimated scf accuracy    <       0.00003890 Ry

     iteration #154     ecut=    80.00 Ry     beta= 0.10
     Davidson diagonalization with overlap
     ethr =  2.08E-09,  avg # of iterations =  1.0

     negative rho (up, down):  6.000E-02 0.000E+00

     total cpu time spent up to now is    44755.3 secs

     total energy              =  -11682.11001016 Ry
     estimated scf accuracy    <       0.00007400 Ry

     iteration #155     ecut=    80.00 Ry     beta= 0.10
     Davidson diagonalization with overlap
     ethr =  2.08E-09,  avg # of iterations =  1.0

     negative rho (up, down):  6.000E-02 0.000E+00

     total cpu time spent up to now is    45039.4 secs

     total energy              =  -11682.11000984 Ry
     estimated scf accuracy    <       0.00012038 Ry

     iteration #156     ecut=    80.00 Ry     beta= 0.10
     Davidson diagonalization with overlap
     ethr =  2.08E-09,  avg # of iterations =  1.0

     negative rho (up, down):  6.000E-02 0.000E+00

     total cpu time spent up to now is    45323.7 secs

     total energy              =  -11682.11000962 Ry
     estimated scf accuracy    <       0.00018973 Ry

     iteration #157     ecut=    80.00 Ry     beta= 0.10
     Davidson diagonalization with overlap
     ethr =  2.08E-09,  avg # of iterations =  1.0

     negative rho (up, down):  6.000E-02 0.000E+00

     total cpu time spent up to now is    45608.0 secs

     total energy              =  -11682.11001022 Ry
     estimated scf accuracy    <       0.00005601 Ry

     iteration #158     ecut=    80.00 Ry     beta= 0.10
     Davidson diagonalization with overlap
     ethr =  2.08E-09,  avg # of iterations =  1.0

     negative rho (up, down):  6.000E-02 0.000E+00

     total cpu time spent up to now is    45892.4 secs

     total energy              =  -11682.11001044 Ry
     estimated scf accuracy    <       0.00012181 Ry

     iteration #159     ecut=    80.00 Ry     beta= 0.10
     Davidson diagonalization with overlap
     ethr =  2.08E-09,  avg # of iterations =  1.0

     negative rho (up, down):  6.000E-02 0.000E+00

     total cpu time spent up to now is    46176.0 secs

     total energy              =  -11682.11001141 Ry
     estimated scf accuracy    <       0.00007856 Ry

     iteration #160     ecut=    80.00 Ry     beta= 0.10
     Davidson diagonalization with overlap
     ethr =  2.08E-09,  avg # of iterations =  1.0

     negative rho (up, down):  6.000E-02 0.000E+00

     total cpu time spent up to now is    46459.5 secs

     total energy              =  -11682.11001070 Ry
     estimated scf accuracy    <       0.00007668 Ry

     iteration #161     ecut=    80.00 Ry     beta= 0.10
     Davidson diagonalization with overlap
     ethr =  2.08E-09,  avg # of iterations =  1.0

     negative rho (up, down):  6.000E-02 0.000E+00

     total cpu time spent up to now is    46743.4 secs

     total energy              =  -11682.11001124 Ry
     estimated scf accuracy    <       0.00005751 Ry

     iteration #162     ecut=    80.00 Ry     beta= 0.10
     Davidson diagonalization with overlap
     ethr =  2.08E-09,  avg # of iterations =  1.0

     negative rho (up, down):  6.000E-02 0.000E+00

     total cpu time spent up to now is    47026.9 secs

     total energy              =  -11682.11001182 Ry
     estimated scf accuracy    <       0.00003033 Ry

     iteration #163     ecut=    80.00 Ry     beta= 0.10
     Davidson diagonalization with overlap
     ethr =  1.62E-09,  avg # of iterations =  1.0

     negative rho (up, down):  6.000E-02 0.000E+00

     total cpu time spent up to now is    47310.2 secs

     total energy              =  -11682.11001211 Ry
     estimated scf accuracy    <       0.00001996 Ry

     iteration #164     ecut=    80.00 Ry     beta= 0.10
     Davidson diagonalization with overlap
     ethr =  1.07E-09,  avg # of iterations =  1.0

     negative rho (up, down):  6.001E-02 0.000E+00

     total cpu time spent up to now is    47594.0 secs

     total energy              =  -11682.11001239 Ry
     estimated scf accuracy    <       0.00002920 Ry

     iteration #165     ecut=    80.00 Ry     beta= 0.10
     Davidson diagonalization with overlap
     ethr =  1.07E-09,  avg # of iterations =  1.0

     negative rho (up, down):  6.001E-02 0.000E+00

     total cpu time spent up to now is    47877.5 secs

     total energy              =  -11682.11001249 Ry
     estimated scf accuracy    <       0.00003772 Ry

     iteration #166     ecut=    80.00 Ry     beta= 0.10
     Davidson diagonalization with overlap
     ethr =  1.07E-09,  avg # of iterations =  1.0

     negative rho (up, down):  6.001E-02 0.000E+00

     total cpu time spent up to now is    48161.1 secs

     total energy              =  -11682.11001210 Ry
     estimated scf accuracy    <       0.00006930 Ry

     iteration #167     ecut=    80.00 Ry     beta= 0.10
     Davidson diagonalization with overlap
     ethr =  1.07E-09,  avg # of iterations =  1.0

     negative rho (up, down):  6.001E-02 0.000E+00

     total cpu time spent up to now is    48445.3 secs

     total energy              =  -11682.11001260 Ry
     estimated scf accuracy    <       0.00002689 Ry

     iteration #168     ecut=    80.00 Ry     beta= 0.10
     Davidson diagonalization with overlap
     ethr =  1.07E-09,  avg # of iterations =  1.0

     negative rho (up, down):  6.001E-02 0.000E+00

     total cpu time spent up to now is    48728.7 secs

     total energy              =  -11682.11001251 Ry
     estimated scf accuracy    <       0.00006075 Ry

     iteration #169     ecut=    80.00 Ry     beta= 0.10
     Davidson diagonalization with overlap
     ethr =  1.07E-09,  avg # of iterations =  1.0

     negative rho (up, down):  6.001E-02 0.000E+00

     total cpu time spent up to now is    49026.1 secs

     total energy              =  -11682.11001310 Ry
     estimated scf accuracy    <       0.00004009 Ry

     iteration #170     ecut=    80.00 Ry     beta= 0.10
     Davidson diagonalization with overlap
     ethr =  1.07E-09,  avg # of iterations =  1.0

     negative rho (up, down):  6.001E-02 0.000E+00

     total cpu time spent up to now is    49309.7 secs

     total energy              =  -11682.11001277 Ry
     estimated scf accuracy    <       0.00003187 Ry

     iteration #171     ecut=    80.00 Ry     beta= 0.10
     Davidson diagonalization with overlap
     ethr =  1.07E-09,  avg # of iterations =  1.0

     negative rho (up, down):  6.001E-02 0.000E+00

     total cpu time spent up to now is    49594.4 secs

     total energy              =  -11682.11001277 Ry
     estimated scf accuracy    <       0.00004912 Ry

     iteration #172     ecut=    80.00 Ry     beta= 0.10
     Davidson diagonalization with overlap
     ethr =  1.07E-09,  avg # of iterations =  1.0

     negative rho (up, down):  6.001E-02 0.000E+00

     total cpu time spent up to now is    49878.6 secs

     total energy              =  -11682.11001306 Ry
     estimated scf accuracy    <       0.00002919 Ry

     iteration #173     ecut=    80.00 Ry     beta= 0.10
     Davidson diagonalization with overlap
     ethr =  1.07E-09,  avg # of iterations =  1.0

     negative rho (up, down):  6.001E-02 0.000E+00

     total cpu time spent up to now is    50162.0 secs

     total energy              =  -11682.11001334 Ry
     estimated scf accuracy    <       0.00001540 Ry

     iteration #174     ecut=    80.00 Ry     beta= 0.10
     Davidson diagonalization with overlap
     ethr =  8.23E-10,  avg # of iterations =  1.0

     negative rho (up, down):  6.001E-02 0.000E+00

     total cpu time spent up to now is    50446.7 secs

     total energy              =  -11682.11001352 Ry
     estimated scf accuracy    <       0.00001845 Ry

     iteration #175     ecut=    80.00 Ry     beta= 0.10
     Davidson diagonalization with overlap
     ethr =  8.23E-10,  avg # of iterations =  1.0

     negative rho (up, down):  6.002E-02 0.000E+00

     total cpu time spent up to now is    50730.7 secs

     total energy              =  -11682.11001365 Ry
     estimated scf accuracy    <       0.00001725 Ry

     iteration #176     ecut=    80.00 Ry     beta= 0.10
     Davidson diagonalization with overlap
     ethr =  8.23E-10,  avg # of iterations =  1.0

     negative rho (up, down):  6.001E-02 0.000E+00

     total cpu time spent up to now is    51014.6 secs

     total energy              =  -11682.11001339 Ry
     estimated scf accuracy    <       0.00002701 Ry

     iteration #177     ecut=    80.00 Ry     beta= 0.10
     Davidson diagonalization with overlap
     ethr =  8.23E-10,  avg # of iterations =  1.0

     negative rho (up, down):  6.002E-02 0.000E+00

     total cpu time spent up to now is    51299.3 secs

     total energy              =  -11682.11001373 Ry
     estimated scf accuracy    <       0.00001316 Ry

     iteration #178     ecut=    80.00 Ry     beta= 0.10
     Davidson diagonalization with overlap
     ethr =  7.03E-10,  avg # of iterations =  1.0

     negative rho (up, down):  6.002E-02 0.000E+00

     total cpu time spent up to now is    51583.5 secs

     total energy              =  -11682.11001366 Ry
     estimated scf accuracy    <       0.00002230 Ry

     iteration #179     ecut=    80.00 Ry     beta= 0.10
     Davidson diagonalization with overlap
     ethr =  7.03E-10,  avg # of iterations =  1.0

     negative rho (up, down):  6.002E-02 0.000E+00

     total cpu time spent up to now is    51867.2 secs

     total energy              =  -11682.11001393 Ry
     estimated scf accuracy    <       0.00001670 Ry

     iteration #180     ecut=    80.00 Ry     beta= 0.10
     Davidson diagonalization with overlap
     ethr =  7.03E-10,  avg # of iterations =  1.0

     negative rho (up, down):  6.002E-02 0.000E+00

     total cpu time spent up to now is    52150.3 secs

     total energy              =  -11682.11001390 Ry
     estimated scf accuracy    <       0.00001130 Ry

     iteration #181     ecut=    80.00 Ry     beta= 0.10
     Davidson diagonalization with overlap
     ethr =  6.04E-10,  avg # of iterations =  1.0

     negative rho (up, down):  6.002E-02 0.000E+00

     total cpu time spent up to now is    52433.8 secs

     total energy              =  -11682.11001380 Ry
     estimated scf accuracy    <       0.00002757 Ry

     iteration #182     ecut=    80.00 Ry     beta= 0.10
     Davidson diagonalization with overlap
     ethr =  6.04E-10,  avg # of iterations =  1.0

     negative rho (up, down):  6.002E-02 0.000E+00

     total cpu time spent up to now is    52717.7 secs

     total energy              =  -11682.11001383 Ry
     estimated scf accuracy    <       0.00002135 Ry

     iteration #183     ecut=    80.00 Ry     beta= 0.10
     Davidson diagonalization with overlap
     ethr =  6.04E-10,  avg # of iterations =  1.0

     negative rho (up, down):  6.002E-02 0.000E+00

     total cpu time spent up to now is    53001.4 secs

     total energy              =  -11682.11001402 Ry
     estimated scf accuracy    <       0.00001281 Ry

     iteration #184     ecut=    80.00 Ry     beta= 0.10
     Davidson diagonalization with overlap
     ethr =  6.04E-10,  avg # of iterations =  1.0

     negative rho (up, down):  6.002E-02 0.000E+00

     total cpu time spent up to now is    53285.2 secs

     total energy              =  -11682.11001411 Ry
     estimated scf accuracy    <       0.00001474 Ry

     iteration #185     ecut=    80.00 Ry     beta= 0.10
     Davidson diagonalization with overlap
     ethr =  6.04E-10,  avg # of iterations =  1.0

     negative rho (up, down):  6.002E-02 0.000E+00

     total cpu time spent up to now is    53569.7 secs

     total energy              =  -11682.11001422 Ry
     estimated scf accuracy    <       0.00001083 Ry

     iteration #186     ecut=    80.00 Ry     beta= 0.10
     Davidson diagonalization with overlap
     ethr =  5.78E-10,  avg # of iterations =  1.0

     negative rho (up, down):  6.002E-02 0.000E+00

     total cpu time spent up to now is    53857.1 secs

     total energy              =  -11682.11001406 Ry
     estimated scf accuracy    <       0.00001263 Ry

     iteration #187     ecut=    80.00 Ry     beta= 0.10
     Davidson diagonalization with overlap
     ethr =  5.78E-10,  avg # of iterations =  1.0

     negative rho (up, down):  6.002E-02 0.000E+00

     total cpu time spent up to now is    54141.2 secs

     total energy              =  -11682.11001426 Ry
     estimated scf accuracy    <       0.00000839 Ry

     iteration #188     ecut=    80.00 Ry     beta= 0.10
     Davidson diagonalization with overlap
     ethr =  4.48E-10,  avg # of iterations =  1.0

     negative rho (up, down):  6.002E-02 0.000E+00

     total cpu time spent up to now is    54425.1 secs

     total energy              =  -11682.11001422 Ry
     estimated scf accuracy    <       0.00000943 Ry

     iteration #189     ecut=    80.00 Ry     beta= 0.10
     Davidson diagonalization with overlap
     ethr =  4.48E-10,  avg # of iterations =  1.0

     negative rho (up, down):  6.002E-02 0.000E+00

     total cpu time spent up to now is    54708.7 secs

     total energy              =  -11682.11001434 Ry
     estimated scf accuracy    <       0.00000752 Ry

     iteration #190     ecut=    80.00 Ry     beta= 0.10
     Davidson diagonalization with overlap
     ethr =  4.02E-10,  avg # of iterations =  1.0

     negative rho (up, down):  6.002E-02 0.000E+00

     total cpu time spent up to now is    54993.0 secs

     total energy              =  -11682.11001440 Ry
     estimated scf accuracy    <       0.00000381 Ry

     iteration #191     ecut=    80.00 Ry     beta= 0.10
     Davidson diagonalization with overlap
     ethr =  2.03E-10,  avg # of iterations =  1.0

     negative rho (up, down):  6.002E-02 0.000E+00

     total cpu time spent up to now is    55277.9 secs

     total energy              =  -11682.11001437 Ry
     estimated scf accuracy    <       0.00000942 Ry

     iteration #192     ecut=    80.00 Ry     beta= 0.10
     Davidson diagonalization with overlap
     ethr =  2.03E-10,  avg # of iterations =  1.0

     negative rho (up, down):  6.002E-02 0.000E+00

     total cpu time spent up to now is    55561.9 secs

     total energy              =  -11682.11001434 Ry
     estimated scf accuracy    <       0.00000952 Ry

     iteration #193     ecut=    80.00 Ry     beta= 0.10
     Davidson diagonalization with overlap
     ethr =  2.03E-10,  avg # of iterations =  1.0

     negative rho (up, down):  6.002E-02 0.000E+00

     total cpu time spent up to now is    55846.1 secs

     total energy              =  -11682.11001441 Ry
     estimated scf accuracy    <       0.00000824 Ry

     iteration #194     ecut=    80.00 Ry     beta= 0.10
     Davidson diagonalization with overlap
     ethr =  2.03E-10,  avg # of iterations =  1.0

     negative rho (up, down):  6.002E-02 0.000E+00

     total cpu time spent up to now is    56130.3 secs

     total energy              =  -11682.11001444 Ry
     estimated scf accuracy    <       0.00001054 Ry

     iteration #195     ecut=    80.00 Ry     beta= 0.10
     Davidson diagonalization with overlap
     ethr =  2.03E-10,  avg # of iterations =  1.0

     negative rho (up, down):  6.003E-02 0.000E+00

     total cpu time spent up to now is    56415.3 secs

     total energy              =  -11682.11001451 Ry
     estimated scf accuracy    <       0.00000667 Ry

     iteration #196     ecut=    80.00 Ry     beta= 0.10
     Davidson diagonalization with overlap
     ethr =  2.03E-10,  avg # of iterations =  1.0

     negative rho (up, down):  6.002E-02 0.000E+00

     total cpu time spent up to now is    56699.9 secs

     total energy              =  -11682.11001442 Ry
     estimated scf accuracy    <       0.00000653 Ry

     iteration #197     ecut=    80.00 Ry     beta= 0.10
     Davidson diagonalization with overlap
     ethr =  2.03E-10,  avg # of iterations =  1.0

     negative rho (up, down):  6.003E-02 0.000E+00

     total cpu time spent up to now is    56983.4 secs

     total energy              =  -11682.11001452 Ry
     estimated scf accuracy    <       0.00000772 Ry

     iteration #198     ecut=    80.00 Ry     beta= 0.10
     Davidson diagonalization with overlap
     ethr =  2.03E-10,  avg # of iterations =  1.0

     negative rho (up, down):  6.003E-02 0.000E+00

     total cpu time spent up to now is    57267.6 secs

     total energy              =  -11682.11001450 Ry
     estimated scf accuracy    <       0.00000550 Ry

     iteration #199     ecut=    80.00 Ry     beta= 0.10
     Davidson diagonalization with overlap
     ethr =  2.03E-10,  avg # of iterations =  1.0

     negative rho (up, down):  6.003E-02 0.000E+00

     total cpu time spent up to now is    57551.4 secs

     total energy              =  -11682.11001455 Ry
     estimated scf accuracy    <       0.00000487 Ry

     iteration #200     ecut=    80.00 Ry     beta= 0.10
     Davidson diagonalization with overlap
     ethr =  2.03E-10,  avg # of iterations =  1.0

     negative rho (up, down):  6.003E-02 0.000E+00

     total cpu time spent up to now is    57835.7 secs

     total energy              =  -11682.11001460 Ry
     estimated scf accuracy    <       0.00000153 Ry

     iteration #201     ecut=    80.00 Ry     beta= 0.10
     Davidson diagonalization with overlap
     ethr =  8.18E-11,  avg # of iterations =  1.0

     negative rho (up, down):  6.003E-02 0.000E+00

     total cpu time spent up to now is    58119.8 secs

     total energy              =  -11682.11001461 Ry
     estimated scf accuracy    <       0.00000294 Ry

     iteration #202     ecut=    80.00 Ry     beta= 0.10
     Davidson diagonalization with overlap
     ethr =  8.18E-11,  avg # of iterations =  1.0

     negative rho (up, down):  6.003E-02 0.000E+00

     total cpu time spent up to now is    58403.8 secs

     total energy              =  -11682.11001460 Ry
     estimated scf accuracy    <       0.00000323 Ry

     iteration #203     ecut=    80.00 Ry     beta= 0.10
     Davidson diagonalization with overlap
     ethr =  8.18E-11,  avg # of iterations =  1.0

     negative rho (up, down):  6.003E-02 0.000E+00

     total cpu time spent up to now is    58688.1 secs

     total energy              =  -11682.11001461 Ry
     estimated scf accuracy    <       0.00000388 Ry

     iteration #204     ecut=    80.00 Ry     beta= 0.10
     Davidson diagonalization with overlap
     ethr =  8.18E-11,  avg # of iterations =  1.0

     negative rho (up, down):  6.003E-02 0.000E+00

     total cpu time spent up to now is    58971.3 secs

     total energy              =  -11682.11001462 Ry
     estimated scf accuracy    <       0.00000546 Ry

     iteration #205     ecut=    80.00 Ry     beta= 0.10
     Davidson diagonalization with overlap
     ethr =  8.18E-11,  avg # of iterations =  1.0

     negative rho (up, down):  6.003E-02 0.000E+00

     total cpu time spent up to now is    59254.9 secs

     total energy              =  -11682.11001465 Ry
     estimated scf accuracy    <       0.00000326 Ry

     iteration #206     ecut=    80.00 Ry     beta= 0.10
     Davidson diagonalization with overlap
     ethr =  8.18E-11,  avg # of iterations =  1.0

     negative rho (up, down):  6.003E-02 0.000E+00

     total cpu time spent up to now is    59539.3 secs

     total energy              =  -11682.11001462 Ry
     estimated scf accuracy    <       0.00000342 Ry

     iteration #207     ecut=    80.00 Ry     beta= 0.10
     Davidson diagonalization with overlap
     ethr =  8.18E-11,  avg # of iterations =  1.0

     negative rho (up, down):  6.003E-02 0.000E+00

     total cpu time spent up to now is    59823.9 secs

     total energy              =  -11682.11001464 Ry
     estimated scf accuracy    <       0.00000770 Ry

     iteration #208     ecut=    80.00 Ry     beta= 0.10
     Davidson diagonalization with overlap
     ethr =  8.18E-11,  avg # of iterations =  1.0

     negative rho (up, down):  6.003E-02 0.000E+00

     total cpu time spent up to now is    60108.8 secs

     total energy              =  -11682.11001465 Ry
     estimated scf accuracy    <       0.00000341 Ry

     iteration #209     ecut=    80.00 Ry     beta= 0.10
     Davidson diagonalization with overlap
     ethr =  8.18E-11,  avg # of iterations =  1.0

     negative rho (up, down):  6.003E-02 0.000E+00

     total cpu time spent up to now is    60393.0 secs

     total energy              =  -11682.11001466 Ry
     estimated scf accuracy    <       0.00000435 Ry

     iteration #210     ecut=    80.00 Ry     beta= 0.10
     Davidson diagonalization with overlap
     ethr =  8.18E-11,  avg # of iterations =  1.0

     negative rho (up, down):  6.003E-02 0.000E+00

     total cpu time spent up to now is    60676.9 secs

     total energy              =  -11682.11001470 Ry
     estimated scf accuracy    <       0.00000094 Ry

     iteration #211     ecut=    80.00 Ry     beta= 0.10
     Davidson diagonalization with overlap
     ethr =  5.02E-11,  avg # of iterations =  1.0

     negative rho (up, down):  6.003E-02 0.000E+00

     total cpu time spent up to now is    60960.7 secs

     total energy              =  -11682.11001471 Ry
     estimated scf accuracy    <       0.00000106 Ry

     iteration #212     ecut=    80.00 Ry     beta= 0.10
     Davidson diagonalization with overlap
     ethr =  5.02E-11,  avg # of iterations =  1.0

     negative rho (up, down):  6.003E-02 0.000E+00

     total cpu time spent up to now is    61244.5 secs

     total energy              =  -11682.11001471 Ry
     estimated scf accuracy    <       0.00000110 Ry

     iteration #213     ecut=    80.00 Ry     beta= 0.10
     Davidson diagonalization with overlap
     ethr =  5.02E-11,  avg # of iterations =  1.0

     negative rho (up, down):  6.003E-02 0.000E+00

     total cpu time spent up to now is    61528.1 secs

     total energy              =  -11682.11001471 Ry
     estimated scf accuracy    <       0.00000150 Ry

     iteration #214     ecut=    80.00 Ry     beta= 0.10
     Davidson diagonalization with overlap
     ethr =  5.02E-11,  avg # of iterations =  1.0

     negative rho (up, down):  6.003E-02 0.000E+00

     total cpu time spent up to now is    61812.3 secs

     total energy              =  -11682.11001471 Ry
     estimated scf accuracy    <       0.00000224 Ry

     iteration #215     ecut=    80.00 Ry     beta= 0.10
     Davidson diagonalization with overlap
     ethr =  5.02E-11,  avg # of iterations =  1.0

     negative rho (up, down):  6.003E-02 0.000E+00

     total cpu time spent up to now is    62096.0 secs

     total energy              =  -11682.11001472 Ry
     estimated scf accuracy    <       0.00000133 Ry

     iteration #216     ecut=    80.00 Ry     beta= 0.10
     Davidson diagonalization with overlap
     ethr =  5.02E-11,  avg # of iterations =  1.0

     negative rho (up, down):  6.003E-02 0.000E+00

     total cpu time spent up to now is    62379.7 secs

     total energy              =  -11682.11001472 Ry
     estimated scf accuracy    <       0.00000170 Ry

     iteration #217     ecut=    80.00 Ry     beta= 0.10
     Davidson diagonalization with overlap
     ethr =  5.02E-11,  avg # of iterations =  1.0

     negative rho (up, down):  6.003E-02 0.000E+00

     total cpu time spent up to now is    62663.9 secs

     total energy              =  -11682.11001471 Ry
     estimated scf accuracy    <       0.00000520 Ry

     iteration #218     ecut=    80.00 Ry     beta= 0.10
     Davidson diagonalization with overlap
     ethr =  5.02E-11,  avg # of iterations =  1.0

     negative rho (up, down):  6.003E-02 0.000E+00

     total cpu time spent up to now is    62947.4 secs

     total energy              =  -11682.11001473 Ry
     estimated scf accuracy    <       0.00000170 Ry

     iteration #219     ecut=    80.00 Ry     beta= 0.10
     Davidson diagonalization with overlap
     ethr =  5.02E-11,  avg # of iterations =  1.0

     negative rho (up, down):  6.003E-02 0.000E+00

     total cpu time spent up to now is    63231.3 secs

     total energy              =  -11682.11001472 Ry
     estimated scf accuracy    <       0.00000363 Ry

     iteration #220     ecut=    80.00 Ry     beta= 0.10
     Davidson diagonalization with overlap
     ethr =  5.02E-11,  avg # of iterations =  1.0

     negative rho (up, down):  6.003E-02 0.000E+00

     total cpu time spent up to now is    63516.7 secs

     total energy              =  -11682.11001474 Ry
     estimated scf accuracy    <       0.00000087 Ry

     iteration #221     ecut=    80.00 Ry     beta= 0.10
     Davidson diagonalization with overlap
     ethr =  4.65E-11,  avg # of iterations =  1.0

     negative rho (up, down):  6.003E-02 0.000E+00

     total cpu time spent up to now is    63801.4 secs

     total energy              =  -11682.11001475 Ry
     estimated scf accuracy    <       0.00000062 Ry

     iteration #222     ecut=    80.00 Ry     beta= 0.10
     Davidson diagonalization with overlap
     ethr =  3.30E-11,  avg # of iterations =  1.0

     negative rho (up, down):  6.003E-02 0.000E+00

     total cpu time spent up to now is    64085.0 secs

     total energy              =  -11682.11001475 Ry
     estimated scf accuracy    <       0.00000053 Ry

     iteration #223     ecut=    80.00 Ry     beta= 0.10
     Davidson diagonalization with overlap
     ethr =  2.82E-11,  avg # of iterations =  1.0

     negative rho (up, down):  6.003E-02 0.000E+00

     total cpu time spent up to now is    64368.6 secs

     total energy              =  -11682.11001475 Ry
     estimated scf accuracy    <       0.00000068 Ry

     iteration #224     ecut=    80.00 Ry     beta= 0.10
     Davidson diagonalization with overlap
     ethr =  2.82E-11,  avg # of iterations =  1.0

     negative rho (up, down):  6.003E-02 0.000E+00

     total cpu time spent up to now is    64652.2 secs

     total energy              =  -11682.11001476 Ry
     estimated scf accuracy    <       0.00000096 Ry

     iteration #225     ecut=    80.00 Ry     beta= 0.10
     Davidson diagonalization with overlap
     ethr =  2.82E-11,  avg # of iterations =  1.0

     negative rho (up, down):  6.003E-02 0.000E+00

     total cpu time spent up to now is    64936.4 secs

     total energy              =  -11682.11001476 Ry
     estimated scf accuracy    <       0.00000054 Ry

     iteration #226     ecut=    80.00 Ry     beta= 0.10
     Davidson diagonalization with overlap
     ethr =  2.82E-11,  avg # of iterations =  1.0

     negative rho (up, down):  6.003E-02 0.000E+00

     total cpu time spent up to now is    65219.7 secs

     total energy              =  -11682.11001476 Ry
     estimated scf accuracy    <       0.00000078 Ry

     iteration #227     ecut=    80.00 Ry     beta= 0.10
     Davidson diagonalization with overlap
     ethr =  2.82E-11,  avg # of iterations =  1.0

     negative rho (up, down):  6.003E-02 0.000E+00

     total cpu time spent up to now is    65503.8 secs

     total energy              =  -11682.11001475 Ry
     estimated scf accuracy    <       0.00000190 Ry

     iteration #228     ecut=    80.00 Ry     beta= 0.10
     Davidson diagonalization with overlap
     ethr =  2.82E-11,  avg # of iterations =  1.0

     negative rho (up, down):  6.003E-02 0.000E+00

     total cpu time spent up to now is    65787.6 secs

     total energy              =  -11682.11001476 Ry
     estimated scf accuracy    <       0.00000067 Ry

     iteration #229     ecut=    80.00 Ry     beta= 0.10
     Davidson diagonalization with overlap
     ethr =  2.82E-11,  avg # of iterations =  1.0

     negative rho (up, down):  6.003E-02 0.000E+00

     total cpu time spent up to now is    66071.4 secs

     total energy              =  -11682.11001475 Ry
     estimated scf accuracy    <       0.00000218 Ry

     iteration #230     ecut=    80.00 Ry     beta= 0.10
     Davidson diagonalization with overlap
     ethr =  2.82E-11,  avg # of iterations =  1.0

     negative rho (up, down):  6.003E-02 0.000E+00

     total cpu time spent up to now is    66355.0 secs

     total energy              =  -11682.11001476 Ry
     estimated scf accuracy    <       0.00000093 Ry

     iteration #231     ecut=    80.00 Ry     beta= 0.10
     Davidson diagonalization with overlap
     ethr =  2.82E-11,  avg # of iterations =  1.0

     negative rho (up, down):  6.003E-02 0.000E+00

     total cpu time spent up to now is    66639.5 secs

     total energy              =  -11682.11001476 Ry
     estimated scf accuracy    <       0.00000045 Ry

     iteration #232     ecut=    80.00 Ry     beta= 0.10
     Davidson diagonalization with overlap
     ethr =  2.43E-11,  avg # of iterations =  1.0

     negative rho (up, down):  6.003E-02 0.000E+00

     total cpu time spent up to now is    66923.4 secs

     total energy              =  -11682.11001477 Ry
     estimated scf accuracy    <       0.00000038 Ry

     iteration #233     ecut=    80.00 Ry     beta= 0.10
     Davidson diagonalization with overlap
     ethr =  2.06E-11,  avg # of iterations =  1.0

     negative rho (up, down):  6.003E-02 0.000E+00

     total cpu time spent up to now is    67207.4 secs

     total energy              =  -11682.11001477 Ry
     estimated scf accuracy    <       0.00000043 Ry

     iteration #234     ecut=    80.00 Ry     beta= 0.10
     Davidson diagonalization with overlap
     ethr =  2.06E-11,  avg # of iterations =  1.0

     negative rho (up, down):  6.003E-02 0.000E+00

     total cpu time spent up to now is    67490.8 secs

     total energy              =  -11682.11001477 Ry
     estimated scf accuracy    <       0.00000055 Ry

     iteration #235     ecut=    80.00 Ry     beta= 0.10
     Davidson diagonalization with overlap
     ethr =  2.06E-11,  avg # of iterations =  1.0

     negative rho (up, down):  6.003E-02 0.000E+00

     total cpu time spent up to now is    67774.7 secs

     total energy              =  -11682.11001477 Ry
     estimated scf accuracy    <       0.00000027 Ry

     iteration #236     ecut=    80.00 Ry     beta= 0.10
     Davidson diagonalization with overlap
     ethr =  1.44E-11,  avg # of iterations =  1.0

     negative rho (up, down):  6.003E-02 0.000E+00

     total cpu time spent up to now is    68058.8 secs

     total energy              =  -11682.11001478 Ry
     estimated scf accuracy    <       0.00000035 Ry

     iteration #237     ecut=    80.00 Ry     beta= 0.10
     Davidson diagonalization with overlap
     ethr =  1.44E-11,  avg # of iterations =  1.0

     negative rho (up, down):  6.003E-02 0.000E+00

     total cpu time spent up to now is    68342.7 secs

     total energy              =  -11682.11001477 Ry
     estimated scf accuracy    <       0.00000048 Ry

     iteration #238     ecut=    80.00 Ry     beta= 0.10
     Davidson diagonalization with overlap
     ethr =  1.44E-11,  avg # of iterations =  1.0

     negative rho (up, down):  6.003E-02 0.000E+00

     total cpu time spent up to now is    68626.9 secs

     total energy              =  -11682.11001477 Ry
     estimated scf accuracy    <       0.00000025 Ry

     iteration #239     ecut=    80.00 Ry     beta= 0.10
     Davidson diagonalization with overlap
     ethr =  1.34E-11,  avg # of iterations =  1.0

     negative rho (up, down):  6.003E-02 0.000E+00

     total cpu time spent up to now is    68910.5 secs

     total energy              =  -11682.11001477 Ry
     estimated scf accuracy    <       0.00000083 Ry

     iteration #240     ecut=    80.00 Ry     beta= 0.10
     Davidson diagonalization with overlap
     ethr =  1.34E-11,  avg # of iterations =  1.0

     negative rho (up, down):  6.003E-02 0.000E+00

     total cpu time spent up to now is    69195.4 secs

     total energy              =  -11682.11001477 Ry
     estimated scf accuracy    <       0.00000080 Ry

     iteration #241     ecut=    80.00 Ry     beta= 0.10
     Davidson diagonalization with overlap
     ethr =  1.34E-11,  avg # of iterations =  1.0

     negative rho (up, down):  6.003E-02 0.000E+00

     total cpu time spent up to now is    69479.2 secs

     total energy              =  -11682.11001478 Ry
     estimated scf accuracy    <       0.00000027 Ry

     iteration #242     ecut=    80.00 Ry     beta= 0.10
     Davidson diagonalization with overlap
     ethr =  1.34E-11,  avg # of iterations =  1.0

     negative rho (up, down):  6.003E-02 0.000E+00

     total cpu time spent up to now is    69764.3 secs

     total energy              =  -11682.11001478 Ry
     estimated scf accuracy    <       0.00000030 Ry

     iteration #243     ecut=    80.00 Ry     beta= 0.10
     Davidson diagonalization with overlap
     ethr =  1.34E-11,  avg # of iterations =  1.0

     negative rho (up, down):  6.003E-02 0.000E+00

     total cpu time spent up to now is    70048.2 secs

     total energy              =  -11682.11001478 Ry
     estimated scf accuracy    <       0.00000030 Ry

     iteration #244     ecut=    80.00 Ry     beta= 0.10
     Davidson diagonalization with overlap
     ethr =  1.34E-11,  avg # of iterations =  1.0

     negative rho (up, down):  6.003E-02 0.000E+00

     total cpu time spent up to now is    70332.4 secs

     total energy              =  -11682.11001478 Ry
     estimated scf accuracy    <       0.00000039 Ry

     iteration #245     ecut=    80.00 Ry     beta= 0.10
     Davidson diagonalization with overlap
     ethr =  1.34E-11,  avg # of iterations =  1.0

     negative rho (up, down):  6.003E-02 0.000E+00

     total cpu time spent up to now is    70615.9 secs

     total energy              =  -11682.11001478 Ry
     estimated scf accuracy    <       0.00000017 Ry

     iteration #246     ecut=    80.00 Ry     beta= 0.10
     Davidson diagonalization with overlap
     ethr =  9.32E-12,  avg # of iterations =  1.0

     negative rho (up, down):  6.003E-02 0.000E+00

     total cpu time spent up to now is    70899.8 secs

     total energy              =  -11682.11001478 Ry
     estimated scf accuracy    <       0.00000021 Ry

     iteration #247     ecut=    80.00 Ry     beta= 0.10
     Davidson diagonalization with overlap
     ethr =  9.32E-12,  avg # of iterations =  1.0

     negative rho (up, down):  6.003E-02 0.000E+00

     total cpu time spent up to now is    71183.6 secs

     total energy              =  -11682.11001478 Ry
     estimated scf accuracy    <       0.00000014 Ry

     iteration #248     ecut=    80.00 Ry     beta= 0.10
     Davidson diagonalization with overlap
     ethr =  7.59E-12,  avg # of iterations =  1.0

     negative rho (up, down):  6.003E-02 0.000E+00

     total cpu time spent up to now is    71467.2 secs

     total energy              =  -11682.11001478 Ry
     estimated scf accuracy    <       0.00000012 Ry

     iteration #249     ecut=    80.00 Ry     beta= 0.10
     Davidson diagonalization with overlap
     ethr =  6.33E-12,  avg # of iterations =  1.0

     negative rho (up, down):  6.003E-02 0.000E+00

     total cpu time spent up to now is    71751.4 secs

     total energy              =  -11682.11001478 Ry
     estimated scf accuracy    <       0.00000013 Ry

     iteration #250     ecut=    80.00 Ry     beta= 0.10
     Davidson diagonalization with overlap
     ethr =  6.33E-12,  avg # of iterations =  1.0

     negative rho (up, down):  6.003E-02 0.000E+00

     total cpu time spent up to now is    72035.8 secs

     total energy              =  -11682.11001477 Ry
     estimated scf accuracy    <       0.00000056 Ry

     iteration #251     ecut=    80.00 Ry     beta= 0.10
     Davidson diagonalization with overlap
     ethr =  6.33E-12,  avg # of iterations =  1.0

     negative rho (up, down):  6.003E-02 0.000E+00

     total cpu time spent up to now is    72319.6 secs

     total energy              =  -11682.11001478 Ry
     estimated scf accuracy    <       0.00000018 Ry

     iteration #252     ecut=    80.00 Ry     beta= 0.10
     Davidson diagonalization with overlap
     ethr =  6.33E-12,  avg # of iterations =  1.0

     negative rho (up, down):  6.003E-02 0.000E+00

     total cpu time spent up to now is    72603.4 secs

     total energy              =  -11682.11001478 Ry
     estimated scf accuracy    <       0.00000019 Ry

     iteration #253     ecut=    80.00 Ry     beta= 0.10
     Davidson diagonalization with overlap
     ethr =  6.33E-12,  avg # of iterations =  1.0

     negative rho (up, down):  6.003E-02 0.000E+00

     total cpu time spent up to now is    72887.7 secs

     total energy              =  -11682.11001478 Ry
     estimated scf accuracy    <       0.00000016 Ry

     iteration #254     ecut=    80.00 Ry     beta= 0.10
     Davidson diagonalization with overlap
     ethr =  6.33E-12,  avg # of iterations =  1.0

     negative rho (up, down):  6.003E-02 0.000E+00

     total cpu time spent up to now is    73171.6 secs

     total energy              =  -11682.11001478 Ry
     estimated scf accuracy    <       0.00000029 Ry

     iteration #255     ecut=    80.00 Ry     beta= 0.10
     Davidson diagonalization with overlap
     ethr =  6.33E-12,  avg # of iterations =  1.0

     negative rho (up, down):  6.003E-02 0.000E+00

     total cpu time spent up to now is    73455.5 secs

     total energy              =  -11682.11001478 Ry
     estimated scf accuracy    <       0.00000012 Ry

     iteration #256     ecut=    80.00 Ry     beta= 0.10
     Davidson diagonalization with overlap
     ethr =  6.33E-12,  avg # of iterations =  1.0

     negative rho (up, down):  6.003E-02 0.000E+00

     total cpu time spent up to now is    73739.7 secs

     total energy              =  -11682.11001478 Ry
     estimated scf accuracy    <       0.00000020 Ry

     iteration #257     ecut=    80.00 Ry     beta= 0.10
     Davidson diagonalization with overlap
     ethr =  6.33E-12,  avg # of iterations =  1.0

     negative rho (up, down):  6.003E-02 0.000E+00

     total cpu time spent up to now is    74023.5 secs

     total energy              =  -11682.11001478 Ry
     estimated scf accuracy    <       0.00000007 Ry

     iteration #258     ecut=    80.00 Ry     beta= 0.10
     Davidson diagonalization with overlap
     ethr =  3.97E-12,  avg # of iterations =  1.0

     negative rho (up, down):  6.003E-02 0.000E+00

     total cpu time spent up to now is    74307.3 secs

     total energy              =  -11682.11001478 Ry
     estimated scf accuracy    <       0.00000006 Ry

     iteration #259     ecut=    80.00 Ry     beta= 0.10
     Davidson diagonalization with overlap
     ethr =  3.28E-12,  avg # of iterations =  1.0

     negative rho (up, down):  6.003E-02 0.000E+00

     total cpu time spent up to now is    74591.5 secs

     total energy              =  -11682.11001478 Ry
     estimated scf accuracy    <       0.00000004 Ry

     iteration #260     ecut=    80.00 Ry     beta= 0.10
     Davidson diagonalization with overlap
     ethr =  2.15E-12,  avg # of iterations =  1.0

     negative rho (up, down):  6.003E-02 0.000E+00

     total cpu time spent up to now is    74875.6 secs

     total energy              =  -11682.11001478 Ry
     estimated scf accuracy    <       0.00000020 Ry

     iteration #261     ecut=    80.00 Ry     beta= 0.10
     Davidson diagonalization with overlap
     ethr =  2.15E-12,  avg # of iterations =  1.0

     negative rho (up, down):  6.003E-02 0.000E+00

     total cpu time spent up to now is    75160.2 secs

     total energy              =  -11682.11001478 Ry
     estimated scf accuracy    <       0.00000009 Ry

     iteration #262     ecut=    80.00 Ry     beta= 0.10
     Davidson diagonalization with overlap
     ethr =  2.15E-12,  avg # of iterations =  1.0

     negative rho (up, down):  6.003E-02 0.000E+00

     total cpu time spent up to now is    75443.9 secs

     total energy              =  -11682.11001477 Ry
     estimated scf accuracy    <       0.00000009 Ry

     iteration #263     ecut=    80.00 Ry     beta= 0.10
     Davidson diagonalization with overlap
     ethr =  2.15E-12,  avg # of iterations =  1.0

     negative rho (up, down):  6.003E-02 0.000E+00

     total cpu time spent up to now is    75727.2 secs

     total energy              =  -11682.11001477 Ry
     estimated scf accuracy    <       0.00000006 Ry

     iteration #264     ecut=    80.00 Ry     beta= 0.10
     Davidson diagonalization with overlap
     ethr =  2.15E-12,  avg # of iterations =  1.0

     negative rho (up, down):  6.003E-02 0.000E+00

     total cpu time spent up to now is    76011.9 secs

     total energy              =  -11682.11001477 Ry
     estimated scf accuracy    <       0.00000016 Ry

     iteration #265     ecut=    80.00 Ry     beta= 0.10
     Davidson diagonalization with overlap
     ethr =  2.15E-12,  avg # of iterations =  1.0

     negative rho (up, down):  6.003E-02 0.000E+00

     total cpu time spent up to now is    76297.3 secs

     total energy              =  -11682.11001477 Ry
     estimated scf accuracy    <       0.00000008 Ry

     iteration #266     ecut=    80.00 Ry     beta= 0.10
     Davidson diagonalization with overlap
     ethr =  2.15E-12,  avg # of iterations =  1.0

     negative rho (up, down):  6.003E-02 0.000E+00

     total cpu time spent up to now is    76581.3 secs

     total energy              =  -11682.11001477 Ry
     estimated scf accuracy    <       0.00000025 Ry

     iteration #267     ecut=    80.00 Ry     beta= 0.10
     Davidson diagonalization with overlap
     ethr =  2.15E-12,  avg # of iterations =  1.0

     negative rho (up, down):  6.003E-02 0.000E+00

     total cpu time spent up to now is    76865.2 secs

     total energy              =  -11682.11001477 Ry
     estimated scf accuracy    <       0.00000005 Ry

     iteration #268     ecut=    80.00 Ry     beta= 0.10
     Davidson diagonalization with overlap
     ethr =  2.15E-12,  avg # of iterations =  1.0

     negative rho (up, down):  6.003E-02 0.000E+00

     total cpu time spent up to now is    77149.4 secs

     total energy              =  -11682.11001477 Ry
     estimated scf accuracy    <       0.00000004 Ry

     iteration #269     ecut=    80.00 Ry     beta= 0.10
     Davidson diagonalization with overlap
     ethr =  2.15E-12,  avg # of iterations =  1.0

     negative rho (up, down):  6.003E-02 0.000E+00

     total cpu time spent up to now is    77434.3 secs

     total energy              =  -11682.11001477 Ry
     estimated scf accuracy    <       0.00000002 Ry

     iteration #270     ecut=    80.00 Ry     beta= 0.10
     Davidson diagonalization with overlap
     ethr =  9.65E-13,  avg # of iterations =  1.0

     negative rho (up, down):  6.003E-02 0.000E+00

     total cpu time spent up to now is    77717.3 secs

     total energy              =  -11682.11001477 Ry
     estimated scf accuracy    <       0.00000007 Ry

     iteration #271     ecut=    80.00 Ry     beta= 0.10
     Davidson diagonalization with overlap
     ethr =  9.65E-13,  avg # of iterations =  1.0

     negative rho (up, down):  6.003E-02 0.000E+00

     total cpu time spent up to now is    78001.0 secs

     total energy              =  -11682.11001477 Ry
     estimated scf accuracy    <       0.00000004 Ry

     iteration #272     ecut=    80.00 Ry     beta= 0.10
     Davidson diagonalization with overlap
     ethr =  9.65E-13,  avg # of iterations =  1.0

     negative rho (up, down):  6.003E-02 0.000E+00

     total cpu time spent up to now is    78285.4 secs

     total energy              =  -11682.11001477 Ry
     estimated scf accuracy    <       0.00000003 Ry

     iteration #273     ecut=    80.00 Ry     beta= 0.10
     Davidson diagonalization with overlap
     ethr =  9.65E-13,  avg # of iterations =  1.0

     negative rho (up, down):  6.003E-02 0.000E+00

     total cpu time spent up to now is    78569.3 secs

     total energy              =  -11682.11001477 Ry
     estimated scf accuracy    <       0.00000002 Ry

     iteration #274     ecut=    80.00 Ry     beta= 0.10
     Davidson diagonalization with overlap
     ethr =  9.65E-13,  avg # of iterations =  1.0

     negative rho (up, down):  6.003E-02 0.000E+00

     total cpu time spent up to now is    78852.8 secs

     total energy              =  -11682.11001477 Ry
     estimated scf accuracy    <       0.00000007 Ry

     iteration #275     ecut=    80.00 Ry     beta= 0.10
     Davidson diagonalization with overlap
     ethr =  9.65E-13,  avg # of iterations =  1.0

     negative rho (up, down):  6.003E-02 0.000E+00

     total cpu time spent up to now is    79136.8 secs

     total energy              =  -11682.11001477 Ry
     estimated scf accuracy    <       0.00000004 Ry

     iteration #276     ecut=    80.00 Ry     beta= 0.10
     Davidson diagonalization with overlap
     ethr =  9.65E-13,  avg # of iterations =  1.0

     negative rho (up, down):  6.004E-02 0.000E+00

     total cpu time spent up to now is    79420.1 secs

     total energy              =  -11682.11001477 Ry
     estimated scf accuracy    <       0.00000022 Ry

     iteration #277     ecut=    80.00 Ry     beta= 0.10
     Davidson diagonalization with overlap
     ethr =  9.65E-13,  avg # of iterations =  1.0

     negative rho (up, down):  6.003E-02 0.000E+00

     total cpu time spent up to now is    79704.6 secs

     total energy              =  -11682.11001477 Ry
     estimated scf accuracy    <       0.00000003 Ry

     iteration #278     ecut=    80.00 Ry     beta= 0.10
     Davidson diagonalization with overlap
     ethr =  9.65E-13,  avg # of iterations =  1.0

     negative rho (up, down):  6.004E-02 0.000E+00

     total cpu time spent up to now is    79987.9 secs

     total energy              =  -11682.11001477 Ry
     estimated scf accuracy    <       0.00000004 Ry

     iteration #279     ecut=    80.00 Ry     beta= 0.10
     Davidson diagonalization with overlap
     ethr =  9.65E-13,  avg # of iterations =  1.0

     negative rho (up, down):  6.004E-02 0.000E+00

     total cpu time spent up to now is    80271.8 secs

     total energy              =  -11682.11001477 Ry
     estimated scf accuracy    <       0.00000001 Ry

     iteration #280     ecut=    80.00 Ry     beta= 0.10
     Davidson diagonalization with overlap
     ethr =  6.21E-13,  avg # of iterations =  1.0

     negative rho (up, down):  6.004E-02 0.000E+00

     total cpu time spent up to now is    80557.6 secs

     total energy              =  -11682.11001477 Ry
     estimated scf accuracy    <       0.00000003 Ry

     iteration #281     ecut=    80.00 Ry     beta= 0.10
     Davidson diagonalization with overlap
     ethr =  6.21E-13,  avg # of iterations =  1.0

     negative rho (up, down):  6.004E-02 0.000E+00

     total cpu time spent up to now is    80842.7 secs

     total energy              =  -11682.11001477 Ry
     estimated scf accuracy    <       0.00000002 Ry

     iteration #282     ecut=    80.00 Ry     beta= 0.10
     Davidson diagonalization with overlap
     ethr =  6.21E-13,  avg # of iterations =  1.0

     negative rho (up, down):  6.004E-02 0.000E+00

     total cpu time spent up to now is    81126.4 secs

     total energy              =  -11682.11001477 Ry
     estimated scf accuracy    <       0.00000001 Ry

     iteration #283     ecut=    80.00 Ry     beta= 0.10
     Davidson diagonalization with overlap
     ethr =  6.21E-13,  avg # of iterations =  1.0

     negative rho (up, down):  6.004E-02 0.000E+00

     total cpu time spent up to now is    81411.3 secs

     End of self-consistent calculation

          k = 0.0000 0.0000 0.0000 (****** PWs)   bands (ev):

   -57.9625 -56.1929 -55.8562 -55.8257 -55.6196 -55.5821 -55.0247 -55.0001
   -54.7528 -54.4989 -53.8660 -29.8891 -29.8718 -29.8340 -28.1437 -28.1010
   -28.0598 -27.7895 -27.7818 -27.7623 -27.7438 -27.7419 -27.7208 -27.5529
   -27.5499 -27.5250 -27.4875 -27.4842 -27.4556 -27.1248 -26.9955 -26.9532
   -26.9354 -26.9006 -26.8920 -26.8716 -26.7451 -26.6937 -26.6531 -26.4752
   -26.4365 -26.3814 -26.2521 -26.1185 -25.8698 -25.8170 -25.7887 -25.7707
   -25.7617 -25.7519 -25.6077 -25.5764 -25.5554 -25.5501 -25.4472 -25.3597
   -25.2918 -25.2325 -25.1834 -25.1259 -25.1029 -25.0502 -25.0260 -25.0082
   -24.9979 -24.9877 -24.9428 -24.9013 -24.8909 -24.8803 -24.8451 -24.8445
   -24.7958 -24.7806 -24.7524 -24.7290 -24.7024 -24.6630 -24.6407 -24.6206
   -24.6030 -24.6004 -24.5657 -24.5449 -24.5300 -24.5058 -24.4835 -24.4484
   -24.4351 -24.4006 -24.3969 -24.3737 -24.3584 -24.3303 -24.3215 -24.2983
   -24.2879 -24.2613 -24.2524 -24.2394 -24.2106 -24.2049 -24.1793 -24.1686
   -24.1457 -24.1192 -24.0998 -24.0921 -24.0757 -24.0562 -24.0437 -24.0150
   -23.9854 -23.9708 -23.9576 -23.9365 -23.9215 -23.8941 -23.8652 -23.8615
   -23.8078 -23.7871 -23.7835 -23.7681 -23.7510 -23.7356 -23.7268 -23.7151
   -23.6988 -23.6937 -23.6868 -23.6785 -23.6696 -23.6609 -23.6299 -23.6167
   -23.6026 -23.5967 -23.5821 -23.5577 -23.5504 -23.5382 -23.5190 -23.5081
   -23.4976 -23.4835 -23.4679 -23.4381 -23.4096 -23.3994 -23.3833 -23.3811
   -23.3537 -23.3401 -23.3366 -23.3030 -23.2958 -23.2836 -23.2730 -23.2547
   -23.2432 -23.2159 -23.2077 -23.1886 -23.1792 -23.1499 -23.1408 -23.1201
   -23.1182 -23.0947 -23.0843 -23.0758 -23.0555 -23.0460 -23.0443 -23.0307
   -23.0130 -23.0054 -22.9893 -22.9525 -22.9248 -22.9057 -22.8994 -22.8838
   -22.8741 -22.8531 -22.8388 -22.8266 -22.8230 -22.7949 -22.7867 -22.7698
   -22.7612 -22.7444 -22.7071 -22.6983 -22.6954 -22.6917 -22.6585 -22.6539
   -22.6334 -22.5579 -22.5204 -22.5132 -22.4682 -22.4470 -22.3925 -22.3881
   -22.3832 -22.3787 -22.3741 -22.3210 -22.2587 -22.2384 -22.2318 -22.2128
   -22.2016 -22.1675 -22.1059 -22.0236 -21.9788 -21.9707 -21.9295 -21.8315
   -21.6444 -21.5746 -21.5703 -21.5528 -21.5003 -21.4461 -21.4210 -21.3871
   -21.3191 -21.3005 -20.6468 -20.5903 -20.5568 -20.5490 -20.5475 -20.5188
   -20.5172 -20.4646 -20.4642 -20.3547 -20.3365 -20.1566 -20.0734 -20.0651
   -20.0073 -19.8217 -19.7285 -19.7261 -19.7238 -19.7120 -19.7061 -19.7041
   -19.7032 -19.6745 -19.6690 -19.6588 -19.5963 -18.8731 -18.5153 -17.6493
   -16.8900 -16.0983 -15.3394 -15.2048 -15.1406 -15.0698 -14.9622 -14.8832
   -14.8483 -14.7771 -14.7420 -14.6981 -14.6494 -14.5825 -14.5739 -14.5233
   -14.4986 -14.4127 -14.3334 -14.2801 -14.2022 -14.1734 -14.1206 -14.0923
   -14.0231 -13.9998 -13.9784 -13.9505 -13.9127 -13.8964 -13.8723 -13.8068
   -13.7885 -13.7434 -13.7356 -13.6808 -13.6524 -13.5979 -13.5286 -13.5152
   -13.4640 -13.4372 -13.4336 -13.4138 -13.3660 -13.3148 -13.2901 -13.2787
   -13.2104 -13.2051 -13.2035 -13.1456 -13.1220 -13.0807 -13.0735 -13.0442
   -13.0003 -12.9835 -12.9538 -12.9199 -12.8964 -12.8768 -12.8421 -12.8188
   -12.7939 -12.7648 -12.7264 -12.7164 -12.6593 -12.6397 -12.6198 -12.5428
   -12.5320 -12.5110 -12.4750 -12.4344 -12.4062 -12.3666 -12.3528 -12.3189
   -12.3093 -12.2913 -12.2835 -12.2207 -12.2031 -12.1589 -12.1380 -12.1176
   -12.0755 -12.0330 -12.0142 -11.9913 -11.9702 -11.9398 -11.9083 -11.8797
   -11.8580 -11.8448 -11.8191 -11.8001 -11.7757 -11.7412 -11.7324 -11.6956
   -11.6933 -11.6847 -11.6380 -11.6269 -11.5926 -11.5894 -11.5738 -11.5591
   -11.5360 -11.5283 -11.5095 -11.4871 -11.4734 -11.4572 -11.4534 -11.4365
   -11.4169 -11.4051 -11.3773 -11.3679 -11.3633 -11.3244 -11.3044 -11.2875
   -11.2657 -11.2579 -11.2406 -11.2066 -11.1882 -11.1638 -11.1577 -11.1366
   -11.1359 -11.1315 -11.1118 -11.0904 -11.0767 -11.0613 -11.0569 -11.0306
   -10.9826 -10.9793 -10.9533 -10.9421 -10.9194 -10.8932 -10.8845 -10.8725
   -10.8681 -10.8460 -10.8438 -10.8400 -10.8184 -10.8152 -10.8040 -10.7718
   -10.7692 -10.7329 -10.7114 -10.7014 -10.6842 -10.6828 -10.6532 -10.6452
   -10.6069 -10.5737 -10.5577 -10.5551 -10.5396 -10.5281 -10.5107 -10.4812
   -10.4661 -10.4528 -10.4220 -10.3817 -10.3711 -10.3249 -10.3018 -10.2878
   -10.2732 -10.2253 -10.2033 -10.1981 -10.1747 -10.1561 -10.1030 -10.0673
   -10.0648 -10.0395 -10.0216  -9.9835  -9.9534  -9.9036  -9.8895  -9.8675
    -9.8524  -9.8281  -9.8025  -9.7887  -9.7771  -9.7561  -9.7329  -9.7105
    -9.6590  -9.6401  -9.5829  -9.5785  -9.5611  -9.5352  -9.5211  -9.5054
    -9.4885  -9.4753  -9.4585  -9.4441  -9.4113  -9.3897  -9.3646  -9.3565
    -9.3308  -9.3265  -9.3168  -9.3161  -9.3039  -9.2948  -9.2880  -9.2823
    -9.2373  -9.2217  -9.2151  -9.1806  -9.1714  -9.1618  -9.1395  -9.1320
    -9.1135  -9.0995  -9.0702  -9.0504  -9.0350  -9.0097  -9.0081  -8.9678
    -8.9592  -8.9339  -8.9029  -8.9013  -8.8736  -8.8578  -8.8485  -8.8400
    -8.8310  -8.8163  -8.7978  -8.7765  -8.7638  -8.7549  -8.7311  -8.7256
    -8.7140  -8.7020  -8.6925  -8.6771  -8.6574  -8.6531  -8.6505  -8.6357
    -8.6309  -8.6139  -8.5857  -8.5795  -8.5629  -8.5623  -8.5455  -8.5438
    -8.5343  -8.5309  -8.5260  -8.5077  -8.5030  -8.4924  -8.4823  -8.4680
    -8.4565  -8.4484  -8.4365  -8.4254  -8.4091  -8.3880  -8.3835  -8.3769
    -8.3660  -8.3591  -8.3532  -8.3379  -8.3248  -8.3195  -8.3048  -8.2967
    -8.2895  -8.2775  -8.2617  -8.2556  -8.2403  -8.2332  -8.2275  -8.2148
    -8.2075  -8.1954  -8.1860  -8.1693  -8.1647  -8.1563  -8.1386  -8.1335
    -8.1327  -8.1210  -8.1008  -8.0823  -8.0747  -8.0643  -8.0552  -8.0414
    -8.0291  -8.0278  -8.0205  -8.0122  -7.9975  -7.9892  -7.9808  -7.9776
    -7.9724  -7.9518  -7.9417  -7.9355  -7.9320  -7.9091  -7.9045  -7.9013
    -7.8775  -7.8738  -7.8611  -7.8510  -7.8434  -7.8314  -7.8271  -7.8151
    -7.8137  -7.7983  -7.7933  -7.7840  -7.7694  -7.7655  -7.7552  -7.7420
    -7.7384  -7.7319  -7.7257  -7.7108  -7.7079  -7.6946  -7.6863  -7.6717
    -7.6664  -7.6642  -7.6455  -7.6382  -7.6326  -7.6187  -7.6142  -7.6060
    -7.5911  -7.5887  -7.5769  -7.5672  -7.5642  -7.5459  -7.5432  -7.5304
    -7.5271  -7.5053  -7.4983  -7.4941  -7.4850  -7.4746  -7.4598  -7.4582
    -7.4428  -7.4380  -7.4330  -7.4172  -7.4101  -7.3989  -7.3933  -7.3779
    -7.3725  -7.3694  -7.3649  -7.3565  -7.3501  -7.3198  -7.3061  -7.2915
    -7.2845  -7.2822  -7.2777  -7.2666  -7.2534  -7.2475  -7.2394  -7.2236
    -7.2168  -7.2037  -7.1954  -7.1808  -7.1776  -7.1752  -7.1672  -7.1556
    -7.1461  -7.1327  -7.1236  -7.1113  -7.1049  -7.0864  -7.0766  -7.0698
    -7.0562  -7.0534  -7.0410  -7.0312  -7.0205  -7.0127  -7.0011  -6.9965
    -6.9858  -6.9817  -6.9735  -6.9575  -6.9506  -6.9457  -6.9288  -6.9160
    -6.8987  -6.8901  -6.8800  -6.8673  -6.8571  -6.8465  -6.8365  -6.8336
    -6.8207  -6.8171  -6.8013  -6.7821  -6.7757  -6.7679  -6.7594  -6.7478
    -6.7363  -6.7259  -6.7162  -6.7090  -6.7008  -6.6892  -6.6780  -6.6734
    -6.6661  -6.6528  -6.6443  -6.6298  -6.6191  -6.6128  -6.5997  -6.5902
    -6.5834  -6.5819  -6.5804  -6.5758  -6.5485  -6.5459  -6.5258  -6.5074
    -6.4973  -6.4842  -6.4780  -6.4733  -6.4607  -6.4595  -6.4453  -6.4404
    -6.4275  -6.4274  -6.4243  -6.4124  -6.3990  -6.3943  -6.3807  -6.3714
    -6.3660  -6.3471  -6.3427  -6.3385  -6.3215  -6.3120  -6.2982  -6.2893
    -6.2749  -6.2719  -6.2587  -6.2463  -6.2386  -6.2317  -6.2178  -6.2120
    -6.2049  -6.1857  -6.1732  -6.1678  -6.1584  -6.1352  -6.1334  -6.1005
    -6.0901  -6.0762  -6.0686  -6.0547  -6.0495  -6.0284  -6.0253  -6.0035
    -5.9871  -5.9798  -5.9658  -5.9481  -5.9429  -5.9330  -5.9315  -5.9173
    -5.9088  -5.8999  -5.8778  -5.8711  -5.8591  -5.8394  -5.8346  -5.8311
    -5.8202  -5.8039  -5.7885  -5.7744  -5.7682  -5.7597  -5.7384  -5.7199
    -5.7182  -5.7123  -5.7092  -5.6933  -5.6787  -5.6753  -5.6686  -5.6462
    -5.6417  -5.6194  -5.5978  -5.5915  -5.5901  -5.5780  -5.5658  -5.5594
    -5.5352  -5.5092  -5.4887  -5.4717  -5.4593  -5.4486  -5.4393  -5.4299
    -5.4013  -5.3882  -5.3818  -5.3675  -5.3365  -5.3324  -5.3289  -5.3261
    -5.3190  -5.3061  -5.2716  -5.2601  -5.2444  -5.2255  -5.2117  -5.2012
    -5.1645  -5.1455  -5.1328  -5.1065  -5.0668  -5.0578  -5.0459  -5.0235
    -4.9981  -4.9618  -4.8688  -4.8481  -4.8337  -4.8329  -4.8204  -4.8058
    -4.7573  -4.7302  -4.7183  -4.7070  -4.6782  -4.6568  -4.6025  -4.5969
    -4.5784  -4.5006  -4.4750  -4.4522  -4.4467  -4.4409  -4.4336  -4.4200
    -4.3366  -4.2464  -4.2018  -4.1965  -4.1377  -4.1015  -4.0414  -4.0316
    -4.0233  -4.0104  -4.0046  -3.9675  -3.9517  -3.9287  -3.9151  -3.9059
    -3.8958  -3.8889  -3.8785  -3.8444  -3.8424  -3.8360  -3.8251  -3.8194
    -3.8116  -3.8077  -3.8049  -3.7965  -3.7927  -3.7908  -3.7821  -3.7789
    -3.7748  -3.7710  -3.7562  -3.7411  -3.7348  -3.7285  -3.7189  -3.7149
    -3.7051  -3.7039  -3.6728  -3.6602  -3.6430  -3.6243  -3.6236  -3.6102
    -3.5269  -3.4437  -3.3852  -3.3398  -3.3090  -3.2792  -3.1785  -3.1034
    -2.7366  -2.6189  -2.2077  -1.9790  -1.5506  -0.6086  -0.6078  -0.4628
    -0.4161  -0.4026  -0.2636  -0.2450  -0.1656  -0.1017  -0.0216   0.0086
     0.0494   0.1614   0.2552   0.3563   0.3950   0.4743   0.5431   0.6347
     0.6851   0.7162   0.7464   0.7788   0.8364   0.8862   0.9455   0.9859
     0.9889   1.0314   1.0666   1.1043   1.1457   1.1560   1.2120   1.2198
     1.2534   1.2867   1.3070   1.3158   1.3507   1.3723   1.3829   1.4022
     1.4280   1.4492   1.4640   1.4856   1.5004   1.5337   1.5681   1.6222
     1.6294   1.6492   1.6568   1.6807   1.6863   1.6958   1.7124   1.7475
     1.7479   1.7519   1.7775   1.8038   1.8347   1.8417   1.8719   1.8824
     1.9092   1.9255   1.9459   1.9585   1.9701   1.9835   1.9889   2.0019
     2.0157   2.0494   2.0592   2.0798   2.0921   2.1009   2.1094   2.1206
     2.1249   2.1307   2.1402   2.1675   2.1785   2.1802   2.1864   2.1869
     2.1984   2.2084   2.2213   2.2337   2.2398   2.2480   2.2671   2.2811
     2.2883   2.3156   2.3236   2.3384   2.3410   2.3535   2.3732   2.3835
     2.3931   2.3996   2.4188   2.4223   2.4344   2.4529   2.4730   2.4792
     2.4866   2.4910   2.5014   2.5156   2.5221   2.5283   2.5356   2.5496
     2.5526   2.5558   2.5641   2.5716   2.5856   2.6018   2.6181   2.6240
     2.6316   2.6479   2.6520   2.6578   2.6660   2.6741   2.6778   2.6845
     2.6987   2.7124   2.7235   2.7255   2.7289   2.7381   2.7599   2.7710
     2.7855   2.7922   2.7935   2.7944   2.8117   2.8261   2.8361   2.8435
     2.8510   2.8576   2.8690   2.8789   2.8821   2.8962   2.8983   2.9124
     2.9221   2.9319   2.9508

     the Fermi energy is    -3.6789 ev

!    total energy              =  -11682.11001475 Ry
     estimated scf accuracy    <          8.6E-09 Ry
     smearing contrib. (-TS)   =      -0.11121596 Ry
     internal energy E=F+TS    =  -11681.99879880 Ry

     The total energy is F=E-TS. E is the sum of the following terms:
     one-electron contribution = -358049.57486436 Ry
     hartree contribution      =  179488.35682931 Ry
     xc contribution           =   -2470.90173070 Ry
     ewald contribution        =  171709.82498288 Ry
     one-center paw contrib.   =   -2359.70401592 Ry

     convergence has been achieved in 283 iterations

     negative rho (up, down):  6.004E-02 0.000E+00

     Forces acting on atoms (cartesian axes, Ry/au):

     atom    1 type  1   force =     0.01198228    0.01352854    0.05502133
     atom    2 type  1   force =     0.02845392    0.02470474   -0.00069268
     atom    3 type  1   force =     0.00762293    0.00107849   -0.00351030
     atom    4 type  1   force =    -0.01246951   -0.01523634   -0.01031868
     atom    5 type  1   force =     0.01477303   -0.02239716   -0.02716316
     atom    6 type  1   force =     0.00354237   -0.00143795    0.00437219
     atom    7 type  1   force =    -0.00857511    0.01206066    0.01139136
     atom    8 type  1   force =    -0.01212501   -0.03102801    0.00329712
     atom    9 type  1   force =    -0.00149404    0.00642322    0.01346133
     atom   10 type  1   force =     0.01829458   -0.00170504    0.01745452
     atom   11 type  1   force =    -0.01122036   -0.00524962   -0.01233609
     atom   12 type  2   force =     0.00698721    0.12279620   -0.04037907
     atom   13 type  2   force =     0.13708490    0.10134330   -0.00138588
     atom   14 type  2   force =     0.08061612    0.03199500   -0.06292928
     atom   15 type  2   force =     0.14619939   -0.03947837   -0.15266225
     atom   16 type  2   force =     0.02151774    0.03840544    0.04014654
     atom   17 type  2   force =     0.15430071    0.01486362    0.25420902
     atom   18 type  2   force =    -0.01245637   -0.04668391   -0.04952109
     atom   19 type  2   force =    -0.01079961    0.03869050   -0.10073163
     atom   20 type  2   force =    -0.02587939   -0.01331325   -0.04187413
     atom   21 type  2   force =    -0.05465574    0.13498092   -0.03944974
     atom   22 type  2   force =     0.03593151   -0.13331846    0.09284006
     atom   23 type  2   force =    -0.03935838   -0.06827518   -0.05873464
     atom   24 type  2   force =     0.03245973    0.02646238    0.01005399
     atom   25 type  2   force =     0.06546953    0.00666441    0.07194032
     atom   26 type  2   force =    -0.01663108   -0.00973912   -0.01117059
     atom   27 type  2   force =     0.04174308    0.11809791   -0.07356956
     atom   28 type  2   force =    -0.00195462   -0.05838113   -0.01146766
     atom   29 type  2   force =    -0.03142710   -0.05047265    0.08148373
     atom   30 type  2   force =     0.03236983   -0.03169027   -0.03949906
     atom   31 type  2   force =     0.03576351    0.02204206    0.00213829
     atom   32 type  2   force =    -0.00990871   -0.06578387    0.08799698
     atom   33 type  2   force =    -0.05570893    0.01799374   -0.05557203
     atom   34 type  2   force =     0.06103275   -0.02691405   -0.02234066
     atom   35 type  3   force =    -0.01334228   -0.07804586    0.00314613
     atom   36 type  3   force =    -0.16410310    0.08786700   -0.04849339
     atom   37 type  3   force =    -0.06764152    0.03584971   -0.01401206
     atom   38 type  3   force =    -0.05432498   -0.00011598   -0.00936613
     atom   39 type  3   force =     0.07415624    0.00716328    0.01034608
     atom   40 type  3   force =     0.08657714    0.02281358   -0.04332114
     atom   41 type  3   force =    -0.10885881   -0.09033560   -0.13250052
     atom   42 type  3   force =     0.01235156   -0.06065580    0.06452476
     atom   43 type  3   force =     0.01842407   -0.02239605   -0.04844584
     atom   44 type  3   force =     0.06109696    0.10569354    0.04112992
     atom   45 type  3   force =    -0.03184390   -0.00101881   -0.03164574
     atom   46 type  3   force =    -0.03597242    0.12381328    0.06001186
     atom   47 type  3   force =    -0.05600652    0.00762405   -0.14719920
     atom   48 type  3   force =    -0.02872366   -0.12199966   -0.13764280
     atom   49 type  3   force =     0.06193885    0.18248039    0.05225079
     atom   50 type  3   force =     0.04361290   -0.02226327   -0.09786931
     atom   51 type  3   force =    -0.01921802    0.04789372    0.07047502
     atom   52 type  3   force =    -0.12129928   -0.10613606    0.11976153
     atom   53 type  3   force =    -0.12311068   -0.10976760   -0.05515265
     atom   54 type  3   force =    -0.03665081   -0.02305789    0.10091954
     atom   55 type  3   force =    -0.15020681    0.03119102    0.03093652
     atom   56 type  3   force =    -0.02249179    0.01132161    0.12190916
     atom   57 type  3   force =     0.00706674   -0.09508108   -0.04896530
     atom   58 type  3   force =     0.06031609   -0.00818295    0.04791281
     atom   59 type  3   force =    -0.03555170   -0.01080012    0.03867565
     atom   60 type  3   force =     0.07906674   -0.07456469   -0.00362460
     atom   61 type  3   force =     0.01537063    0.19124011    0.03551600
     atom   62 type  3   force =    -0.01924134   -0.01655874   -0.00623811
     atom   63 type  3   force =     0.01629202    0.01194621   -0.00647395
     atom   64 type  3   force =     0.00308292    0.05907924    0.08264734
     atom   65 type  3   force =    -0.00857531    0.02326174    0.02056226
     atom   66 type  3   force =    -0.01586781    0.00339347   -0.01875388
     atom   67 type  3   force =     0.03111792    0.00050152    0.10242567
     atom   68 type  3   force =    -0.06515705   -0.03466410    0.07990055
     atom   69 type  3   force =     0.04503887    0.03718204    0.03191240
     atom   70 type  3   force =    -0.05032752   -0.06708715   -0.05576130
     atom   71 type  3   force =     0.04860263   -0.03740138    0.05227894
     atom   72 type  3   force =     0.01421181    0.11141050    0.19919943
     atom   73 type  3   force =    -0.07872337    0.05109601   -0.07639531
     atom   74 type  3   force =     0.00523404   -0.06456290   -0.04793998
     atom   75 type  3   force =    -0.06321544    0.00867074   -0.00235153
     atom   76 type  3   force =     0.04450248   -0.10611364   -0.06060696
     atom   77 type  3   force =    -0.03076863    0.07733125    0.03341064
     atom   78 type  3   force =    -0.09865980   -0.02068031   -0.06894569
     atom   79 type  3   force =    -0.00395800   -0.04283703    0.03502206
     atom   80 type  3   force =    -0.03249880    0.03932096   -0.00543065
     atom   81 type  3   force =     0.03038661    0.01868648   -0.03955139
     atom   82 type  3   force =    -0.04205402    0.01727541   -0.05462230
     atom   83 type  3   force =    -0.05142384    0.09475935    0.02414505
     atom   84 type  3   force =    -0.02496497    0.04021648   -0.04068677
     atom   85 type  3   force =    -0.01137263   -0.09867556    0.07698547
     atom   86 type  3   force =    -0.02804312   -0.07915494   -0.10463955
     atom   87 type  3   force =     0.02206843   -0.00716502   -0.06793299
     atom   88 type  3   force =    -0.00063272    0.05376511   -0.11884929
     atom   89 type  3   force =    -0.04833817   -0.02072117    0.06498519
     atom   90 type  3   force =     0.05352281   -0.04785209   -0.04631898
     atom   91 type  3   force =     0.06648344    0.04065600   -0.01539835
     atom   92 type  3   force =    -0.00909466   -0.00577969   -0.02091531
     atom   93 type  3   force =    -0.08709291   -0.10492138   -0.00533885
     atom   94 type  3   force =     0.07174751    0.08985044    0.05017807
     atom   95 type  3   force =    -0.01093022   -0.01086396   -0.06954629
     atom   96 type  3   force =    -0.09371479   -0.01180836    0.15325518
     atom   97 type  3   force =    -0.02816893   -0.04656942   -0.00177724
     atom   98 type  3   force =     0.10421440    0.01094944    0.09543597
     atom   99 type  3   force =    -0.05542169   -0.00675643    0.03645514
     atom  100 type  3   force =     0.02261421   -0.07810808    0.07966430
     atom  101 type  3   force =    -0.06017732    0.02729069   -0.01093232
     atom  102 type  3   force =     0.03060644    0.01749608    0.03139106
     atom  103 type  3   force =     0.04701625    0.03119158    0.09738799
     atom  104 type  3   force =    -0.08255327   -0.07717381   -0.00514973
     atom  105 type  3   force =     0.02907646    0.05418573   -0.00670960
     atom  106 type  3   force =     0.03806661    0.11413523   -0.01559251
     atom  107 type  3   force =    -0.02789570   -0.00322099    0.02790326
     atom  108 type  3   force =     0.04689190   -0.00960220    0.04591113
     atom  109 type  3   force =     0.10981490    0.01989917   -0.03963898
     atom  110 type  3   force =     0.13935452    0.00800352   -0.06097403
     atom  111 type  3   force =    -0.02030820   -0.01791657    0.01757350
     atom  112 type  3   force =    -0.06703003    0.09521564   -0.01076884
     atom  113 type  3   force =     0.02127105   -0.01983669   -0.05629032
     atom  114 type  3   force =    -0.03893788    0.02176599    0.08107058
     atom  115 type  3   force =     0.01340420   -0.02838123    0.07648301
     atom  116 type  3   force =     0.08471596    0.00791613   -0.04838283
     atom  117 type  3   force =    -0.06874310    0.00339528    0.03769950
     atom  118 type  3   force =    -0.11856303    0.11188769    0.02563947
     atom  119 type  3   force =     0.07046818   -0.00675581    0.03241117
     atom  120 type  3   force =     0.00917354    0.02808988    0.10528606
     atom  121 type  3   force =     0.12980912    0.07610330    0.01611332
     atom  122 type  4   force =     0.03958323    0.01290242    0.02873457
     atom  123 type  4   force =    -0.06147231   -0.03986730   -0.00974653
     atom  124 type  4   force =     0.00365815    0.02428736   -0.04613293
     atom  125 type  4   force =     0.01813734   -0.00575050   -0.00425744
     atom  126 type  4   force =    -0.13130280   -0.14924830   -0.01134810
     atom  127 type  4   force =    -0.09949618   -0.12885888   -0.07370477
     atom  128 type  4   force =     0.01054427   -0.04946088    0.05958171
     atom  129 type  4   force =     0.00892388   -0.06165979   -0.01137672
     atom  130 type  4   force =     0.00881251   -0.02166908    0.00916720
     atom  131 type  4   force =     0.00670333   -0.01823937   -0.01318119
     atom  132 type  4   force =     0.04933537   -0.03836894   -0.01675853
     atom  133 type  4   force =    -0.03659300   -0.05919848    0.03631052
     atom  134 type  4   force =    -0.09350213    0.00758554   -0.04007325
     atom  135 type  4   force =     0.02242152   -0.02686702    0.12460410
     atom  136 type  4   force =     0.01781814   -0.01011356   -0.01829195
     atom  137 type  4   force =     0.05391229    0.04128057   -0.03414573
     atom  138 type  4   force =     0.01582836    0.00196215   -0.01527125
     atom  139 type  4   force =    -0.00676848    0.02800541   -0.02069938
     atom  140 type  4   force =     0.02153803   -0.06866926    0.02202551
     atom  141 type  4   force =     0.05839680   -0.01206050    0.00218155
     atom  142 type  4   force =    -0.10496390   -0.05312272    0.04675831
     atom  143 type  4   force =    -0.15004295   -0.03706428   -0.09748882
     atom  144 type  4   force =    -0.00564074   -0.01755688    0.02995395
     atom  145 type  4   force =    -0.04002460    0.03678985    0.01618846
     atom  146 type  4   force =    -0.02200909    0.01694554   -0.02252775
     atom  147 type  4   force =    -0.13172590   -0.04976573    0.03206470
     atom  148 type  4   force =     0.01366446   -0.02073328   -0.01293563
     atom  149 type  4   force =     0.06869589    0.03543407    0.01729709
     atom  150 type  4   force =    -0.06342509   -0.05299176   -0.01995147
     atom  151 type  4   force =     0.05091225    0.03688813    0.02459526
     atom  152 type  4   force =    -0.05806576    0.02460779    0.01508113
     atom  153 type  4   force =     0.07628125    0.01868195    0.07642472
     atom  154 type  4   force =    -0.09652332    0.00591504    0.00658028
     atom  155 type  4   force =    -0.01258150   -0.01428139   -0.00921921
     atom  156 type  4   force =    -0.05022589    0.04125313   -0.02246069
     atom  157 type  4   force =     0.04244148   -0.01080142   -0.00372673
     atom  158 type  4   force =     0.01339945    0.01213271   -0.02431685
     atom  159 type  4   force =     0.06700893    0.00744908   -0.05898553
     atom  160 type  4   force =     0.03941418   -0.08930024    0.01395550
     atom  161 type  4   force =     0.00298129   -0.02880113    0.07145227
     atom  162 type  4   force =     0.05272719    0.09488485    0.01533592
     atom  163 type  4   force =    -0.01537307    0.05825355   -0.01555175
     atom  164 type  4   force =     0.02449551    0.02901846    0.06696096
     atom  165 type  4   force =    -0.07484888    0.01001550    0.04940052
     atom  166 type  4   force =    -0.00160106   -0.10198810    0.00496454
     atom  167 type  4   force =    -0.03907961   -0.03994386   -0.01510233
     atom  168 type  4   force =     0.01698061   -0.18442932    0.05854199
     atom  169 type  4   force =     0.05239764    0.04497997   -0.09519590
     atom  170 type  4   force =     0.02789019   -0.04779450   -0.03581940
     atom  171 type  4   force =     0.01258381   -0.01692198    0.00344661
     atom  172 type  4   force =    -0.06999642    0.01239823   -0.04380255
     atom  173 type  4   force =    -0.03893672    0.00695335   -0.02537649
     atom  174 type  4   force =     0.05687841    0.08594610    0.01822201
     atom  175 type  4   force =     0.01311689    0.04181867    0.00305119
     atom  176 type  4   force =     0.03782169   -0.00546278    0.02509885
     atom  177 type  4   force =     0.06405283   -0.00444955   -0.00818677
     atom  178 type  4   force =    -0.00367845    0.03660049    0.04555215
     atom  179 type  4   force =    -0.01196005    0.02844561    0.00311298
     atom  180 type  4   force =    -0.05735712    0.00565057   -0.00722131
     atom  181 type  4   force =     0.00000540   -0.00049498    0.09598047
     atom  182 type  4   force =    -0.02450705   -0.06136777    0.05017734
     atom  183 type  4   force =    -0.03321823    0.10701234   -0.05873486
     atom  184 type  4   force =     0.01827364   -0.01125816    0.05177330
     atom  185 type  4   force =     0.04930562   -0.03490497   -0.01730271
     atom  186 type  4   force =    -0.01141239   -0.01727517    0.00172995
     atom  187 type  4   force =    -0.02767698   -0.01188029    0.05047556
     atom  188 type  4   force =    -0.02035804   -0.01785693   -0.04713993
     atom  189 type  4   force =    -0.01980235    0.03516009   -0.00049602
     atom  190 type  4   force =     0.05861160   -0.03609956    0.00664431
     atom  191 type  4   force =    -0.01866262   -0.00331161   -0.00632179
     atom  192 type  4   force =    -0.03514262    0.02414318   -0.03098063
     atom  193 type  4   force =     0.03630553   -0.06470159    0.02202106
     atom  194 type  4   force =    -0.04961844    0.00127979   -0.00628439
     atom  195 type  4   force =    -0.01039683   -0.00569310    0.01814423
     atom  196 type  4   force =     0.00238190   -0.02552041   -0.06107001
     atom  197 type  4   force =     0.00923641    0.01573007   -0.00008622
     atom  198 type  4   force =    -0.03841989    0.04139370   -0.01357015
     atom  199 type  4   force =     0.00810766   -0.02590779    0.00623788
     atom  200 type  4   force =    -0.00958751   -0.03602605    0.05784944
     atom  201 type  4   force =    -0.01077157   -0.04755553   -0.02852855
     atom  202 type  4   force =     0.01615867    0.01501477    0.04158594
     atom  203 type  4   force =    -0.05687949   -0.05914856   -0.10306965
     atom  204 type  4   force =    -0.00238571    0.01816139    0.06245235
     atom  205 type  4   force =     0.01018981    0.07387189   -0.01370267
     atom  206 type  4   force =    -0.04070788   -0.03143829   -0.04466552
     atom  207 type  4   force =    -0.00479632   -0.03031622    0.03546946
     atom  208 type  4   force =    -0.00080368    0.01181949   -0.01008316
     atom  209 type  4   force =    -0.04449585    0.03163547   -0.05080972
     atom  210 type  4   force =    -0.01134257    0.01307380   -0.05116721
     atom  211 type  4   force =    -0.00057432   -0.03488197   -0.05657882
     atom  212 type  4   force =     0.04271355   -0.03965187   -0.03307594
     atom  213 type  4   force =     0.04284936   -0.14884292   -0.08359587
     atom  214 type  4   force =     0.05175475    0.06494665   -0.05766988
     atom  215 type  4   force =    -0.02666520   -0.02928108    0.00518325
     atom  216 type  4   force =    -0.02213015    0.07577294    0.04092463
     atom  217 type  4   force =    -0.02417443    0.03766096   -0.04189391
     atom  218 type  4   force =     0.01492015    0.02516613   -0.00785826
     atom  219 type  4   force =    -0.04399650   -0.04016630   -0.00917403
     atom  220 type  4   force =     0.01258134   -0.04149358    0.02297353
     atom  221 type  4   force =    -0.00424722    0.03039026    0.06496554
     atom  222 type  4   force =     0.10395389   -0.01658732    0.00584488
     atom  223 type  4   force =     0.02173792    0.08581427   -0.05087828
     atom  224 type  4   force =     0.03969914    0.02491570   -0.01335369
     atom  225 type  4   force =     0.06108897    0.04951405   -0.00337713
     atom  226 type  4   force =     0.02008746   -0.02509068    0.02085974
     atom  227 type  4   force =    -0.02259278    0.05201212    0.04184930
     atom  228 type  4   force =     0.00320882   -0.01707299   -0.02722154
     atom  229 type  4   force =     0.01366567    0.00007911    0.05422271
     atom  230 type  4   force =     0.05291942    0.04903520   -0.00149185
     atom  231 type  4   force =     0.04262712   -0.02082890    0.07112383
     atom  232 type  4   force =     0.04275971   -0.06427807   -0.00877104
     atom  233 type  4   force =     0.03887899    0.05821295    0.02897967
     atom  234 type  4   force =    -0.03299808   -0.05977531   -0.11440679
     atom  235 type  4   force =    -0.01906224    0.15893067   -0.01444952
     atom  236 type  4   force =     0.08811527   -0.01637798   -0.04578920
     atom  237 type  4   force =     0.00622813    0.00679348    0.01215955
     atom  238 type  4   force =    -0.01092563   -0.01290749    0.04265184
     atom  239 type  4   force =     0.01919937   -0.03610701    0.00733834
     atom  240 type  4   force =     0.07763831    0.03085092    0.02822071
     atom  241 type  4   force =     0.03121575   -0.01970061   -0.00489359
     atom  242 type  4   force =    -0.20362993   -0.02964623    0.07897372
     atom  243 type  4   force =     0.02977656    0.00103906    0.02048664
     atom  244 type  4   force =    -0.05116447   -0.00160433   -0.04531291
     atom  245 type  4   force =    -0.01909997   -0.02917390   -0.09475673
     atom  246 type  4   force =     0.02443684   -0.00899392   -0.03121923
     atom  247 type  4   force =    -0.00637821   -0.01713148   -0.06719951
     atom  248 type  4   force =    -0.01646706    0.03027370    0.05886514
     atom  249 type  4   force =     0.03809403    0.02612014   -0.06221091
     atom  250 type  4   force =    -0.08196814   -0.01668685    0.00423356
     atom  251 type  4   force =    -0.00780089   -0.00392185   -0.01947242
     atom  252 type  4   force =    -0.07122778    0.01912492   -0.05256327
     atom  253 type  4   force =     0.00126719   -0.04522816   -0.11029416
     atom  254 type  4   force =    -0.09099545    0.01338012   -0.01473350
     atom  255 type  4   force =     0.01625770   -0.01882793    0.02041892
     atom  256 type  4   force =     0.03191074   -0.00806500    0.03526300
     atom  257 type  4   force =     0.02692925   -0.02500485    0.03379626
     atom  258 type  4   force =     0.00067009    0.01268852   -0.02908238
     atom  259 type  4   force =     0.04800084    0.01503241   -0.00891450
     atom  260 type  4   force =    -0.04569332   -0.01156968   -0.06088976
     atom  261 type  4   force =     0.04147971    0.02796923   -0.03946202
     atom  262 type  4   force =    -0.05564362   -0.01095584    0.04587976
     atom  263 type  4   force =     0.09677599   -0.02649189    0.01779044
     atom  264 type  4   force =    -0.04573178    0.04260613   -0.02250949
     atom  265 type  4   force =     0.02486924    0.01507603   -0.03964824
     atom  266 type  4   force =     0.02701284    0.02036602   -0.04799897
     atom  267 type  4   force =     0.07753717   -0.00409823   -0.04293280
     atom  268 type  4   force =     0.02718472   -0.04396296   -0.03137480
     atom  269 type  4   force =    -0.01663109   -0.06669486    0.00511286
     atom  270 type  4   force =    -0.07175061   -0.01324755   -0.02962605
     atom  271 type  4   force =     0.06968530    0.01181939    0.00875496
     atom  272 type  4   force =     0.02761944    0.05489004   -0.01275417
     atom  273 type  4   force =     0.00245131   -0.00629201    0.04776175
     atom  274 type  4   force =    -0.02438907    0.00273473    0.02713133
     atom  275 type  4   force =    -0.01182927   -0.02058048    0.01822170
     atom  276 type  4   force =     0.04365477    0.07913353    0.06967947
     atom  277 type  4   force =     0.02663381   -0.01174124   -0.07654700
     atom  278 type  4   force =    -0.02158057    0.06311391    0.04437698
     atom  279 type  4   force =    -0.01201766   -0.02157652    0.00406010
     atom  280 type  4   force =    -0.02692276    0.05673813    0.00963433
     atom  281 type  4   force =     0.04153389    0.03154397    0.04330840
     atom  282 type  4   force =     0.03672987   -0.05135411    0.01537012
     atom  283 type  4   force =     0.00389098   -0.06524415   -0.03209361
     atom  284 type  4   force =     0.07190013   -0.05374430   -0.03046253
     atom  285 type  4   force =     0.01851171   -0.01658574    0.01461988
     atom  286 type  4   force =    -0.11855149   -0.02982377   -0.06911702
     atom  287 type  4   force =    -0.01630298   -0.00182534    0.04452970
     atom  288 type  4   force =     0.06712009   -0.00379629   -0.05577219
     atom  289 type  4   force =     0.02105605    0.09135717   -0.02687593
     atom  290 type  4   force =     0.10188880   -0.05824416   -0.11028325
     atom  291 type  4   force =    -0.03013387    0.01411839   -0.01578160
     atom  292 type  4   force =    -0.01945962   -0.01129417    0.01437122
     atom  293 type  4   force =    -0.00656798   -0.02629989   -0.04964186
     atom  294 type  4   force =     0.08010472   -0.02996656    0.16788192
     atom  295 type  4   force =    -0.05385878    0.06400768    0.06799014
     atom  296 type  4   force =    -0.05993039    0.01919073    0.03736073
     atom  297 type  4   force =    -0.01778251    0.01403000   -0.02419782
     atom  298 type  4   force =     0.01308532    0.01328708    0.01796598
     atom  299 type  4   force =    -0.06690300   -0.14512508   -0.02673397
     atom  300 type  4   force =    -0.01170413   -0.05288643   -0.03407308
     atom  301 type  4   force =    -0.07376487    0.03966984    0.02584934
     atom  302 type  4   force =     0.00573472    0.12646284    0.11052730
     atom  303 type  4   force =    -0.01420739   -0.02292098   -0.03985227
     atom  304 type  4   force =    -0.03903480   -0.00154042    0.01106376
     atom  305 type  4   force =    -0.03631923   -0.01651945    0.00704880
     atom  306 type  4   force =     0.00811245    0.01576977   -0.05868037
     atom  307 type  4   force =     0.02343268    0.02016560    0.04237229
     atom  308 type  4   force =     0.00972166    0.00087946   -0.05119508
     atom  309 type  4   force =     0.00197208   -0.02058182    0.01393770
     atom  310 type  4   force =     0.09236385   -0.00427064    0.11082070
     atom  311 type  4   force =    -0.03272210   -0.01336991    0.01157066
     atom  312 type  4   force =    -0.02337422    0.02161405    0.01460448
     atom  313 type  4   force =     0.01423948   -0.08706747    0.01951186
     atom  314 type  4   force =    -0.04570517    0.01306342   -0.02391670
     atom  315 type  4   force =    -0.01722610   -0.00382757   -0.02787303
     atom  316 type  4   force =    -0.00558634   -0.00388728    0.01814292
     atom  317 type  4   force =    -0.00178520    0.06899773    0.03998193
     atom  318 type  4   force =     0.04033688    0.00253961   -0.01751972
     atom  319 type  4   force =    -0.02971378   -0.01473269   -0.06110100
     atom  320 type  4   force =     0.04261188   -0.01853393   -0.02672693
     atom  321 type  4   force =    -0.02602784    0.12859040    0.03786309
     atom  322 type  4   force =     0.02388362    0.01090837   -0.06531256
     atom  323 type  4   force =     0.03564525   -0.03561462    0.04995914
     atom  324 type  4   force =     0.05227601    0.00490508   -0.02318347
     atom  325 type  4   force =     0.03441143   -0.02324343   -0.02831765
     atom  326 type  4   force =    -0.00823540    0.11664473    0.05600597
     atom  327 type  4   force =     0.04743775    0.04959643   -0.03976971
     atom  328 type  4   force =     0.02055385    0.00099270   -0.01995292
     atom  329 type  4   force =     0.10558371    0.01069425    0.01855384
     atom  330 type  4   force =     0.02370662   -0.03659600   -0.05448695
     atom  331 type  4   force =     0.03238107    0.04218455   -0.00806661
     atom  332 type  4   force =     0.02197610    0.05071879   -0.01244943
     atom  333 type  4   force =    -0.05389280   -0.05590836    0.02743320
     atom  334 type  4   force =     0.02377941    0.04554113   -0.02793043
     atom  335 type  4   force =     0.06794019    0.02175832   -0.02189598
     atom  336 type  4   force =    -0.03940905   -0.03108426   -0.04389153
     atom  337 type  4   force =    -0.00471555   -0.00474843   -0.02315743
     atom  338 type  4   force =    -0.05726566    0.04317782   -0.01897713
     atom  339 type  5   force =    -0.02046781    0.02373507    0.03466338
     atom  340 type  5   force =     0.00643547   -0.02890127    0.02817990
     atom  341 type  6   force =     0.02437189    0.00334781   -0.00057847
     atom  342 type  6   force =    -0.02422188   -0.00329152    0.00063485
     atom  343 type  6   force =     0.00424736   -0.03987365   -0.00218399
     atom  344 type  6   force =     0.00659227   -0.03966177   -0.00241855
     atom  345 type  6   force =    -0.00635638    0.03975934    0.00248473
     atom  346 type  6   force =    -0.00445018    0.03988838    0.00266866
     atom  347 type  6   force =     0.02705393    0.02042525    0.00081248
     atom  348 type  6   force =    -0.03148896    0.01249743    0.00165912
     atom  349 type  6   force =     0.03157000   -0.01254934   -0.00158070
     atom  350 type  6   force =    -0.02736543   -0.02045335   -0.00014707
     atom  351 type  7   force =     0.00288996    0.00573336    0.00001467
     atom  352 type  7   force =    -0.00416642    0.00478315    0.00016582
     atom  353 type  7   force =     0.00417980   -0.00479763   -0.00060511
     atom  354 type  7   force =    -0.00264003   -0.00568564   -0.00046173
     atom  355 type  7   force =     0.00383511   -0.00318493   -0.00055516
     atom  356 type  7   force =    -0.00281762   -0.00399875   -0.00038413
     atom  357 type  7   force =     0.00287048    0.00415776   -0.00004825
     atom  358 type  7   force =    -0.00381603    0.00313542    0.00005675

     Total force =     1.686244     Total SCF correction =     0.000144


     Computing stress (Cartesian axis) and pressure


     negative rho (up, down):  6.004E-02 0.000E+00
          total   stress  (Ry/bohr**3)                   (kbar)     P=        7.98
   0.00005259   0.00000154  -0.00000302            7.74        0.23       -0.44
   0.00000154   0.00006107   0.00000346            0.23        8.98        0.51
  -0.00000302   0.00000346   0.00004917           -0.44        0.51        7.23


     Writing all to output data dir ./outputs/pwscf.save/ :
     XML data file, charge density, pseudopotentials, collected wavefunctions
 
     init_run     :    145.50s CPU    148.58s WALL (       1 calls)
     electrons    :  79920.91s CPU  81264.75s WALL (       1 calls)
     forces       :     93.03s CPU     95.91s WALL (       1 calls)
     stress       :    350.44s CPU    355.39s WALL (       1 calls)

     Called by init_run:
     wfcinit      :    129.62s CPU    131.39s WALL (       1 calls)
     potinit      :      1.18s CPU      1.30s WALL (       1 calls)
     hinit0       :      1.43s CPU      1.47s WALL (       1 calls)

     Called by electrons:
     c_bands      :  66879.93s CPU  67624.77s WALL (     283 calls)
     sum_band     :  11700.97s CPU  12038.19s WALL (     283 calls)
     v_of_rho     :    129.97s CPU    135.09s WALL (     284 calls)
     newd         :    958.84s CPU   1211.31s WALL (     284 calls)
     PAW_pot      :    160.78s CPU    161.83s WALL (     284 calls)
     mix_rho      :     73.36s CPU     75.06s WALL (     283 calls)

     Called by c_bands:
     init_us_2    :    621.58s CPU    632.01s WALL (     568 calls)
     cegterg      :  66037.36s CPU  66769.06s WALL (     283 calls)

     Called by *egterg:
     cdiaghg      :    947.10s CPU    954.54s WALL (     615 calls)
     h_psi        :  36940.90s CPU  37319.66s WALL (     616 calls)
     s_psi        :  10915.53s CPU  11004.06s WALL (     616 calls)
     g_psi        :     42.95s CPU     43.57s WALL (     332 calls)

     Called by h_psi:
     h_psi:calbec :  10950.28s CPU  11023.53s WALL (     616 calls)
     vloc_psi     :  15001.01s CPU  15152.21s WALL (     616 calls)
                                        0.00s GPU  (     616 calls)
     add_vuspsi   :  10919.95s CPU  11007.72s WALL (     616 calls)

     General routines
     calbec       :  16715.59s CPU  16826.04s WALL (     916 calls)
     fft          :    134.76s CPU    140.48s WALL (    3715 calls)
     ffts         :     12.12s CPU     12.58s WALL (     567 calls)
     fftw         :  14481.19s CPU  14617.40s WALL ( 1596983 calls)
     interpolate  :     15.98s CPU     16.58s WALL (     284 calls)
 
     Parallel routines
 
     PWSCF        :     22h22m CPU     22h46m WALL

 
   This run was terminated on:  11: 2: 4  14Mar2026            

=------------------------------------------------------------------------------=
   JOB DONE.
=------------------------------------------------------------------------------=
