
     Program PWSCF v.7.5 starts on  3Mar2026 at 11:23:59 

     This program is part of the open-source Quantum ESPRESSO suite
     for quantum simulation of materials; please cite
         "P. Giannozzi et al., J. Phys.:Condens. Matter 21 395502 (2009);
         "P. Giannozzi et al., J. Phys.:Condens. Matter 29 465901 (2017);
         "P. Giannozzi et al., J. Chem. Phys. 152 154105 (2020);
          URL http://www.quantum-espresso.org", 
     in publications or presentations arising from this work. More details at
     http://www.quantum-espresso.org/quote

     Parallel version (MPI), running on    80 processors

     MPI processes distributed on     4 nodes
     79888 MiB available memory on the printing compute node when the environment starts
 
     Reading input from NaphthaleneOnGlassSite3Snapshot7.in
Warning: card &CELL ignored
Warning: card &FCP ignored
Warning: card &RISM ignored

     Current dimensions of program PWSCF are:
     Max number of different atomic species (ntypx) = 10
     Max number of k-points (npk) =  40000
     Max angular momentum in pseudopotentials (lmaxx) =  4
     file Na.paw.z_9.ld1.psl.v1.0.0-low.upf: wavefunction(s)  2P renormalized
     file O.pbe-n-kjpaw_psl.0.1.UPF: wavefunction(s)  2P renormalized
     file Al.pbe-n-kjpaw_psl.1.0.0.UPF: wavefunction(s)  3S 3P renormalized
     file C.pbe-n-kjpaw_psl.1.0.0.UPF: wavefunction(s)  2S 2P renormalized
 
     R & G space division:  proc/nbgrp/npool/nimage =      80
     Subspace diagonalization in iterative solution of the eigenvalue problem:
     one sub-group per band group will be used
     custom distributed-memory algorithm (size of sub-group:  8*  8 procs)

 
     Parallelization info
     --------------------
     sticks:   dense  smooth     PW     G-vecs:    dense   smooth      PW
     Min         450     400    100               199276   167008   20874
     Max         451     401    101               199303   167021   20885
     Sum       36073   32057   8021             15943719 13361281 1670237
 
     Using Slab Decomposition
 


     bravais-lattice index     =            0
     lattice parameter (alat)  =      35.4885  a.u.
     unit-cell volume          =  138228.4306 (a.u.)^3
     number of atoms/cell      =          358
     number of atomic types    =            7
     number of electrons       =      1872.00
     number of Kohn-Sham states=         1123
     kinetic-energy cutoff     =      80.0000  Ry
     charge density cutoff     =     360.0000  Ry
     scf convergence threshold =      1.0E-08
     mixing beta               =       0.1000
     number of iterations used =            8  plain     mixing
     Exchange-correlation= PBE
                           (   1   4   3   4   0   0   0)

     celldm(1)=  35.488539  celldm(2)=   0.000000  celldm(3)=   0.000000
     celldm(4)=   0.000000  celldm(5)=   0.000000  celldm(6)=   0.000000

     crystal axes: (cart. coord. in units of alat)
               a(1) = (   1.000000   0.000000   0.000000 )  
               a(2) = (   0.000000   1.000000   0.000000 )  
               a(3) = (   0.000000   0.000000   3.092666 )  

     reciprocal axes: (cart. coord. in units 2 pi/alat)
               b(1) = (  1.000000  0.000000  0.000000 )  
               b(2) = (  0.000000  1.000000  0.000000 )  
               b(3) = (  0.000000  0.000000  0.323346 )  


     PseudoPot. # 1 for Na read from file:
     /home/sabeel/VOCC_Simulation/pseudopotentials/SSSP_Precision/Na.paw.z_9.ld1.psl.v1.0.0-low.upf
     MD5 check sum: 32bccecb13d7399e6c7dae6fe6685ff0
     Pseudo is Projector augmented-wave + core cor, Zval =  9.0
     Generated using &quot;atomic&quot; code by A. Dal Corso  v.6.3MaX
     Shape of augmentation charge: PSQ
     Using radial grid of 1121 points,  4 beta functions with: 
                l(1) =   0
                l(2) =   0
                l(3) =   1
                l(4) =   1
     Q(r) pseudized with 0 coefficients 


     PseudoPot. # 2 for B  read from file:
     /home/sabeel/VOCC_Simulation/pseudopotentials/SSSP_Precision/B_pbe_v1.01.uspp.F.UPF
     MD5 check sum: d081ebb89d0c768e112975f650467a00
     Pseudo is Ultrasoft + core correction, Zval =  3.0
     Generated by new atomic code, or converted to UPF format
     Using radial grid of  781 points,  4 beta functions with: 
                l(1) =   0
                l(2) =   0
                l(3) =   1
                l(4) =   1
     Q(r) pseudized with  8 coefficients,  rinner =    1.100   1.100   1.100


     PseudoPot. # 3 for Si read from file:
     /home/sabeel/VOCC_Simulation/pseudopotentials/SSSP_Precision/Si.pbe-n-rrkjus_psl.1.0.0.UPF
     MD5 check sum: 0b0bb1205258b0d07b9f9672cf965d36
     Pseudo is Ultrasoft + core correction, Zval =  4.0
     Generated using "atomic" code by A. Dal Corso  v.5.1
     Using radial grid of 1141 points,  6 beta functions with: 
                l(1) =   0
                l(2) =   0
                l(3) =   1
                l(4) =   1
                l(5) =   2
                l(6) =   2
     Q(r) pseudized with 0 coefficients 


     PseudoPot. # 4 for O  read from file:
     /home/sabeel/VOCC_Simulation/pseudopotentials/SSSP_Precision/O.pbe-n-kjpaw_psl.0.1.UPF
     MD5 check sum: 0234752ac141de4415c5fc33072bef88
     Pseudo is Projector augmented-wave + core cor, Zval =  6.0
     Generated using "atomic" code by A. Dal Corso  v.5.0.99 svn rev. 10869
     Shape of augmentation charge: BESSEL
     Using radial grid of 1095 points,  4 beta functions with: 
                l(1) =   0
                l(2) =   0
                l(3) =   1
                l(4) =   1
     Q(r) pseudized with 0 coefficients 


     PseudoPot. # 5 for Al read from file:
     /home/sabeel/VOCC_Simulation/pseudopotentials/SSSP_Precision/Al.pbe-n-kjpaw_psl.1.0.0.UPF
     MD5 check sum: cfc449ca30b5f3223ec38ddd88ac046d
     Pseudo is Projector augmented-wave + core cor, Zval =  3.0
     Generated using "atomic" code by A. Dal Corso  v.5.1
     Shape of augmentation charge: PSQ
     Using radial grid of 1135 points,  6 beta functions with: 
                l(1) =   0
                l(2) =   0
                l(3) =   1
                l(4) =   1
                l(5) =   2
                l(6) =   2
     Q(r) pseudized with 0 coefficients 


     PseudoPot. # 6 for C  read from file:
     /home/sabeel/VOCC_Simulation/pseudopotentials/SSSP_Precision/C.pbe-n-kjpaw_psl.1.0.0.UPF
     MD5 check sum: 5d2aebdfa2cae82b50a7e79e9516da0f
     Pseudo is Projector augmented-wave + core cor, Zval =  4.0
     Generated using "atomic" code by A. Dal Corso  v.5.1
     Shape of augmentation charge: PSQ
     Using radial grid of 1073 points,  4 beta functions with: 
                l(1) =   0
                l(2) =   0
                l(3) =   1
                l(4) =   1
     Q(r) pseudized with 0 coefficients 


     PseudoPot. # 7 for H  read from file:
     /home/sabeel/VOCC_Simulation/pseudopotentials/SSSP_Precision/H_ONCV_PBE-1.0.oncvpsp.upf
     MD5 check sum: 1790becc920ee074925cf490c71280fe
     Pseudo is Norm-conserving, Zval =  1.0
     Generated using ONCVPSP code by D. R. Hamann
     Using radial grid of 1166 points,  2 beta functions with: 
                l(1) =   0
                l(2) =   0

     atomic species   valence    mass     pseudopotential
     Na                9.00    22.98977     Na( 1.00)
     B                 3.00    10.81000     B ( 1.00)
     Si                4.00    28.08500     Si( 1.00)
     O                 6.00    15.99900     O ( 1.00)
     Al                3.00    26.98154     Al( 1.00)
     C                 4.00    12.01100     C ( 1.00)
     H                 1.00     1.00800     H ( 1.00)

     No symmetry found



   Cartesian axes

     site n.     atom                  positions (alat units)
         1        Na     tau(   1) = (   0.2476327   0.1287261   1.4401902  )
         2        Na     tau(   2) = (   0.2347070   0.3964799   1.8357059  )
         3        Na     tau(   3) = (   0.2580766   0.4457236   1.6551511  )
         4        Na     tau(   4) = (   0.0484944   0.0277893   1.6277847  )
         5        Na     tau(   5) = (   0.2352313   0.0813062   1.2863150  )
         6        Na     tau(   6) = (   0.0747243   0.2371463   1.1982473  )
         7        Na     tau(   7) = (   0.1133306   0.7698962   1.8611434  )
         8        Na     tau(   8) = (   0.9037110   0.1954209   1.2700780  )
         9        Na     tau(   9) = (   0.5181841   0.1014052   1.4940734  )
        10        Na     tau(  10) = (   0.3803624   0.0140251   1.8302637  )
        11        Na     tau(  11) = (   0.3545179   0.4989222   1.3772145  )
        12        B      tau(  12) = (   0.9565860   0.6559989   1.4661680  )
        13        B      tau(  13) = (   0.3779039   0.3190213   1.8506233  )
        14        B      tau(  14) = (   0.6357433   0.7757670   1.3375748  )
        15        B      tau(  15) = (   0.9958362   0.0827877   1.8476266  )
        16        B      tau(  16) = (   0.6987179   0.5586979   1.3943070  )
        17        B      tau(  17) = (   0.0903279   0.5997535   1.2200041  )
        18        B      tau(  18) = (   0.9460845   0.5017876   1.4754679  )
        19        B      tau(  19) = (   0.0032347   0.0527127   1.2839437  )
        20        B      tau(  20) = (   0.1241012   0.5940167   1.6016841  )
        21        B      tau(  21) = (   0.4174729   0.9198072   1.5541475  )
        22        B      tau(  22) = (   0.4638227   0.9107282   1.2322731  )
        23        B      tau(  23) = (   0.5096053   0.7092947   1.5000083  )
        24        B      tau(  24) = (   0.4035376   0.9367665   1.6900270  )
        25        B      tau(  25) = (   0.7132674   0.8560217   1.2558196  )
        26        B      tau(  26) = (   0.2579773   0.4217781   1.2874388  )
        27        B      tau(  27) = (   0.1862793   0.2338812   1.3576537  )
        28        B      tau(  28) = (   0.2134919   0.3664862   1.5073156  )
        29        B      tau(  29) = (   0.3546252   0.0462610   1.5293894  )
        30        B      tau(  30) = (   0.8082206   0.9504483   1.6218439  )
        31        B      tau(  31) = (   0.4915043   0.5408159   1.2913026  )
        32        B      tau(  32) = (   0.2471486   0.9450605   1.4099193  )
        33        B      tau(  33) = (   0.7089246   0.1566090   1.6669558  )
        34        B      tau(  34) = (   0.4858908   0.1745693   1.3498737  )
        35        Si     tau(  35) = (   0.5740761   0.3686341   1.4981594  )
        36        Si     tau(  36) = (   0.9600416   0.6521543   1.2713743  )
        37        Si     tau(  37) = (   0.8029666   0.9237355   1.4090604  )
        38        Si     tau(  38) = (   0.6589027   0.0111466   1.4303706  )
        39        Si     tau(  39) = (   0.7148031   0.8518694   1.6658713  )
        40        Si     tau(  40) = (   0.4062844   0.4370669   1.7000479  )
        41        Si     tau(  41) = (   0.8652299   0.0194200   1.2866760  )
        42        Si     tau(  42) = (   0.8792462   0.4724358   1.3313926  )
        43        Si     tau(  43) = (   0.9761010   0.8191325   1.3004490  )
        44        Si     tau(  44) = (   0.0927580   0.6000365   1.4532062  )
        45        Si     tau(  45) = (   0.8492038   0.6801733   1.8429896  )
        46        Si     tau(  46) = (   0.7648638   0.9759642   1.8781504  )
        47        Si     tau(  47) = (   0.8282769   0.9005504   1.7531841  )
        48        Si     tau(  48) = (   0.2400871   0.2615564   1.6009290  )
        49        Si     tau(  49) = (   0.0782160   0.8578516   1.7113893  )
        50        Si     tau(  50) = (   0.1793983   0.5421597   1.3229395  )
        51        Si     tau(  51) = (   0.3045589   0.3154693   1.3856788  )
        52        Si     tau(  52) = (   0.1868342   0.9496617   1.8144358  )
        53        Si     tau(  53) = (   0.5597482   0.9942014   1.8563540  )
        54        Si     tau(  54) = (   0.3283405   0.8654915   1.7979255  )
        55        Si     tau(  55) = (   0.3944303   0.1342286   1.2558232  )
        56        Si     tau(  56) = (   0.5556116   0.4029995   1.7688172  )
        57        Si     tau(  57) = (   0.8886951   0.0519111   1.5515978  )
        58        Si     tau(  58) = (   0.9177874   0.8266438   1.8602018  )
        59        Si     tau(  59) = (   0.5141592   0.7513592   1.7304853  )
        60        Si     tau(  60) = (   0.6200680   0.7296116   1.5975635  )
        61        Si     tau(  61) = (   0.4531771   0.2653855   1.4551164  )
        62        Si     tau(  62) = (   0.9530092   0.1910999   1.6203079  )
        63        Si     tau(  63) = (   0.9806318   0.2594417   1.4695044  )
        64        Si     tau(  64) = (   0.1810221   0.5658568   1.7318917  )
        65        Si     tau(  65) = (   0.2276537   0.6624309   1.2309086  )
        66        Si     tau(  66) = (   0.7086066   0.3068958   1.4624957  )
        67        Si     tau(  67) = (   0.7573617   0.5008676   1.2102682  )
        68        Si     tau(  68) = (   0.0630774   0.5052222   1.8068999  )
        69        Si     tau(  69) = (   0.9531780   0.4208941   1.7332624  )
        70        Si     tau(  70) = (   0.8429520   0.6341042   1.3864806  )
        71        Si     tau(  71) = (   0.8255070   0.2513717   1.7092992  )
        72        Si     tau(  72) = (   0.4660404   0.3166643   1.5999861  )
        73        Si     tau(  73) = (   0.3218087   0.1696541   1.7095271  )
        74        Si     tau(  74) = (   0.6054871   0.0864265   1.2929813  )
        75        Si     tau(  75) = (   0.4402609   0.0821865   1.6559030  )
        76        Si     tau(  76) = (   0.3770531   0.0317907   1.3941734  )
        77        Si     tau(  77) = (   0.5059912   0.8072476   1.3243503  )
        78        Si     tau(  78) = (   0.6069382   0.5044701   1.6609957  )
        79        Si     tau(  79) = (   0.6370349   0.4244534   1.3741369  )
        80        Si     tau(  80) = (   0.6855674   0.7078304   1.8645318  )
        81        Si     tau(  81) = (   0.0765130   0.9298841   1.2314627  )
        82        Si     tau(  82) = (   0.9863684   0.4054382   1.2235204  )
        83        Si     tau(  83) = (   0.4950631   0.2585395   1.7548401  )
        84        Si     tau(  84) = (   0.5719431   0.1160579   1.7357262  )
        85        Si     tau(  85) = (   0.3566442   0.7389475   1.7027041  )
        86        Si     tau(  86) = (   0.5887626   0.6478135   1.7482870  )
        87        Si     tau(  87) = (   0.3778403   0.4701707   1.1981005  )
        88        Si     tau(  88) = (   0.7705746   0.7745811   1.3546535  )
        89        Si     tau(  89) = (   0.6353056   0.3899359   1.2194797  )
        90        Si     tau(  90) = (   0.3199297   0.6027545   1.8036004  )
        91        Si     tau(  91) = (   0.6901246   0.5787282   1.5496775  )
        92        Si     tau(  92) = (   0.1108815   0.9857043   1.4484254  )
        93        Si     tau(  93) = (   0.0087222   0.8101075   1.4596435  )
        94        Si     tau(  94) = (   0.4662737   0.5842118   1.4387730  )
        95        Si     tau(  95) = (   0.1497603   0.1150345   1.8191784  )
        96        Si     tau(  96) = (   0.9119816   0.9073773   1.5284091  )
        97        Si     tau(  97) = (   0.5081777   0.9347421   1.4393654  )
        98        Si     tau(  98) = (   0.9733658   0.9480751   1.7929925  )
        99        Si     tau(  99) = (   0.2449909   0.7736475   1.5958723  )
       100        Si     tau( 100) = (   0.2568298   0.7840856   1.3334763  )
       101        Si     tau( 101) = (   0.1600543   0.7576293   1.4557816  )
       102        Si     tau( 102) = (   0.9190690   0.2974838   1.8287833  )
       103        Si     tau( 103) = (   0.8499270   0.3745654   1.6104514  )
       104        Si     tau( 104) = (   0.8444491   0.5369054   1.7673517  )
       105        Si     tau( 105) = (   0.1203187   0.1732756   1.6597012  )
       106        Si     tau( 106) = (   0.6321686   0.6005607   1.2681838  )
       107        Si     tau( 107) = (   0.6235724   0.8470731   1.8048529  )
       108        Si     tau( 108) = (   0.7501132   0.1202716   1.2309056  )
       109        Si     tau( 109) = (   0.2746484   0.2046900   1.8670863  )
       110        Si     tau( 110) = (   0.2273259   0.0646953   1.6216725  )
       111        Si     tau( 111) = (   0.0729274   0.4042159   1.4579120  )
       112        Si     tau( 112) = (   0.6640697   0.1601480   1.5162335  )
       113        Si     tau( 113) = (   0.1226817   0.7031938   1.6887692  )
       114        Si     tau( 114) = (   0.8406300   0.5276586   1.5875131  )
       115        Si     tau( 115) = (   0.8389500   0.3149315   1.3901795  )
       116        Si     tau( 116) = (   0.1722727   0.9211130   1.5953570  )
       117        Si     tau( 117) = (   0.0763504   0.1375521   1.3930086  )
       118        Si     tau( 118) = (   0.3256209   0.9115638   1.2548481  )
       119        Si     tau( 119) = (   0.3955849   0.7224945   1.4035300  )
       120        Si     tau( 120) = (   0.4652418   0.5499611   1.5942954  )
       121        Si     tau( 121) = (   0.1212618   0.3651412   1.3045003  )
       122        O      tau( 122) = (   0.0295168   0.4481121   1.8630498  )
       123        O      tau( 123) = (   0.8632305   0.7660730   1.8351295  )
       124        O      tau( 124) = (   0.7865379   0.5198677   1.8292109  )
       125        O      tau( 125) = (   0.7687039   0.8065522   1.2712216  )
       126        O      tau( 126) = (   0.2613316   0.2462125   1.3627201  )
       127        O      tau( 127) = (   0.4383841   0.2721051   1.5384261  )
       128        O      tau( 128) = (   0.4075804   0.9041606   1.6244717  )
       129        O      tau( 129) = (   0.2891632   0.9821156   1.2266374  )
       130        O      tau( 130) = (   0.3003666   0.1796727   1.7902854  )
       131        O      tau( 131) = (   0.5973279   0.4225163   1.2949590  )
       132        O      tau( 132) = (   0.5334428   0.5020140   1.6146071  )
       133        O      tau( 133) = (   0.2755656   0.1058719   1.6786020  )
       134        O      tau( 134) = (   0.1545595   0.1075181   1.6150265  )
       135        O      tau( 135) = (   0.1198242   0.5723265   1.5291309  )
       136        O      tau( 136) = (   0.5826608   0.7211316   1.6806210  )
       137        O      tau( 137) = (   0.4384820   0.7620469   1.6969890  )
       138        O      tau( 138) = (   0.3813441   0.2977472   1.4178316  )
       139        O      tau( 139) = (   0.9518571   0.2429557   1.5505285  )
       140        O      tau( 140) = (   0.6668767   0.5177678   1.6031137  )
       141        O      tau( 141) = (   0.1520770   0.1695411   1.3620472  )
       142        O      tau( 142) = (   0.6925009   0.7509516   1.3753791  )
       143        O      tau( 143) = (   0.1434568   0.6580895   1.2139172  )
       144        O      tau( 144) = (   0.4761486   0.9028411   1.5138988  )
       145        O      tau( 145) = (   0.0631356   0.5782061   1.8492954  )
       146        O      tau( 146) = (   0.5876332   0.4146284   1.8503125  )
       147        O      tau( 147) = (   0.1071621   0.8902567   1.6361869  )
       148        O      tau( 148) = (   0.0331486   0.1967754   1.4407710  )
       149        O      tau( 149) = (   0.9443941   0.9810288   1.5588672  )
       150        O      tau( 150) = (   0.5485694   0.5774714   1.2625723  )
       151        O      tau( 151) = (   0.6090489   0.9225244   1.8421140  )
       152        O      tau( 152) = (   0.3184350   0.7927686   1.7545505  )
       153        O      tau( 153) = (   0.2965868   0.2359092   1.6579206  )
       154        O      tau( 154) = (   0.3399948   0.4149078   1.7451441  )
       155        O      tau( 155) = (   0.6583099   0.3076783   1.2358723  )
       156        O      tau( 156) = (   0.5620926   0.7442927   1.5385442  )
       157        O      tau( 157) = (   0.5556976   0.3175372   1.7688381  )
       158        O      tau( 158) = (   0.3525972   0.6632019   1.7471104  )
       159        O      tau( 159) = (   0.9620412   0.3446718   1.7697440  )
       160        O      tau( 160) = (   0.5313272   0.1848172   1.7709556  )
       161        O      tau( 161) = (   0.9429693   0.0183272   1.3239474  )
       162        O      tau( 162) = (   0.4858005   0.9533180   1.8755890  )
       163        O      tau( 163) = (   0.3657073   0.5328581   1.8345358  )
       164        O      tau( 164) = (   0.4406081   0.5066782   1.2484323  )
       165        O      tau( 165) = (   0.3135028   0.2834622   1.8690668  )
       166        O      tau( 166) = (   0.7907911   0.8360261   1.7119523  )
       167        O      tau( 167) = (   0.7289290   0.9234833   1.2340123  )
       168        O      tau( 168) = (   0.1454692   0.2885690   1.3267456  )
       169        O      tau( 169) = (   0.3914991   0.9066251   1.7575926  )
       170        O      tau( 170) = (   0.7079875   0.2222935   1.4707635  )
       171        O      tau( 171) = (   0.9743698   0.8515159   1.5269402  )
       172        O      tau( 172) = (   0.1330105   0.5361140   1.2470617  )
       173        O      tau( 173) = (   0.5827735   0.0420994   1.2254729  )
       174        O      tau( 174) = (   0.8602910   0.6220068   1.7811976  )
       175        O      tau( 175) = (   0.5252483   0.6418342   1.4684534  )
       176        O      tau( 176) = (   0.6556139   0.6691234   1.7930720  )
       177        O      tau( 177) = (   0.9478947   0.4555202   1.2814895  )
       178        O      tau( 178) = (   0.9699578   0.0766966   1.2188133  )
       179        O      tau( 179) = (   0.5480526   0.8088247   1.7836236  )
       180        O      tau( 180) = (   0.3152477   0.7447790   1.3880620  )
       181        O      tau( 181) = (   0.1477991   0.6460434   1.7450578  )
       182        O      tau( 182) = (   0.4226375   0.0083615   1.6949577  )
       183        O      tau( 183) = (   0.5004654   0.8461638   1.2447985  )
       184        O      tau( 184) = (   0.7864920   0.8423242   1.4036977  )
       185        O      tau( 185) = (   0.9046070   0.6136339   1.3286598  )
       186        O      tau( 186) = (   0.1308852   0.5564651   1.3912596  )
       187        O      tau( 187) = (   0.0181193   0.9388870   1.8632981  )
       188        O      tau( 188) = (   0.5236768   0.3172741   1.4469420  )
       189        O      tau( 189) = (   0.6771903   0.1363695   1.2729556  )
       190        O      tau( 190) = (   0.5668565   0.7520726   1.3411952  )
       191        O      tau( 191) = (   0.4390184   0.1054952   1.8920128  )
       192        O      tau( 192) = (   0.2801127   0.0556319   1.5537880  )
       193        O      tau( 193) = (   0.9517833   0.2240015   1.8530263  )
       194        O      tau( 194) = (   0.4078786   0.5134087   1.6517908  )
       195        O      tau( 195) = (   0.6735166   0.7941076   1.8547702  )
       196        O      tau( 196) = (   0.7896414   0.2674110   1.3392843  )
       197        O      tau( 197) = (   0.9136500   0.5214282   1.5392122  )
       198        O      tau( 198) = (   0.5881526   0.4350093   1.4460280  )
       199        O      tau( 199) = (   0.7745755   0.5842257   1.3844862  )
       200        O      tau( 200) = (   0.2034896   0.9862494   1.6415920  )
       201        O      tau( 201) = (   0.1233221   0.6813655   1.4530684  )
       202        O      tau( 202) = (   0.7937827   0.3272627   1.4639956  )
       203        O      tau( 203) = (   0.4473563   0.5396589   1.5104804  )
       204        O      tau( 204) = (   0.6542799   0.3403998   1.5182787  )
       205        O      tau( 205) = (   0.8234572   0.7113307   1.3622509  )
       206        O      tau( 206) = (   0.8127487   0.4431771   1.5824090  )
       207        O      tau( 207) = (   0.5134106   0.6764784   1.7758121  )
       208        O      tau( 208) = (   0.1836556   0.7783442   1.3761575  )
       209        O      tau( 209) = (   0.8104766   0.3105590   1.6473803  )
       210        O      tau( 210) = (   0.3044033   0.9850075   1.3843284  )
       211        O      tau( 211) = (   0.1301504   0.8965179   1.7717389  )
       212        O      tau( 212) = (   0.3197141   0.1653364   1.2298596  )
       213        O      tau( 213) = (   0.4699233   0.1934200   1.4196372  )
       214        O      tau( 214) = (   0.2809558   0.8612246   1.3097159  )
       215        O      tau( 215) = (   0.4264163   0.2824703   1.8051299  )
       216        O      tau( 216) = (   0.6599679   0.6539216   1.5790006  )
       217        O      tau( 217) = (   0.7349642   0.9291111   1.6364595  )
       218        O      tau( 218) = (   0.0099961   0.4612132   1.4800917  )
       219        O      tau( 219) = (   0.5892025   0.1978638   1.5290320  )
       220        O      tau( 220) = (   0.0485841   0.8646896   1.2765110  )
       221        O      tau( 221) = (   0.9732948   0.8322736   1.3845405  )
       222        O      tau( 222) = (   0.4005127   0.1467648   1.7001924  )
       223        O      tau( 223) = (   0.8561165   0.3880932   1.3551362  )
       224        O      tau( 224) = (   0.1908703   0.7320545   1.6493092  )
       225        O      tau( 225) = (   0.5316561   0.3624401   1.5720686  )
       226        O      tau( 226) = (   0.6407674   0.0341441   1.3503554  )
       227        O      tau( 227) = (   0.2507360   0.3493753   1.4464087  )
       228        O      tau( 228) = (   0.5138994   0.8709061   1.3834646  )
       229        O      tau( 229) = (   0.9079300   0.5013233   1.4088368  )
       230        O      tau( 230) = (   0.4395504   0.1937154   1.2966161  )
       231        O      tau( 231) = (   0.2308999   0.6103161   1.2990312  )
       232        O      tau( 232) = (   0.3685013   0.9700313   1.5258447  )
       233        O      tau( 233) = (   0.8514985   0.9494698   1.6877232  )
       234        O      tau( 234) = (   0.0187499   0.4824011   1.7364241  )
       235        O      tau( 235) = (   0.2414021   0.3421124   1.5740169  )
       236        O      tau( 236) = (   0.6097970   0.4413714   1.7163163  )
       237        O      tau( 237) = (   0.4788214   0.4352721   1.7472383  )
       238        O      tau( 238) = (   0.1395403   0.9630524   1.5257738  )
       239        O      tau( 239) = (   0.3787358   0.0784353   1.3203646  )
       240        O      tau( 240) = (   0.5839692   0.9685892   1.4551464  )
       241        O      tau( 241) = (   0.9110607   0.6557788   1.2003494  )
       242        O      tau( 242) = (   0.0686474   0.1043740   1.8437037  )
       243        O      tau( 243) = (   0.1460976   0.3999842   1.5060950  )
       244        O      tau( 244) = (   0.4166165   0.3782170   1.6358330  )
       245        O      tau( 245) = (   0.0075933   0.9084354   1.7265037  )
       246        O      tau( 246) = (   0.8482460   0.9888286   1.2074661  )
       247        O      tau( 247) = (   0.6787187   0.3475581   1.3906861  )
       248        O      tau( 248) = (   0.2793975   0.6318760   1.8700688  )
       249        O      tau( 249) = (   0.1753735   0.9662414   1.3957977  )
       250        O      tau( 250) = (   0.0079684   0.6039592   1.4520956  )
       251        O      tau( 251) = (   0.6799702   0.7916690   1.6137563  )
       252        O      tau( 252) = (   0.8228944   0.4963375   1.2716413  )
       253        O      tau( 253) = (   0.1652982   0.5553089   1.6491463  )
       254        O      tau( 254) = (   0.6527640   0.8346788   1.2935381  )
       255        O      tau( 255) = (   0.0358116   0.1810737   1.6422342  )
       256        O      tau( 256) = (   0.5638762   0.0484964   1.7892635  )
       257        O      tau( 257) = (   0.7314789   0.9670683   1.4359075  )
       258        O      tau( 258) = (   0.2559548   0.8899428   1.4535926  )
       259        O      tau( 259) = (   0.7774448   0.5773609   1.5598674  )
       260        O      tau( 260) = (   0.0868638   0.6515873   1.6288983  )
       261        O      tau( 261) = (   0.2614827   0.9212168   1.7891965  )
       262        O      tau( 262) = (   0.1954831   0.1735609   1.8664394  )
       263        O      tau( 263) = (   0.9906684   0.7948073   1.8435173  )
       264        O      tau( 264) = (   0.4575167   0.9955248   1.4051103  )
       265        O      tau( 265) = (   0.7735858   0.2011661   1.2118609  )
       266        O      tau( 266) = (   0.8814090   0.9281431   1.4499689  )
       267        O      tau( 267) = (   0.4072071   0.9256292   1.2771435  )
       268        O      tau( 268) = (   0.8399764   0.8937974   1.5751596  )
       269        O      tau( 269) = (   0.9802476   0.7272430   1.4739436  )
       270        O      tau( 270) = (   0.4029974   0.6353892   1.4077172  )
       271        O      tau( 271) = (   0.5236271   0.0940762   1.6637713  )
       272        O      tau( 272) = (   0.2291142   0.8566340   1.6031926  )
       273        O      tau( 273) = (   0.1369597   0.1529802   1.7410824  )
       274        O      tau( 274) = (   0.8956842   0.4684356   1.7728116  )
       275        O      tau( 275) = (   0.0304714   0.3296381   1.4668483  )
       276        O      tau( 276) = (   0.9261533   0.1126670   1.5937994  )
       277        O      tau( 277) = (   0.3196110   0.7473434   1.6269653  )
       278        O      tau( 278) = (   0.2346612   0.4755155   1.3381933  )
       279        O      tau( 279) = (   0.0309321   0.9618656   1.4299785  )
       280        O      tau( 280) = (   0.1026240   0.4047238   1.3770124  )
       281        O      tau( 281) = (   0.0996948   0.0720356   1.4419196  )
       282        O      tau( 282) = (   0.9796419   0.7336502   1.2951357  )
       283        O      tau( 283) = (   0.4798587   0.2721799   1.6719849  )
       284        O      tau( 284) = (   0.1447462   0.5042309   1.7791641  )
       285        O      tau( 285) = (   0.6584207   0.0850578   1.4744274  )
       286        O      tau( 286) = (   0.8447302   0.2856675   1.7867899  )
       287        O      tau( 287) = (   0.9236456   0.3532967   1.8933803  )
       288        O      tau( 288) = (   0.7131244   0.4260542   1.2089447  )
       289        O      tau( 289) = (   0.1815374   0.0351118   1.8104616  )
       290        O      tau( 290) = (   0.0329975   0.6097415   1.2681351  )
       291        O      tau( 291) = (   0.8998275   0.8951096   1.8045433  )
       292        O      tau( 292) = (   0.3016404   0.4593341   1.2337882  )
       293        O      tau( 293) = (   0.2631331   0.5633327   1.7490475  )
       294        O      tau( 294) = (   0.7023044   0.1539457   1.5910141  )
       295        O      tau( 295) = (   0.5450848   0.1349270   1.3303906  )
       296        O      tau( 296) = (   0.1632620   0.2443342   1.6379519  )
       297        O      tau( 297) = (   0.1916640   0.3894955   1.2601897  )
       298        O      tau( 298) = (   0.0615898   0.0043928   1.2718305  )
       299        O      tau( 299) = (   0.3967139   0.3875856   1.8762703  )
       300        O      tau( 300) = (   0.4846187   0.5410669   1.3666698  )
       301        O      tau( 301) = (   0.8186424   0.0168112   1.5820830  )
       302        O      tau( 302) = (   0.5974300   0.5762403   1.7036424  )
       303        O      tau( 303) = (   0.4323575   0.7667648   1.3386386  )
       304        O      tau( 304) = (   0.7719883   0.9374236   1.8028857  )
       305        O      tau( 305) = (   0.7672182   0.1900179   1.6976508  )
       306        O      tau( 306) = (   0.8994379   0.0650389   1.4672678  )
       307        O      tau( 307) = (   0.4462121   0.7426137   1.4731770  )
       308        O      tau( 308) = (   0.9211726   0.3961581   1.6533343  )
       309        O      tau( 309) = (   0.2420202   0.2200105   1.5251544  )
       310        O      tau( 310) = (   0.8842963   0.6436934   1.4589679  )
       311        O      tau( 311) = (   0.6482991   0.6785877   1.2330670  )
       312        O      tau( 312) = (   0.4832983   0.6325017   1.6039613  )
       313        O      tau( 313) = (   0.7361349   0.0571749   1.8732737  )
       314        O      tau( 314) = (   0.6649925   0.8590630   1.7336776  )
       315        O      tau( 315) = (   0.9130296   0.2721061   1.4159943  )
       316        O      tau( 316) = (   0.6511009   0.5989696   1.3506902  )
       317        O      tau( 317) = (   0.8131240   0.0898692   1.2825970  )
       318        O      tau( 318) = (   0.6524595   0.1336951   1.7108949  )
       319        O      tau( 319) = (   0.6784211   0.5695802   1.4690337  )
       320        O      tau( 320) = (   0.9018920   0.2183548   1.6834522  )
       321        O      tau( 321) = (   0.9678130   0.0358255   1.7940055  )
       322        O      tau( 322) = (   0.8368182   0.5391156   1.6776043  )
       323        O      tau( 323) = (   0.7668768   0.6856661   1.8697035  )
       324        O      tau( 324) = (   0.1531671   0.9301796   1.8945654  )
       325        O      tau( 325) = (   0.2178402   0.7542098   1.5177838  )
       326        O      tau( 326) = (   0.3614324   0.0782581   1.4600024  )
       327        O      tau( 327) = (   0.4053368   0.0766386   1.5793453  )
       328        O      tau( 328) = (   0.3320739   0.8564650   1.8828345  )
       329        O      tau( 329) = (   0.0914304   0.8126101   1.4681485  )
       330        O      tau( 330) = (   0.2416337   0.7445048   1.2588964  )
       331        O      tau( 331) = (   0.8232583   0.9617889   1.3373563  )
       332        O      tau( 332) = (   0.0224173   0.1103921   1.3331986  )
       333        O      tau( 333) = (   0.0827261   0.7743688   1.7158336  )
       334        O      tau( 334) = (   0.3058372   0.3697607   1.3216954  )
       335        O      tau( 335) = (   0.6940744   0.4843818   1.3763524  )
       336        O      tau( 336) = (   0.0505520   0.3569640   1.2588409  )
       337        O      tau( 337) = (   0.6956442   0.5556100   1.2255199  )
       338        O      tau( 338) = (   0.9205918   0.8444316   1.2442634  )
       339        Al     tau( 339) = (   0.9474166   0.9984982   1.4171699  )
       340        Al     tau( 340) = (   0.7317137   0.2651324   1.2660316  )
       341        C      tau( 341) = (   0.5691377   0.4617851   2.1398284  )
       342        C      tau( 342) = (   0.4944784   0.4516561   2.1413123  )
       343        C      tau( 343) = (   0.6140474   0.4021687   2.1352022  )
       344        C      tau( 344) = (   0.4669239   0.3822075   2.1381419  )
       345        C      tau( 345) = (   0.5966869   0.5312330   2.1429989  )
       346        C      tau( 346) = (   0.4495738   0.5112736   2.1459331  )
       347        C      tau( 347) = (   0.5857528   0.3335483   2.1320886  )
       348        C      tau( 348) = (   0.5123336   0.3235869   2.1335583  )
       349        C      tau( 349) = (   0.5512823   0.5898546   2.1475771  )
       350        C      tau( 350) = (   0.4778681   0.5798945   2.1490361  )
       351        H      tau( 351) = (   0.6715984   0.4086951   2.1339763  )
       352        H      tau( 352) = (   0.4097061   0.3731626   2.1392105  )
       353        H      tau( 353) = (   0.6539041   0.5402829   2.1419359  )
       354        H      tau( 354) = (   0.3920120   0.5047463   2.1471486  )
       355        H      tau( 355) = (   0.6210717   0.2878911   2.1285241  )
       356        H      tau( 356) = (   0.4903398   0.2701488   2.1311313  )
       357        H      tau( 357) = (   0.5732767   0.6432877   2.1499985  )
       358        H      tau( 358) = (   0.4425484   0.6255570   2.1526009  )

     number of k points=     1  Gaussian smearing, width (Ry)=  0.0100
                       cart. coord. in units 2pi/alat
        k(    1) = (   0.0000000   0.0000000   0.0000000), wk =   2.0000000

     Dense  grid: 15943719 G-vectors     FFT dimensions: ( 216, 216, 675)

     Smooth grid: 13361281 G-vectors     FFT dimensions: ( 216, 216, 625)

     Estimated max dynamical RAM per process >       4.14 GB

     Estimated total dynamical RAM >     331.13 GB

     Check: negative core charge=   -0.000001

     Initial potential from superposition of free atoms

     starting charge    1871.8703, renormalised to    1872.0000

     negative rho (up, down):  4.137E-02 0.000E+00
     Starting wfcs are 1419 randomized atomic wfcs
     Checking if some PAW data can be deallocated... 

     total cpu time spent up to now is      149.6 secs

     per-process dynamical memory:  1754.1 Mb

     Self-consistent Calculation

     iteration #  1     ecut=    80.00 Ry     beta= 0.10
     Davidson diagonalization with overlap
     ethr =  1.00E-02,  avg # of iterations =  3.0

     negative rho (up, down):  4.333E-02 0.000E+00

     total cpu time spent up to now is      643.5 secs

     total energy              =  -11693.36274828 Ry
     estimated scf accuracy    <     115.64299561 Ry

     iteration #  2     ecut=    80.00 Ry     beta= 0.10
     Davidson diagonalization with overlap
     ethr =  6.18E-03,  avg # of iterations =  1.0

     negative rho (up, down):  4.499E-02 0.000E+00

     total cpu time spent up to now is      931.0 secs

     total energy              =  -11688.11255127 Ry
     estimated scf accuracy    <      85.15666489 Ry

     iteration #  3     ecut=    80.00 Ry     beta= 0.10
     Davidson diagonalization with overlap
     ethr =  4.55E-03,  avg # of iterations =  1.0

     negative rho (up, down):  4.672E-02 0.000E+00

     total cpu time spent up to now is     1219.1 secs

     total energy              =  -11681.49110877 Ry
     estimated scf accuracy    <      59.13617625 Ry

     iteration #  4     ecut=    80.00 Ry     beta= 0.10
     Davidson diagonalization with overlap
     ethr =  3.16E-03,  avg # of iterations =  2.0

     negative rho (up, down):  4.777E-02 0.000E+00

     total cpu time spent up to now is     1542.8 secs

     total energy              =  -11682.79310920 Ry
     estimated scf accuracy    <      61.54989698 Ry

     iteration #  5     ecut=    80.00 Ry     beta= 0.10
     Davidson diagonalization with overlap
     ethr =  3.16E-03,  avg # of iterations =  1.0

     negative rho (up, down):  4.882E-02 0.000E+00

     total cpu time spent up to now is     1831.2 secs

     total energy              =  -11682.29414177 Ry
     estimated scf accuracy    <      43.08527939 Ry

     iteration #  6     ecut=    80.00 Ry     beta= 0.10
     Davidson diagonalization with overlap
     ethr =  2.30E-03,  avg # of iterations =  1.0

     negative rho (up, down):  4.968E-02 0.000E+00

     total cpu time spent up to now is     2119.2 secs

     total energy              =  -11682.47643498 Ry
     estimated scf accuracy    <      21.87770634 Ry

     iteration #  7     ecut=    80.00 Ry     beta= 0.10
     Davidson diagonalization with overlap
     ethr =  1.17E-03,  avg # of iterations =  4.0

     negative rho (up, down):  5.043E-02 0.000E+00

     total cpu time spent up to now is     2445.7 secs

     total energy              =  -11682.27365255 Ry
     estimated scf accuracy    <      30.39793727 Ry

     iteration #  8     ecut=    80.00 Ry     beta= 0.10
     Davidson diagonalization with overlap
     ethr =  1.17E-03,  avg # of iterations =  2.0

     negative rho (up, down):  5.097E-02 0.000E+00

     total cpu time spent up to now is     2771.2 secs

     total energy              =  -11682.33891205 Ry
     estimated scf accuracy    <      16.34147770 Ry

     iteration #  9     ecut=    80.00 Ry     beta= 0.10
     Davidson diagonalization with overlap
     ethr =  8.73E-04,  avg # of iterations =  1.0

     negative rho (up, down):  5.154E-02 0.000E+00

     total cpu time spent up to now is     3060.0 secs

     total energy              =  -11682.15345562 Ry
     estimated scf accuracy    <      12.12726805 Ry

     iteration # 10     ecut=    80.00 Ry     beta= 0.10
     Davidson diagonalization with overlap
     ethr =  6.48E-04,  avg # of iterations =  5.0

     negative rho (up, down):  5.204E-02 0.000E+00

     total cpu time spent up to now is     3389.4 secs

     total energy              =  -11681.98230456 Ry
     estimated scf accuracy    <      14.81283933 Ry

     iteration # 11     ecut=    80.00 Ry     beta= 0.10
     Davidson diagonalization with overlap
     ethr =  6.48E-04,  avg # of iterations =  2.0

     negative rho (up, down):  5.236E-02 0.000E+00

     total cpu time spent up to now is     3713.2 secs

     total energy              =  -11682.07017798 Ry
     estimated scf accuracy    <      20.04746677 Ry

     iteration # 12     ecut=    80.00 Ry     beta= 0.10
     Davidson diagonalization with overlap
     ethr =  6.48E-04,  avg # of iterations =  1.0

     negative rho (up, down):  5.268E-02 0.000E+00

     total cpu time spent up to now is     4000.6 secs

     total energy              =  -11682.27351371 Ry
     estimated scf accuracy    <       5.44300616 Ry

     iteration # 13     ecut=    80.00 Ry     beta= 0.10
     Davidson diagonalization with overlap
     ethr =  2.91E-04,  avg # of iterations = 17.0

     negative rho (up, down):  5.305E-02 0.000E+00

     total cpu time spent up to now is     4429.8 secs

     total energy              =  -11682.21418600 Ry
     estimated scf accuracy    <       6.85279214 Ry

     iteration # 14     ecut=    80.00 Ry     beta= 0.10
     Davidson diagonalization with overlap
     ethr =  2.91E-04,  avg # of iterations =  1.0

     negative rho (up, down):  5.340E-02 0.000E+00

     total cpu time spent up to now is     4717.3 secs

     total energy              =  -11682.21095425 Ry
     estimated scf accuracy    <       5.28528466 Ry

     iteration # 15     ecut=    80.00 Ry     beta= 0.10
     Davidson diagonalization with overlap
     ethr =  2.82E-04,  avg # of iterations =  1.0

     negative rho (up, down):  5.356E-02 0.000E+00

     total cpu time spent up to now is     5005.8 secs

     total energy              =  -11682.10896762 Ry
     estimated scf accuracy    <       6.66732169 Ry

     iteration # 16     ecut=    80.00 Ry     beta= 0.10
     Davidson diagonalization with overlap
     ethr =  2.82E-04,  avg # of iterations =  1.0

     negative rho (up, down):  5.392E-02 0.000E+00

     total cpu time spent up to now is     5293.7 secs

     total energy              =  -11682.14671525 Ry
     estimated scf accuracy    <       3.58964470 Ry

     iteration # 17     ecut=    80.00 Ry     beta= 0.10
     Davidson diagonalization with overlap
     ethr =  1.92E-04,  avg # of iterations =  1.0

     negative rho (up, down):  5.439E-02 0.000E+00

     total cpu time spent up to now is     5581.8 secs

     total energy              =  -11682.09393482 Ry
     estimated scf accuracy    <       5.06722295 Ry

     iteration # 18     ecut=    80.00 Ry     beta= 0.10
     Davidson diagonalization with overlap
     ethr =  1.92E-04,  avg # of iterations =  1.0

     negative rho (up, down):  5.447E-02 0.000E+00

     total cpu time spent up to now is     5869.9 secs

     total energy              =  -11682.06385526 Ry
     estimated scf accuracy    <       7.77069022 Ry

     iteration # 19     ecut=    80.00 Ry     beta= 0.10
     Davidson diagonalization with overlap
     ethr =  1.92E-04,  avg # of iterations =  1.0

     negative rho (up, down):  5.454E-02 0.000E+00

     total cpu time spent up to now is     6157.4 secs

     total energy              =  -11682.12670199 Ry
     estimated scf accuracy    <       2.14819865 Ry

     iteration # 20     ecut=    80.00 Ry     beta= 0.10
     Davidson diagonalization with overlap
     ethr =  1.15E-04,  avg # of iterations =  1.0

     negative rho (up, down):  5.514E-02 0.000E+00

     total cpu time spent up to now is     6446.0 secs

     total energy              =  -11682.09966864 Ry
     estimated scf accuracy    <       2.54170631 Ry

     iteration # 21     ecut=    80.00 Ry     beta= 0.10
     Davidson diagonalization with overlap
     ethr =  1.15E-04,  avg # of iterations =  1.0

     negative rho (up, down):  5.552E-02 0.000E+00

     total cpu time spent up to now is     6734.2 secs

     total energy              =  -11682.04216951 Ry
     estimated scf accuracy    <      10.52925905 Ry

     iteration # 22     ecut=    80.00 Ry     beta= 0.10
     Davidson diagonalization with overlap
     ethr =  1.15E-04,  avg # of iterations =  1.0

     negative rho (up, down):  5.540E-02 0.000E+00

     total cpu time spent up to now is     7022.8 secs

     total energy              =  -11682.03791403 Ry
     estimated scf accuracy    <       4.88347110 Ry

     iteration # 23     ecut=    80.00 Ry     beta= 0.10
     Davidson diagonalization with overlap
     ethr =  1.15E-04,  avg # of iterations =  2.0

     negative rho (up, down):  5.538E-02 0.000E+00

     total cpu time spent up to now is     7346.9 secs

     total energy              =  -11682.09160779 Ry
     estimated scf accuracy    <       2.11311004 Ry

     iteration # 24     ecut=    80.00 Ry     beta= 0.10
     Davidson diagonalization with overlap
     ethr =  1.13E-04,  avg # of iterations =  1.0

     negative rho (up, down):  5.571E-02 0.000E+00

     total cpu time spent up to now is     7635.0 secs

     total energy              =  -11682.05657114 Ry
     estimated scf accuracy    <       9.08216103 Ry

     iteration # 25     ecut=    80.00 Ry     beta= 0.10
     Davidson diagonalization with overlap
     ethr =  1.13E-04,  avg # of iterations =  1.0

     negative rho (up, down):  5.597E-02 0.000E+00

     total cpu time spent up to now is     7922.9 secs

     total energy              =  -11682.08806523 Ry
     estimated scf accuracy    <       3.65254644 Ry

     iteration # 26     ecut=    80.00 Ry     beta= 0.10
     Davidson diagonalization with overlap
     ethr =  1.13E-04,  avg # of iterations =  1.0

     negative rho (up, down):  5.616E-02 0.000E+00

     total cpu time spent up to now is     8212.0 secs

     total energy              =  -11682.09086614 Ry
     estimated scf accuracy    <       1.26502597 Ry

     iteration # 27     ecut=    80.00 Ry     beta= 0.10
     Davidson diagonalization with overlap
     ethr =  6.76E-05,  avg # of iterations =  1.0

     negative rho (up, down):  5.671E-02 0.000E+00

     total cpu time spent up to now is     8500.8 secs

     total energy              =  -11682.09300054 Ry
     estimated scf accuracy    <       2.20716900 Ry

     iteration # 28     ecut=    80.00 Ry     beta= 0.10
     Davidson diagonalization with overlap
     ethr =  6.76E-05,  avg # of iterations =  1.0

     negative rho (up, down):  5.658E-02 0.000E+00

     total cpu time spent up to now is     8788.8 secs

     total energy              =  -11682.09882170 Ry
     estimated scf accuracy    <       1.37460748 Ry

     iteration # 29     ecut=    80.00 Ry     beta= 0.10
     Davidson diagonalization with overlap
     ethr =  6.76E-05,  avg # of iterations =  1.0

     negative rho (up, down):  5.649E-02 0.000E+00

     total cpu time spent up to now is     9077.4 secs

     total energy              =  -11682.09852312 Ry
     estimated scf accuracy    <       0.78779820 Ry

     iteration # 30     ecut=    80.00 Ry     beta= 0.10
     Davidson diagonalization with overlap
     ethr =  4.21E-05,  avg # of iterations =  1.0

     negative rho (up, down):  5.671E-02 0.000E+00

     total cpu time spent up to now is     9365.7 secs

     total energy              =  -11682.08507165 Ry
     estimated scf accuracy    <       3.32455657 Ry

     iteration # 31     ecut=    80.00 Ry     beta= 0.10
     Davidson diagonalization with overlap
     ethr =  4.21E-05,  avg # of iterations =  1.0

     negative rho (up, down):  5.695E-02 0.000E+00

     total cpu time spent up to now is     9653.7 secs

     total energy              =  -11682.08961947 Ry
     estimated scf accuracy    <       2.33637962 Ry

     iteration # 32     ecut=    80.00 Ry     beta= 0.10
     Davidson diagonalization with overlap
     ethr =  4.21E-05,  avg # of iterations =  1.0

     negative rho (up, down):  5.700E-02 0.000E+00

     total cpu time spent up to now is     9941.3 secs

     total energy              =  -11682.10184633 Ry
     estimated scf accuracy    <       1.20295083 Ry

     iteration # 33     ecut=    80.00 Ry     beta= 0.10
     Davidson diagonalization with overlap
     ethr =  4.21E-05,  avg # of iterations =  1.0

     negative rho (up, down):  5.697E-02 0.000E+00

     total cpu time spent up to now is    10228.9 secs

     total energy              =  -11682.10688821 Ry
     estimated scf accuracy    <       0.68248846 Ry

     iteration # 34     ecut=    80.00 Ry     beta= 0.10
     Davidson diagonalization with overlap
     ethr =  3.65E-05,  avg # of iterations =  4.0

     negative rho (up, down):  5.707E-02 0.000E+00

     total cpu time spent up to now is    10557.3 secs

     total energy              =  -11682.09753200 Ry
     estimated scf accuracy    <       2.95271481 Ry

     iteration # 35     ecut=    80.00 Ry     beta= 0.10
     Davidson diagonalization with overlap
     ethr =  3.65E-05,  avg # of iterations =  2.0

     negative rho (up, down):  5.713E-02 0.000E+00

     total cpu time spent up to now is    10881.9 secs

     total energy              =  -11682.11382115 Ry
     estimated scf accuracy    <       0.42506905 Ry

     iteration # 36     ecut=    80.00 Ry     beta= 0.10
     Davidson diagonalization with overlap
     ethr =  2.27E-05,  avg # of iterations = 17.0

     negative rho (up, down):  5.716E-02 0.000E+00

     total cpu time spent up to now is    11305.5 secs

     total energy              =  -11682.11580707 Ry
     estimated scf accuracy    <       0.19340834 Ry

     iteration # 37     ecut=    80.00 Ry     beta= 0.10
     Davidson diagonalization with overlap
     ethr =  1.03E-05,  avg # of iterations =  1.0

     negative rho (up, down):  5.730E-02 0.000E+00

     total cpu time spent up to now is    11593.0 secs

     total energy              =  -11682.11539836 Ry
     estimated scf accuracy    <       0.31772574 Ry

     iteration # 38     ecut=    80.00 Ry     beta= 0.10
     Davidson diagonalization with overlap
     ethr =  1.03E-05,  avg # of iterations =  1.0

     negative rho (up, down):  5.732E-02 0.000E+00

     total cpu time spent up to now is    11880.3 secs

     total energy              =  -11682.11414901 Ry
     estimated scf accuracy    <       0.39172778 Ry

     iteration # 39     ecut=    80.00 Ry     beta= 0.10
     Davidson diagonalization with overlap
     ethr =  1.03E-05,  avg # of iterations =  1.0

     negative rho (up, down):  5.735E-02 0.000E+00

     total cpu time spent up to now is    12168.0 secs

     total energy              =  -11682.11669110 Ry
     estimated scf accuracy    <       0.09112490 Ry

     iteration # 40     ecut=    80.00 Ry     beta= 0.10
     Davidson diagonalization with overlap
     ethr =  4.87E-06,  avg # of iterations =  1.0

     negative rho (up, down):  5.740E-02 0.000E+00

     total cpu time spent up to now is    12457.1 secs

     total energy              =  -11682.11468689 Ry
     estimated scf accuracy    <       0.48256150 Ry

     iteration # 41     ecut=    80.00 Ry     beta= 0.10
     Davidson diagonalization with overlap
     ethr =  4.87E-06,  avg # of iterations =  1.0

     negative rho (up, down):  5.751E-02 0.000E+00

     total cpu time spent up to now is    12745.6 secs

     total energy              =  -11682.11801211 Ry
     estimated scf accuracy    <       0.13129018 Ry

     iteration # 42     ecut=    80.00 Ry     beta= 0.10
     Davidson diagonalization with overlap
     ethr =  4.87E-06,  avg # of iterations =  1.0

     negative rho (up, down):  5.763E-02 0.000E+00

     total cpu time spent up to now is    13033.2 secs

     total energy              =  -11682.11730414 Ry
     estimated scf accuracy    <       0.21131665 Ry

     iteration # 43     ecut=    80.00 Ry     beta= 0.10
     Davidson diagonalization with overlap
     ethr =  4.87E-06,  avg # of iterations =  1.0

     negative rho (up, down):  5.759E-02 0.000E+00

     total cpu time spent up to now is    13321.4 secs

     total energy              =  -11682.11488483 Ry
     estimated scf accuracy    <       0.40107415 Ry

     iteration # 44     ecut=    80.00 Ry     beta= 0.10
     Davidson diagonalization with overlap
     ethr =  4.87E-06,  avg # of iterations =  1.0

     negative rho (up, down):  5.764E-02 0.000E+00

     total cpu time spent up to now is    13610.9 secs

     total energy              =  -11682.11362277 Ry
     estimated scf accuracy    <       0.85897272 Ry

     iteration # 45     ecut=    80.00 Ry     beta= 0.10
     Davidson diagonalization with overlap
     ethr =  4.87E-06,  avg # of iterations =  1.0

     negative rho (up, down):  5.761E-02 0.000E+00

     total cpu time spent up to now is    13898.1 secs

     total energy              =  -11682.11433373 Ry
     estimated scf accuracy    <       0.49059151 Ry

     iteration # 46     ecut=    80.00 Ry     beta= 0.10
     Davidson diagonalization with overlap
     ethr =  4.87E-06,  avg # of iterations =  1.0

     negative rho (up, down):  5.762E-02 0.000E+00

     total cpu time spent up to now is    14185.6 secs

     total energy              =  -11682.11685922 Ry
     estimated scf accuracy    <       0.27472822 Ry

     iteration # 47     ecut=    80.00 Ry     beta= 0.10
     Davidson diagonalization with overlap
     ethr =  4.87E-06,  avg # of iterations =  1.0

     negative rho (up, down):  5.787E-02 0.000E+00

     total cpu time spent up to now is    14473.6 secs

     total energy              =  -11682.11979145 Ry
     estimated scf accuracy    <       0.19537199 Ry

     iteration # 48     ecut=    80.00 Ry     beta= 0.10
     Davidson diagonalization with overlap
     ethr =  4.87E-06,  avg # of iterations =  1.0

     negative rho (up, down):  5.773E-02 0.000E+00

     total cpu time spent up to now is    14761.0 secs

     total energy              =  -11682.11751660 Ry
     estimated scf accuracy    <       0.12432104 Ry

     iteration # 49     ecut=    80.00 Ry     beta= 0.10
     Davidson diagonalization with overlap
     ethr =  4.87E-06,  avg # of iterations =  1.0

     negative rho (up, down):  5.781E-02 0.000E+00

     total cpu time spent up to now is    15048.9 secs

     total energy              =  -11682.11940029 Ry
     estimated scf accuracy    <       0.08737770 Ry

     iteration # 50     ecut=    80.00 Ry     beta= 0.10
     Davidson diagonalization with overlap
     ethr =  4.67E-06,  avg # of iterations =  1.0

     negative rho (up, down):  5.780E-02 0.000E+00

     total cpu time spent up to now is    15336.6 secs

     total energy              =  -11682.11779082 Ry
     estimated scf accuracy    <       0.29571264 Ry

     iteration # 51     ecut=    80.00 Ry     beta= 0.10
     Davidson diagonalization with overlap
     ethr =  4.67E-06,  avg # of iterations =  1.0

     negative rho (up, down):  5.789E-02 0.000E+00

     total cpu time spent up to now is    15625.1 secs

     total energy              =  -11682.12006475 Ry
     estimated scf accuracy    <       0.09176001 Ry

     iteration # 52     ecut=    80.00 Ry     beta= 0.10
     Davidson diagonalization with overlap
     ethr =  4.67E-06,  avg # of iterations =  1.0

     negative rho (up, down):  5.799E-02 0.000E+00

     total cpu time spent up to now is    15914.8 secs

     total energy              =  -11682.12055133 Ry
     estimated scf accuracy    <       0.07438035 Ry

     iteration # 53     ecut=    80.00 Ry     beta= 0.10
     Davidson diagonalization with overlap
     ethr =  3.97E-06,  avg # of iterations =  1.0

     negative rho (up, down):  5.795E-02 0.000E+00

     total cpu time spent up to now is    16201.9 secs

     total energy              =  -11682.11972875 Ry
     estimated scf accuracy    <       0.08664999 Ry

     iteration # 54     ecut=    80.00 Ry     beta= 0.10
     Davidson diagonalization with overlap
     ethr =  3.97E-06,  avg # of iterations =  1.0

     negative rho (up, down):  5.802E-02 0.000E+00

     total cpu time spent up to now is    16489.6 secs

     total energy              =  -11682.11864521 Ry
     estimated scf accuracy    <       0.39991647 Ry

     iteration # 55     ecut=    80.00 Ry     beta= 0.10
     Davidson diagonalization with overlap
     ethr =  3.97E-06,  avg # of iterations =  1.0

     negative rho (up, down):  5.798E-02 0.000E+00

     total cpu time spent up to now is    16777.5 secs

     total energy              =  -11682.11959347 Ry
     estimated scf accuracy    <       0.14195067 Ry

     iteration # 56     ecut=    80.00 Ry     beta= 0.10
     Davidson diagonalization with overlap
     ethr =  3.97E-06,  avg # of iterations =  1.0

     negative rho (up, down):  5.796E-02 0.000E+00

     total cpu time spent up to now is    17066.5 secs

     total energy              =  -11682.11942943 Ry
     estimated scf accuracy    <       0.12508023 Ry

     iteration # 57     ecut=    80.00 Ry     beta= 0.10
     Davidson diagonalization with overlap
     ethr =  3.97E-06,  avg # of iterations =  1.0

     negative rho (up, down):  5.815E-02 0.000E+00

     total cpu time spent up to now is    17354.6 secs

     total energy              =  -11682.11901636 Ry
     estimated scf accuracy    <       0.44755319 Ry

     iteration # 58     ecut=    80.00 Ry     beta= 0.10
     Davidson diagonalization with overlap
     ethr =  3.97E-06,  avg # of iterations =  1.0

     negative rho (up, down):  5.808E-02 0.000E+00

     total cpu time spent up to now is    17642.8 secs

     total energy              =  -11682.12035649 Ry
     estimated scf accuracy    <       0.05174906 Ry

     iteration # 59     ecut=    80.00 Ry     beta= 0.10
     Davidson diagonalization with overlap
     ethr =  2.76E-06,  avg # of iterations =  1.0

     negative rho (up, down):  5.810E-02 0.000E+00

     total cpu time spent up to now is    17930.3 secs

     total energy              =  -11682.12024686 Ry
     estimated scf accuracy    <       0.11995177 Ry

     iteration # 60     ecut=    80.00 Ry     beta= 0.10
     Davidson diagonalization with overlap
     ethr =  2.76E-06,  avg # of iterations =  1.0

     negative rho (up, down):  5.808E-02 0.000E+00

     total cpu time spent up to now is    18218.5 secs

     total energy              =  -11682.12089296 Ry
     estimated scf accuracy    <       0.05258534 Ry

     iteration # 61     ecut=    80.00 Ry     beta= 0.10
     Davidson diagonalization with overlap
     ethr =  2.76E-06,  avg # of iterations =  1.0

     negative rho (up, down):  5.812E-02 0.000E+00

     total cpu time spent up to now is    18506.7 secs

     total energy              =  -11682.12121963 Ry
     estimated scf accuracy    <       0.05030705 Ry

     iteration # 62     ecut=    80.00 Ry     beta= 0.10
     Davidson diagonalization with overlap
     ethr =  2.69E-06,  avg # of iterations =  1.0

     negative rho (up, down):  5.818E-02 0.000E+00

     total cpu time spent up to now is    18794.7 secs

     total energy              =  -11682.12171676 Ry
     estimated scf accuracy    <       0.01441578 Ry

     iteration # 63     ecut=    80.00 Ry     beta= 0.10
     Davidson diagonalization with overlap
     ethr =  7.70E-07,  avg # of iterations =  1.0

     negative rho (up, down):  5.820E-02 0.000E+00

     total cpu time spent up to now is    19082.7 secs

     total energy              =  -11682.12166882 Ry
     estimated scf accuracy    <       0.01564931 Ry

     iteration # 64     ecut=    80.00 Ry     beta= 0.10
     Davidson diagonalization with overlap
     ethr =  7.70E-07,  avg # of iterations =  1.0

     negative rho (up, down):  5.821E-02 0.000E+00

     total cpu time spent up to now is    19370.0 secs

     total energy              =  -11682.12135037 Ry
     estimated scf accuracy    <       0.07783876 Ry

     iteration # 65     ecut=    80.00 Ry     beta= 0.10
     Davidson diagonalization with overlap
     ethr =  7.70E-07,  avg # of iterations =  1.0

     negative rho (up, down):  5.820E-02 0.000E+00

     total cpu time spent up to now is    19658.0 secs

     total energy              =  -11682.12143234 Ry
     estimated scf accuracy    <       0.03533994 Ry

     iteration # 66     ecut=    80.00 Ry     beta= 0.10
     Davidson diagonalization with overlap
     ethr =  7.70E-07,  avg # of iterations =  1.0

     negative rho (up, down):  5.821E-02 0.000E+00

     total cpu time spent up to now is    19945.9 secs

     total energy              =  -11682.12123003 Ry
     estimated scf accuracy    <       0.08100113 Ry

     iteration # 67     ecut=    80.00 Ry     beta= 0.10
     Davidson diagonalization with overlap
     ethr =  7.70E-07,  avg # of iterations =  1.0

     negative rho (up, down):  5.832E-02 0.000E+00

     total cpu time spent up to now is    20234.1 secs

     total energy              =  -11682.12182805 Ry
     estimated scf accuracy    <       0.06730838 Ry

     iteration # 68     ecut=    80.00 Ry     beta= 0.10
     Davidson diagonalization with overlap
     ethr =  7.70E-07,  avg # of iterations =  1.0

     negative rho (up, down):  5.830E-02 0.000E+00

     total cpu time spent up to now is    20522.3 secs

     total energy              =  -11682.12181443 Ry
     estimated scf accuracy    <       0.01760925 Ry

     iteration # 69     ecut=    80.00 Ry     beta= 0.10
     Davidson diagonalization with overlap
     ethr =  7.70E-07,  avg # of iterations =  1.0

     negative rho (up, down):  5.830E-02 0.000E+00

     total cpu time spent up to now is    20810.1 secs

     total energy              =  -11682.12158432 Ry
     estimated scf accuracy    <       0.04447426 Ry

     iteration # 70     ecut=    80.00 Ry     beta= 0.10
     Davidson diagonalization with overlap
     ethr =  7.70E-07,  avg # of iterations =  1.0

     negative rho (up, down):  5.828E-02 0.000E+00

     total cpu time spent up to now is    21098.2 secs

     total energy              =  -11682.12152668 Ry
     estimated scf accuracy    <       0.05082554 Ry

     iteration # 71     ecut=    80.00 Ry     beta= 0.10
     Davidson diagonalization with overlap
     ethr =  7.70E-07,  avg # of iterations =  1.0

     negative rho (up, down):  5.830E-02 0.000E+00

     total cpu time spent up to now is    21385.4 secs

     total energy              =  -11682.12153415 Ry
     estimated scf accuracy    <       0.07170309 Ry

     iteration # 72     ecut=    80.00 Ry     beta= 0.10
     Davidson diagonalization with overlap
     ethr =  7.70E-07,  avg # of iterations =  1.0

     negative rho (up, down):  5.834E-02 0.000E+00

     total cpu time spent up to now is    21673.3 secs

     total energy              =  -11682.12211170 Ry
     estimated scf accuracy    <       0.01059651 Ry

     iteration # 73     ecut=    80.00 Ry     beta= 0.10
     Davidson diagonalization with overlap
     ethr =  5.66E-07,  avg # of iterations =  1.0

     negative rho (up, down):  5.835E-02 0.000E+00

     total cpu time spent up to now is    21960.8 secs

     total energy              =  -11682.12215351 Ry
     estimated scf accuracy    <       0.01090385 Ry

     iteration # 74     ecut=    80.00 Ry     beta= 0.10
     Davidson diagonalization with overlap
     ethr =  5.66E-07,  avg # of iterations =  1.0

     negative rho (up, down):  5.836E-02 0.000E+00

     total cpu time spent up to now is    22248.5 secs

     total energy              =  -11682.12218098 Ry
     estimated scf accuracy    <       0.01208377 Ry

     iteration # 75     ecut=    80.00 Ry     beta= 0.10
     Davidson diagonalization with overlap
     ethr =  5.66E-07,  avg # of iterations =  1.0

     negative rho (up, down):  5.837E-02 0.000E+00

     total cpu time spent up to now is    22536.6 secs

     total energy              =  -11682.12220541 Ry
     estimated scf accuracy    <       0.00820998 Ry

     iteration # 76     ecut=    80.00 Ry     beta= 0.10
     Davidson diagonalization with overlap
     ethr =  4.39E-07,  avg # of iterations =  1.0

     negative rho (up, down):  5.836E-02 0.000E+00

     total cpu time spent up to now is    22824.5 secs

     total energy              =  -11682.12209462 Ry
     estimated scf accuracy    <       0.01823971 Ry

     iteration # 77     ecut=    80.00 Ry     beta= 0.10
     Davidson diagonalization with overlap
     ethr =  4.39E-07,  avg # of iterations =  1.0

     negative rho (up, down):  5.841E-02 0.000E+00

     total cpu time spent up to now is    23111.7 secs

     total energy              =  -11682.12225342 Ry
     estimated scf accuracy    <       0.02369502 Ry

     iteration # 78     ecut=    80.00 Ry     beta= 0.10
     Davidson diagonalization with overlap
     ethr =  4.39E-07,  avg # of iterations =  1.0

     negative rho (up, down):  5.841E-02 0.000E+00

     total cpu time spent up to now is    23400.3 secs

     total energy              =  -11682.12230270 Ry
     estimated scf accuracy    <       0.00624072 Ry

     iteration # 79     ecut=    80.00 Ry     beta= 0.10
     Davidson diagonalization with overlap
     ethr =  3.33E-07,  avg # of iterations =  1.0

     negative rho (up, down):  5.842E-02 0.000E+00

     total cpu time spent up to now is    23688.2 secs

     total energy              =  -11682.12231504 Ry
     estimated scf accuracy    <       0.00617178 Ry

     iteration # 80     ecut=    80.00 Ry     beta= 0.10
     Davidson diagonalization with overlap
     ethr =  3.30E-07,  avg # of iterations =  1.0

     negative rho (up, down):  5.843E-02 0.000E+00

     total cpu time spent up to now is    23998.6 secs

     total energy              =  -11682.12228352 Ry
     estimated scf accuracy    <       0.01177541 Ry

     iteration # 81     ecut=    80.00 Ry     beta= 0.10
     Davidson diagonalization with overlap
     ethr =  3.30E-07,  avg # of iterations =  1.0

     negative rho (up, down):  5.843E-02 0.000E+00

     total cpu time spent up to now is    24287.0 secs

     total energy              =  -11682.12215838 Ry
     estimated scf accuracy    <       0.02795301 Ry

     iteration # 82     ecut=    80.00 Ry     beta= 0.10
     Davidson diagonalization with overlap
     ethr =  3.30E-07,  avg # of iterations =  1.0

     negative rho (up, down):  5.845E-02 0.000E+00

     total cpu time spent up to now is    24574.7 secs

     total energy              =  -11682.12231015 Ry
     estimated scf accuracy    <       0.01162500 Ry

     iteration # 83     ecut=    80.00 Ry     beta= 0.10
     Davidson diagonalization with overlap
     ethr =  3.30E-07,  avg # of iterations =  1.0

     negative rho (up, down):  5.846E-02 0.000E+00

     total cpu time spent up to now is    24862.4 secs

     total energy              =  -11682.12238927 Ry
     estimated scf accuracy    <       0.00595127 Ry

     iteration # 84     ecut=    80.00 Ry     beta= 0.10
     Davidson diagonalization with overlap
     ethr =  3.18E-07,  avg # of iterations =  1.0

     negative rho (up, down):  5.846E-02 0.000E+00

     total cpu time spent up to now is    25150.4 secs

     total energy              =  -11682.12240408 Ry
     estimated scf accuracy    <       0.00784719 Ry

     iteration # 85     ecut=    80.00 Ry     beta= 0.10
     Davidson diagonalization with overlap
     ethr =  3.18E-07,  avg # of iterations =  1.0

     negative rho (up, down):  5.847E-02 0.000E+00

     total cpu time spent up to now is    25438.1 secs

     total energy              =  -11682.12244147 Ry
     estimated scf accuracy    <       0.00413178 Ry

     iteration # 86     ecut=    80.00 Ry     beta= 0.10
     Davidson diagonalization with overlap
     ethr =  2.21E-07,  avg # of iterations =  1.0

     negative rho (up, down):  5.846E-02 0.000E+00

     total cpu time spent up to now is    25726.0 secs

     total energy              =  -11682.12239734 Ry
     estimated scf accuracy    <       0.00675726 Ry

     iteration # 87     ecut=    80.00 Ry     beta= 0.10
     Davidson diagonalization with overlap
     ethr =  2.21E-07,  avg # of iterations =  1.0

     negative rho (up, down):  5.849E-02 0.000E+00

     total cpu time spent up to now is    26013.1 secs

     total energy              =  -11682.12246374 Ry
     estimated scf accuracy    <       0.00932006 Ry

     iteration # 88     ecut=    80.00 Ry     beta= 0.10
     Davidson diagonalization with overlap
     ethr =  2.21E-07,  avg # of iterations =  1.0

     negative rho (up, down):  5.849E-02 0.000E+00

     total cpu time spent up to now is    26300.2 secs

     total energy              =  -11682.12248164 Ry
     estimated scf accuracy    <       0.00274999 Ry

     iteration # 89     ecut=    80.00 Ry     beta= 0.10
     Davidson diagonalization with overlap
     ethr =  1.47E-07,  avg # of iterations =  1.0

     negative rho (up, down):  5.850E-02 0.000E+00

     total cpu time spent up to now is    26587.5 secs

     total energy              =  -11682.12250319 Ry
     estimated scf accuracy    <       0.00178104 Ry

     iteration # 90     ecut=    80.00 Ry     beta= 0.10
     Davidson diagonalization with overlap
     ethr =  9.51E-08,  avg # of iterations =  1.0

     negative rho (up, down):  5.852E-02 0.000E+00

     total cpu time spent up to now is    26875.3 secs

     total energy              =  -11682.12251425 Ry
     estimated scf accuracy    <       0.00342058 Ry

     iteration # 91     ecut=    80.00 Ry     beta= 0.10
     Davidson diagonalization with overlap
     ethr =  9.51E-08,  avg # of iterations =  1.0

     negative rho (up, down):  5.853E-02 0.000E+00

     total cpu time spent up to now is    27164.2 secs

     total energy              =  -11682.12248906 Ry
     estimated scf accuracy    <       0.00783688 Ry

     iteration # 92     ecut=    80.00 Ry     beta= 0.10
     Davidson diagonalization with overlap
     ethr =  9.51E-08,  avg # of iterations =  1.0

     negative rho (up, down):  5.853E-02 0.000E+00

     total cpu time spent up to now is    27451.6 secs

     total energy              =  -11682.12250955 Ry
     estimated scf accuracy    <       0.00480902 Ry

     iteration # 93     ecut=    80.00 Ry     beta= 0.10
     Davidson diagonalization with overlap
     ethr =  9.51E-08,  avg # of iterations =  1.0

     negative rho (up, down):  5.853E-02 0.000E+00

     total cpu time spent up to now is    27740.3 secs

     total energy              =  -11682.12252463 Ry
     estimated scf accuracy    <       0.00319657 Ry

     iteration # 94     ecut=    80.00 Ry     beta= 0.10
     Davidson diagonalization with overlap
     ethr =  9.51E-08,  avg # of iterations =  1.0

     negative rho (up, down):  5.853E-02 0.000E+00

     total cpu time spent up to now is    28028.7 secs

     total energy              =  -11682.12252299 Ry
     estimated scf accuracy    <       0.00542884 Ry

     iteration # 95     ecut=    80.00 Ry     beta= 0.10
     Davidson diagonalization with overlap
     ethr =  9.51E-08,  avg # of iterations =  1.0

     negative rho (up, down):  5.855E-02 0.000E+00

     total cpu time spent up to now is    28315.8 secs

     total energy              =  -11682.12255945 Ry
     estimated scf accuracy    <       0.00326627 Ry

     iteration # 96     ecut=    80.00 Ry     beta= 0.10
     Davidson diagonalization with overlap
     ethr =  9.51E-08,  avg # of iterations =  1.0

     negative rho (up, down):  5.854E-02 0.000E+00

     total cpu time spent up to now is    28604.2 secs

     total energy              =  -11682.12252580 Ry
     estimated scf accuracy    <       0.00414788 Ry

     iteration # 97     ecut=    80.00 Ry     beta= 0.10
     Davidson diagonalization with overlap
     ethr =  9.51E-08,  avg # of iterations =  1.0

     negative rho (up, down):  5.856E-02 0.000E+00

     total cpu time spent up to now is    28892.2 secs

     total energy              =  -11682.12254686 Ry
     estimated scf accuracy    <       0.00989048 Ry

     iteration # 98     ecut=    80.00 Ry     beta= 0.10
     Davidson diagonalization with overlap
     ethr =  9.51E-08,  avg # of iterations =  1.0

     negative rho (up, down):  5.856E-02 0.000E+00

     total cpu time spent up to now is    29180.3 secs

     total energy              =  -11682.12257449 Ry
     estimated scf accuracy    <       0.00184637 Ry

     iteration # 99     ecut=    80.00 Ry     beta= 0.10
     Davidson diagonalization with overlap
     ethr =  9.51E-08,  avg # of iterations =  1.0

     negative rho (up, down):  5.856E-02 0.000E+00

     total cpu time spent up to now is    29476.7 secs

     total energy              =  -11682.12259240 Ry
     estimated scf accuracy    <       0.00096302 Ry

     iteration #100     ecut=    80.00 Ry     beta= 0.10
     Davidson diagonalization with overlap
     ethr =  5.14E-08,  avg # of iterations =  1.0

     negative rho (up, down):  5.858E-02 0.000E+00

     total cpu time spent up to now is    29766.9 secs

     total energy              =  -11682.12260651 Ry
     estimated scf accuracy    <       0.00116946 Ry

     iteration #101     ecut=    80.00 Ry     beta= 0.10
     Davidson diagonalization with overlap
     ethr =  5.14E-08,  avg # of iterations =  1.0

     negative rho (up, down):  5.859E-02 0.000E+00

     total cpu time spent up to now is    30054.4 secs

     total energy              =  -11682.12260837 Ry
     estimated scf accuracy    <       0.00218512 Ry

     iteration #102     ecut=    80.00 Ry     beta= 0.10
     Davidson diagonalization with overlap
     ethr =  5.14E-08,  avg # of iterations =  1.0

     negative rho (up, down):  5.859E-02 0.000E+00

     total cpu time spent up to now is    30344.3 secs

     total energy              =  -11682.12260688 Ry
     estimated scf accuracy    <       0.00184585 Ry

     iteration #103     ecut=    80.00 Ry     beta= 0.10
     Davidson diagonalization with overlap
     ethr =  5.14E-08,  avg # of iterations =  1.0

     negative rho (up, down):  5.859E-02 0.000E+00

     total cpu time spent up to now is    30631.6 secs

     total energy              =  -11682.12261093 Ry
     estimated scf accuracy    <       0.00137966 Ry

     iteration #104     ecut=    80.00 Ry     beta= 0.10
     Davidson diagonalization with overlap
     ethr =  5.14E-08,  avg # of iterations =  1.0

     negative rho (up, down):  5.859E-02 0.000E+00

     total cpu time spent up to now is    30926.5 secs

     total energy              =  -11682.12260278 Ry
     estimated scf accuracy    <       0.00284447 Ry

     iteration #105     ecut=    80.00 Ry     beta= 0.10
     Davidson diagonalization with overlap
     ethr =  5.14E-08,  avg # of iterations =  1.0

     negative rho (up, down):  5.861E-02 0.000E+00

     total cpu time spent up to now is    31214.3 secs

     total energy              =  -11682.12262515 Ry
     estimated scf accuracy    <       0.00256675 Ry

     iteration #106     ecut=    80.00 Ry     beta= 0.10
     Davidson diagonalization with overlap
     ethr =  5.14E-08,  avg # of iterations =  1.0

     negative rho (up, down):  5.861E-02 0.000E+00

     total cpu time spent up to now is    31502.1 secs

     total energy              =  -11682.12261623 Ry
     estimated scf accuracy    <       0.00229148 Ry

     iteration #107     ecut=    80.00 Ry     beta= 0.10
     Davidson diagonalization with overlap
     ethr =  5.14E-08,  avg # of iterations =  1.0

     negative rho (up, down):  5.862E-02 0.000E+00

     total cpu time spent up to now is    31790.2 secs

     total energy              =  -11682.12260404 Ry
     estimated scf accuracy    <       0.00870026 Ry

     iteration #108     ecut=    80.00 Ry     beta= 0.10
     Davidson diagonalization with overlap
     ethr =  5.14E-08,  avg # of iterations =  1.0

     negative rho (up, down):  5.861E-02 0.000E+00

     total cpu time spent up to now is    32078.6 secs

     total energy              =  -11682.12262911 Ry
     estimated scf accuracy    <       0.00147671 Ry

     iteration #109     ecut=    80.00 Ry     beta= 0.10
     Davidson diagonalization with overlap
     ethr =  5.14E-08,  avg # of iterations =  1.0

     negative rho (up, down):  5.861E-02 0.000E+00

     total cpu time spent up to now is    32365.9 secs

     total energy              =  -11682.12264101 Ry
     estimated scf accuracy    <       0.00075501 Ry

     iteration #110     ecut=    80.00 Ry     beta= 0.10
     Davidson diagonalization with overlap
     ethr =  4.03E-08,  avg # of iterations =  1.0

     negative rho (up, down):  5.862E-02 0.000E+00

     total cpu time spent up to now is    32653.8 secs

     total energy              =  -11682.12265150 Ry
     estimated scf accuracy    <       0.00063099 Ry

     iteration #111     ecut=    80.00 Ry     beta= 0.10
     Davidson diagonalization with overlap
     ethr =  3.37E-08,  avg # of iterations =  1.0

     negative rho (up, down):  5.863E-02 0.000E+00

     total cpu time spent up to now is    32940.8 secs

     total energy              =  -11682.12265714 Ry
     estimated scf accuracy    <       0.00077101 Ry

     iteration #112     ecut=    80.00 Ry     beta= 0.10
     Davidson diagonalization with overlap
     ethr =  3.37E-08,  avg # of iterations =  1.0

     negative rho (up, down):  5.863E-02 0.000E+00

     total cpu time spent up to now is    33229.0 secs

     total energy              =  -11682.12265584 Ry
     estimated scf accuracy    <       0.00066782 Ry

     iteration #113     ecut=    80.00 Ry     beta= 0.10
     Davidson diagonalization with overlap
     ethr =  3.37E-08,  avg # of iterations =  1.0

     negative rho (up, down):  5.864E-02 0.000E+00

     total cpu time spent up to now is    33517.4 secs

     total energy              =  -11682.12265795 Ry
     estimated scf accuracy    <       0.00057914 Ry

     iteration #114     ecut=    80.00 Ry     beta= 0.10
     Davidson diagonalization with overlap
     ethr =  3.09E-08,  avg # of iterations =  1.0

     negative rho (up, down):  5.864E-02 0.000E+00

     total cpu time spent up to now is    33805.4 secs

     total energy              =  -11682.12265434 Ry
     estimated scf accuracy    <       0.00119777 Ry

     iteration #115     ecut=    80.00 Ry     beta= 0.10
     Davidson diagonalization with overlap
     ethr =  3.09E-08,  avg # of iterations =  1.0

     negative rho (up, down):  5.865E-02 0.000E+00

     total cpu time spent up to now is    34092.7 secs

     total energy              =  -11682.12266613 Ry
     estimated scf accuracy    <       0.00144145 Ry

     iteration #116     ecut=    80.00 Ry     beta= 0.10
     Davidson diagonalization with overlap
     ethr =  3.09E-08,  avg # of iterations =  1.0

     negative rho (up, down):  5.866E-02 0.000E+00

     total cpu time spent up to now is    34380.5 secs

     total energy              =  -11682.12266968 Ry
     estimated scf accuracy    <       0.00090122 Ry

     iteration #117     ecut=    80.00 Ry     beta= 0.10
     Davidson diagonalization with overlap
     ethr =  3.09E-08,  avg # of iterations =  1.0

     negative rho (up, down):  5.866E-02 0.000E+00

     total cpu time spent up to now is    34669.6 secs

     total energy              =  -11682.12265023 Ry
     estimated scf accuracy    <       0.00514366 Ry

     iteration #118     ecut=    80.00 Ry     beta= 0.10
     Davidson diagonalization with overlap
     ethr =  3.09E-08,  avg # of iterations =  1.0

     negative rho (up, down):  5.865E-02 0.000E+00

     total cpu time spent up to now is    34957.0 secs

     total energy              =  -11682.12266417 Ry
     estimated scf accuracy    <       0.00097326 Ry

     iteration #119     ecut=    80.00 Ry     beta= 0.10
     Davidson diagonalization with overlap
     ethr =  3.09E-08,  avg # of iterations =  1.0

     negative rho (up, down):  5.865E-02 0.000E+00

     total cpu time spent up to now is    35245.4 secs

     total energy              =  -11682.12266851 Ry
     estimated scf accuracy    <       0.00071399 Ry

     iteration #120     ecut=    80.00 Ry     beta= 0.10
     Davidson diagonalization with overlap
     ethr =  3.09E-08,  avg # of iterations =  1.0

     negative rho (up, down):  5.866E-02 0.000E+00

     total cpu time spent up to now is    35533.7 secs

     total energy              =  -11682.12267620 Ry
     estimated scf accuracy    <       0.00053763 Ry

     iteration #121     ecut=    80.00 Ry     beta= 0.10
     Davidson diagonalization with overlap
     ethr =  2.87E-08,  avg # of iterations =  1.0

     negative rho (up, down):  5.867E-02 0.000E+00

     total cpu time spent up to now is    35821.8 secs

     total energy              =  -11682.12268118 Ry
     estimated scf accuracy    <       0.00053397 Ry

     iteration #122     ecut=    80.00 Ry     beta= 0.10
     Davidson diagonalization with overlap
     ethr =  2.85E-08,  avg # of iterations =  1.0

     negative rho (up, down):  5.867E-02 0.000E+00

     total cpu time spent up to now is    36109.6 secs

     total energy              =  -11682.12268094 Ry
     estimated scf accuracy    <       0.00032056 Ry

     iteration #123     ecut=    80.00 Ry     beta= 0.10
     Davidson diagonalization with overlap
     ethr =  1.71E-08,  avg # of iterations =  1.0

     negative rho (up, down):  5.867E-02 0.000E+00

     total cpu time spent up to now is    36398.1 secs

     total energy              =  -11682.12268315 Ry
     estimated scf accuracy    <       0.00027473 Ry

     iteration #124     ecut=    80.00 Ry     beta= 0.10
     Davidson diagonalization with overlap
     ethr =  1.47E-08,  avg # of iterations =  1.0

     negative rho (up, down):  5.867E-02 0.000E+00

     total cpu time spent up to now is    36685.9 secs

     total energy              =  -11682.12268250 Ry
     estimated scf accuracy    <       0.00043206 Ry

     iteration #125     ecut=    80.00 Ry     beta= 0.10
     Davidson diagonalization with overlap
     ethr =  1.47E-08,  avg # of iterations =  1.0

     negative rho (up, down):  5.868E-02 0.000E+00

     total cpu time spent up to now is    36973.6 secs

     total energy              =  -11682.12268734 Ry
     estimated scf accuracy    <       0.00057956 Ry

     iteration #126     ecut=    80.00 Ry     beta= 0.10
     Davidson diagonalization with overlap
     ethr =  1.47E-08,  avg # of iterations =  1.0

     negative rho (up, down):  5.869E-02 0.000E+00

     total cpu time spent up to now is    37261.1 secs

     total energy              =  -11682.12269271 Ry
     estimated scf accuracy    <       0.00026475 Ry

     iteration #127     ecut=    80.00 Ry     beta= 0.10
     Davidson diagonalization with overlap
     ethr =  1.41E-08,  avg # of iterations =  1.0

     negative rho (up, down):  5.868E-02 0.000E+00

     total cpu time spent up to now is    37549.7 secs

     total energy              =  -11682.12268375 Ry
     estimated scf accuracy    <       0.00149766 Ry

     iteration #128     ecut=    80.00 Ry     beta= 0.10
     Davidson diagonalization with overlap
     ethr =  1.41E-08,  avg # of iterations =  1.0

     negative rho (up, down):  5.868E-02 0.000E+00

     total cpu time spent up to now is    37836.7 secs

     total energy              =  -11682.12268716 Ry
     estimated scf accuracy    <       0.00052045 Ry

     iteration #129     ecut=    80.00 Ry     beta= 0.10
     Davidson diagonalization with overlap
     ethr =  1.41E-08,  avg # of iterations =  1.0

     negative rho (up, down):  5.868E-02 0.000E+00

     total cpu time spent up to now is    38124.6 secs

     total energy              =  -11682.12268692 Ry
     estimated scf accuracy    <       0.00050981 Ry

     iteration #130     ecut=    80.00 Ry     beta= 0.10
     Davidson diagonalization with overlap
     ethr =  1.41E-08,  avg # of iterations =  1.0

     negative rho (up, down):  5.869E-02 0.000E+00

     total cpu time spent up to now is    38412.6 secs

     total energy              =  -11682.12269029 Ry
     estimated scf accuracy    <       0.00049188 Ry

     iteration #131     ecut=    80.00 Ry     beta= 0.10
     Davidson diagonalization with overlap
     ethr =  1.41E-08,  avg # of iterations =  1.0

     negative rho (up, down):  5.869E-02 0.000E+00

     total cpu time spent up to now is    38701.9 secs

     total energy              =  -11682.12269419 Ry
     estimated scf accuracy    <       0.00041811 Ry

     iteration #132     ecut=    80.00 Ry     beta= 0.10
     Davidson diagonalization with overlap
     ethr =  1.41E-08,  avg # of iterations =  1.0

     negative rho (up, down):  5.869E-02 0.000E+00

     total cpu time spent up to now is    38989.9 secs

     total energy              =  -11682.12269448 Ry
     estimated scf accuracy    <       0.00020493 Ry

     iteration #133     ecut=    80.00 Ry     beta= 0.10
     Davidson diagonalization with overlap
     ethr =  1.09E-08,  avg # of iterations =  1.0

     negative rho (up, down):  5.870E-02 0.000E+00

     total cpu time spent up to now is    39278.0 secs

     total energy              =  -11682.12269594 Ry
     estimated scf accuracy    <       0.00014947 Ry

     iteration #134     ecut=    80.00 Ry     beta= 0.10
     Davidson diagonalization with overlap
     ethr =  7.98E-09,  avg # of iterations =  1.0

     negative rho (up, down):  5.870E-02 0.000E+00

     total cpu time spent up to now is    39565.6 secs

     total energy              =  -11682.12269625 Ry
     estimated scf accuracy    <       0.00018245 Ry

     iteration #135     ecut=    80.00 Ry     beta= 0.10
     Davidson diagonalization with overlap
     ethr =  7.98E-09,  avg # of iterations =  1.0

     negative rho (up, down):  5.870E-02 0.000E+00

     total cpu time spent up to now is    39853.4 secs

     total energy              =  -11682.12269820 Ry
     estimated scf accuracy    <       0.00023657 Ry

     iteration #136     ecut=    80.00 Ry     beta= 0.10
     Davidson diagonalization with overlap
     ethr =  7.98E-09,  avg # of iterations =  1.0

     negative rho (up, down):  5.871E-02 0.000E+00

     total cpu time spent up to now is    40140.2 secs

     total energy              =  -11682.12270108 Ry
     estimated scf accuracy    <       0.00008682 Ry

     iteration #137     ecut=    80.00 Ry     beta= 0.10
     Davidson diagonalization with overlap
     ethr =  4.64E-09,  avg # of iterations =  1.0

     negative rho (up, down):  5.870E-02 0.000E+00

     total cpu time spent up to now is    40427.8 secs

     total energy              =  -11682.12269790 Ry
     estimated scf accuracy    <       0.00038208 Ry

     iteration #138     ecut=    80.00 Ry     beta= 0.10
     Davidson diagonalization with overlap
     ethr =  4.64E-09,  avg # of iterations =  1.0

     negative rho (up, down):  5.871E-02 0.000E+00

     total cpu time spent up to now is    40727.0 secs

     total energy              =  -11682.12269972 Ry
     estimated scf accuracy    <       0.00022792 Ry

     iteration #139     ecut=    80.00 Ry     beta= 0.10
     Davidson diagonalization with overlap
     ethr =  4.64E-09,  avg # of iterations =  1.0

     negative rho (up, down):  5.871E-02 0.000E+00

     total cpu time spent up to now is    41014.7 secs

     total energy              =  -11682.12269918 Ry
     estimated scf accuracy    <       0.00026761 Ry

     iteration #140     ecut=    80.00 Ry     beta= 0.10
     Davidson diagonalization with overlap
     ethr =  4.64E-09,  avg # of iterations =  1.0

     negative rho (up, down):  5.871E-02 0.000E+00

     total cpu time spent up to now is    41302.6 secs

     total energy              =  -11682.12269955 Ry
     estimated scf accuracy    <       0.00031319 Ry

     iteration #141     ecut=    80.00 Ry     beta= 0.10
     Davidson diagonalization with overlap
     ethr =  4.64E-09,  avg # of iterations =  1.0

     negative rho (up, down):  5.871E-02 0.000E+00

     total cpu time spent up to now is    41590.0 secs

     total energy              =  -11682.12270154 Ry
     estimated scf accuracy    <       0.00029305 Ry

     iteration #142     ecut=    80.00 Ry     beta= 0.10
     Davidson diagonalization with overlap
     ethr =  4.64E-09,  avg # of iterations =  1.0

     negative rho (up, down):  5.871E-02 0.000E+00

     total cpu time spent up to now is    41878.8 secs

     total energy              =  -11682.12270205 Ry
     estimated scf accuracy    <       0.00012153 Ry

     iteration #143     ecut=    80.00 Ry     beta= 0.10
     Davidson diagonalization with overlap
     ethr =  4.64E-09,  avg # of iterations =  1.0

     negative rho (up, down):  5.871E-02 0.000E+00

     total cpu time spent up to now is    42166.3 secs

     total energy              =  -11682.12270270 Ry
     estimated scf accuracy    <       0.00009777 Ry

     iteration #144     ecut=    80.00 Ry     beta= 0.10
     Davidson diagonalization with overlap
     ethr =  4.64E-09,  avg # of iterations =  1.0

     negative rho (up, down):  5.872E-02 0.000E+00

     total cpu time spent up to now is    42454.1 secs

     total energy              =  -11682.12270303 Ry
     estimated scf accuracy    <       0.00011582 Ry

     iteration #145     ecut=    80.00 Ry     beta= 0.10
     Davidson diagonalization with overlap
     ethr =  4.64E-09,  avg # of iterations =  1.0

     negative rho (up, down):  5.872E-02 0.000E+00

     total cpu time spent up to now is    42741.5 secs

     total energy              =  -11682.12270369 Ry
     estimated scf accuracy    <       0.00014555 Ry

     iteration #146     ecut=    80.00 Ry     beta= 0.10
     Davidson diagonalization with overlap
     ethr =  4.64E-09,  avg # of iterations =  1.0

     negative rho (up, down):  5.872E-02 0.000E+00

     total cpu time spent up to now is    43029.1 secs

     total energy              =  -11682.12270547 Ry
     estimated scf accuracy    <       0.00003936 Ry

     iteration #147     ecut=    80.00 Ry     beta= 0.10
     Davidson diagonalization with overlap
     ethr =  2.10E-09,  avg # of iterations =  1.0

     negative rho (up, down):  5.872E-02 0.000E+00

     total cpu time spent up to now is    43317.8 secs

     total energy              =  -11682.12270433 Ry
     estimated scf accuracy    <       0.00010990 Ry

     iteration #148     ecut=    80.00 Ry     beta= 0.10
     Davidson diagonalization with overlap
     ethr =  2.10E-09,  avg # of iterations =  1.0

     negative rho (up, down):  5.872E-02 0.000E+00

     total cpu time spent up to now is    43605.1 secs

     total energy              =  -11682.12270559 Ry
     estimated scf accuracy    <       0.00009117 Ry

     iteration #149     ecut=    80.00 Ry     beta= 0.10
     Davidson diagonalization with overlap
     ethr =  2.10E-09,  avg # of iterations =  1.0

     negative rho (up, down):  5.873E-02 0.000E+00

     total cpu time spent up to now is    43893.5 secs

     total energy              =  -11682.12270573 Ry
     estimated scf accuracy    <       0.00009570 Ry

     iteration #150     ecut=    80.00 Ry     beta= 0.10
     Davidson diagonalization with overlap
     ethr =  2.10E-09,  avg # of iterations =  1.0

     negative rho (up, down):  5.873E-02 0.000E+00

     total cpu time spent up to now is    44181.5 secs

     total energy              =  -11682.12270536 Ry
     estimated scf accuracy    <       0.00012829 Ry

     iteration #151     ecut=    80.00 Ry     beta= 0.10
     Davidson diagonalization with overlap
     ethr =  2.10E-09,  avg # of iterations =  1.0

     negative rho (up, down):  5.873E-02 0.000E+00

     total cpu time spent up to now is    44470.2 secs

     total energy              =  -11682.12270592 Ry
     estimated scf accuracy    <       0.00014882 Ry

     iteration #152     ecut=    80.00 Ry     beta= 0.10
     Davidson diagonalization with overlap
     ethr =  2.10E-09,  avg # of iterations =  1.0

     negative rho (up, down):  5.873E-02 0.000E+00

     total cpu time spent up to now is    44759.2 secs

     total energy              =  -11682.12270639 Ry
     estimated scf accuracy    <       0.00006470 Ry

     iteration #153     ecut=    80.00 Ry     beta= 0.10
     Davidson diagonalization with overlap
     ethr =  2.10E-09,  avg # of iterations =  1.0

     negative rho (up, down):  5.873E-02 0.000E+00

     total cpu time spent up to now is    45046.7 secs

     total energy              =  -11682.12270656 Ry
     estimated scf accuracy    <       0.00006682 Ry

     iteration #154     ecut=    80.00 Ry     beta= 0.10
     Davidson diagonalization with overlap
     ethr =  2.10E-09,  avg # of iterations =  1.0

     negative rho (up, down):  5.873E-02 0.000E+00

     total cpu time spent up to now is    45334.7 secs

     total energy              =  -11682.12270680 Ry
     estimated scf accuracy    <       0.00009519 Ry

     iteration #155     ecut=    80.00 Ry     beta= 0.10
     Davidson diagonalization with overlap
     ethr =  2.10E-09,  avg # of iterations =  1.0

     negative rho (up, down):  5.873E-02 0.000E+00

     total cpu time spent up to now is    45622.4 secs

     total energy              =  -11682.12270672 Ry
     estimated scf accuracy    <       0.00013046 Ry

     iteration #156     ecut=    80.00 Ry     beta= 0.10
     Davidson diagonalization with overlap
     ethr =  2.10E-09,  avg # of iterations =  1.0

     negative rho (up, down):  5.873E-02 0.000E+00

     total cpu time spent up to now is    45910.0 secs

     total energy              =  -11682.12270797 Ry
     estimated scf accuracy    <       0.00003135 Ry

     iteration #157     ecut=    80.00 Ry     beta= 0.10
     Davidson diagonalization with overlap
     ethr =  1.67E-09,  avg # of iterations =  1.0

     negative rho (up, down):  5.873E-02 0.000E+00

     total cpu time spent up to now is    46197.7 secs

     total energy              =  -11682.12270755 Ry
     estimated scf accuracy    <       0.00005115 Ry

     iteration #158     ecut=    80.00 Ry     beta= 0.10
     Davidson diagonalization with overlap
     ethr =  1.67E-09,  avg # of iterations =  1.0

     negative rho (up, down):  5.873E-02 0.000E+00

     total cpu time spent up to now is    46485.0 secs

     total energy              =  -11682.12270827 Ry
     estimated scf accuracy    <       0.00003970 Ry

     iteration #159     ecut=    80.00 Ry     beta= 0.10
     Davidson diagonalization with overlap
     ethr =  1.67E-09,  avg # of iterations =  1.0

     negative rho (up, down):  5.874E-02 0.000E+00

     total cpu time spent up to now is    46773.1 secs

     total energy              =  -11682.12270859 Ry
     estimated scf accuracy    <       0.00002994 Ry

     iteration #160     ecut=    80.00 Ry     beta= 0.10
     Davidson diagonalization with overlap
     ethr =  1.60E-09,  avg # of iterations =  1.0

     negative rho (up, down):  5.874E-02 0.000E+00

     total cpu time spent up to now is    47060.5 secs

     total energy              =  -11682.12270840 Ry
     estimated scf accuracy    <       0.00003973 Ry

     iteration #161     ecut=    80.00 Ry     beta= 0.10
     Davidson diagonalization with overlap
     ethr =  1.60E-09,  avg # of iterations =  1.0

     negative rho (up, down):  5.874E-02 0.000E+00

     total cpu time spent up to now is    47348.5 secs

     total energy              =  -11682.12270844 Ry
     estimated scf accuracy    <       0.00006148 Ry

     iteration #162     ecut=    80.00 Ry     beta= 0.10
     Davidson diagonalization with overlap
     ethr =  1.60E-09,  avg # of iterations =  1.0

     negative rho (up, down):  5.874E-02 0.000E+00

     total cpu time spent up to now is    47636.4 secs

     total energy              =  -11682.12270886 Ry
     estimated scf accuracy    <       0.00003159 Ry

     iteration #163     ecut=    80.00 Ry     beta= 0.10
     Davidson diagonalization with overlap
     ethr =  1.60E-09,  avg # of iterations =  1.0

     negative rho (up, down):  5.874E-02 0.000E+00

     total cpu time spent up to now is    47924.3 secs

     total energy              =  -11682.12270895 Ry
     estimated scf accuracy    <       0.00003760 Ry

     iteration #164     ecut=    80.00 Ry     beta= 0.10
     Davidson diagonalization with overlap
     ethr =  1.60E-09,  avg # of iterations =  1.0

     negative rho (up, down):  5.874E-02 0.000E+00

     total cpu time spent up to now is    48211.7 secs

     total energy              =  -11682.12270909 Ry
     estimated scf accuracy    <       0.00006248 Ry

     iteration #165     ecut=    80.00 Ry     beta= 0.10
     Davidson diagonalization with overlap
     ethr =  1.60E-09,  avg # of iterations =  1.0

     negative rho (up, down):  5.874E-02 0.000E+00

     total cpu time spent up to now is    48498.3 secs

     total energy              =  -11682.12270867 Ry
     estimated scf accuracy    <       0.00009254 Ry

     iteration #166     ecut=    80.00 Ry     beta= 0.10
     Davidson diagonalization with overlap
     ethr =  1.60E-09,  avg # of iterations =  1.0

     negative rho (up, down):  5.874E-02 0.000E+00

     total cpu time spent up to now is    48786.3 secs

     total energy              =  -11682.12270939 Ry
     estimated scf accuracy    <       0.00002957 Ry

     iteration #167     ecut=    80.00 Ry     beta= 0.10
     Davidson diagonalization with overlap
     ethr =  1.58E-09,  avg # of iterations =  1.0

     negative rho (up, down):  5.874E-02 0.000E+00

     total cpu time spent up to now is    49074.3 secs

     total energy              =  -11682.12270925 Ry
     estimated scf accuracy    <       0.00003769 Ry

     iteration #168     ecut=    80.00 Ry     beta= 0.10
     Davidson diagonalization with overlap
     ethr =  1.58E-09,  avg # of iterations =  1.0

     negative rho (up, down):  5.874E-02 0.000E+00

     total cpu time spent up to now is    49361.6 secs

     total energy              =  -11682.12270967 Ry
     estimated scf accuracy    <       0.00002725 Ry

     iteration #169     ecut=    80.00 Ry     beta= 0.10
     Davidson diagonalization with overlap
     ethr =  1.46E-09,  avg # of iterations =  1.0

     negative rho (up, down):  5.874E-02 0.000E+00

     total cpu time spent up to now is    49650.0 secs

     total energy              =  -11682.12270991 Ry
     estimated scf accuracy    <       0.00001265 Ry

     iteration #170     ecut=    80.00 Ry     beta= 0.10
     Davidson diagonalization with overlap
     ethr =  6.76E-10,  avg # of iterations =  1.0

     negative rho (up, down):  5.874E-02 0.000E+00

     total cpu time spent up to now is    49938.3 secs

     total energy              =  -11682.12270986 Ry
     estimated scf accuracy    <       0.00001515 Ry

     iteration #171     ecut=    80.00 Ry     beta= 0.10
     Davidson diagonalization with overlap
     ethr =  6.76E-10,  avg # of iterations =  1.0

     negative rho (up, down):  5.874E-02 0.000E+00

     total cpu time spent up to now is    50226.3 secs

     total energy              =  -11682.12270983 Ry
     estimated scf accuracy    <       0.00002654 Ry

     iteration #172     ecut=    80.00 Ry     beta= 0.10
     Davidson diagonalization with overlap
     ethr =  6.76E-10,  avg # of iterations =  1.0

     negative rho (up, down):  5.875E-02 0.000E+00

     total cpu time spent up to now is    50514.5 secs

     total energy              =  -11682.12271013 Ry
     estimated scf accuracy    <       0.00001479 Ry

     iteration #173     ecut=    80.00 Ry     beta= 0.10
     Davidson diagonalization with overlap
     ethr =  6.76E-10,  avg # of iterations =  1.0

     negative rho (up, down):  5.875E-02 0.000E+00

     total cpu time spent up to now is    50802.2 secs

     total energy              =  -11682.12271024 Ry
     estimated scf accuracy    <       0.00001639 Ry

     iteration #174     ecut=    80.00 Ry     beta= 0.10
     Davidson diagonalization with overlap
     ethr =  6.76E-10,  avg # of iterations =  1.0

     negative rho (up, down):  5.875E-02 0.000E+00

     total cpu time spent up to now is    51089.9 secs

     total energy              =  -11682.12271034 Ry
     estimated scf accuracy    <       0.00002800 Ry

     iteration #175     ecut=    80.00 Ry     beta= 0.10
     Davidson diagonalization with overlap
     ethr =  6.76E-10,  avg # of iterations =  1.0

     negative rho (up, down):  5.875E-02 0.000E+00

     total cpu time spent up to now is    51377.1 secs

     total energy              =  -11682.12271008 Ry
     estimated scf accuracy    <       0.00004162 Ry

     iteration #176     ecut=    80.00 Ry     beta= 0.10
     Davidson diagonalization with overlap
     ethr =  6.76E-10,  avg # of iterations =  1.0

     negative rho (up, down):  5.875E-02 0.000E+00

     total cpu time spent up to now is    51664.8 secs

     total energy              =  -11682.12271020 Ry
     estimated scf accuracy    <       0.00002319 Ry

     iteration #177     ecut=    80.00 Ry     beta= 0.10
     Davidson diagonalization with overlap
     ethr =  6.76E-10,  avg # of iterations =  1.0

     negative rho (up, down):  5.875E-02 0.000E+00

     total cpu time spent up to now is    51952.2 secs

     total energy              =  -11682.12271020 Ry
     estimated scf accuracy    <       0.00003282 Ry

     iteration #178     ecut=    80.00 Ry     beta= 0.10
     Davidson diagonalization with overlap
     ethr =  6.76E-10,  avg # of iterations =  1.0

     negative rho (up, down):  5.875E-02 0.000E+00

     total cpu time spent up to now is    52239.7 secs

     total energy              =  -11682.12271043 Ry
     estimated scf accuracy    <       0.00002879 Ry

     iteration #179     ecut=    80.00 Ry     beta= 0.10
     Davidson diagonalization with overlap
     ethr =  6.76E-10,  avg # of iterations =  1.0

     negative rho (up, down):  5.875E-02 0.000E+00

     total cpu time spent up to now is    52528.7 secs

     total energy              =  -11682.12271063 Ry
     estimated scf accuracy    <       0.00000865 Ry

     iteration #180     ecut=    80.00 Ry     beta= 0.10
     Davidson diagonalization with overlap
     ethr =  4.62E-10,  avg # of iterations =  1.0

     negative rho (up, down):  5.875E-02 0.000E+00

     total cpu time spent up to now is    52816.2 secs

     total energy              =  -11682.12271062 Ry
     estimated scf accuracy    <       0.00000846 Ry

     iteration #181     ecut=    80.00 Ry     beta= 0.10
     Davidson diagonalization with overlap
     ethr =  4.52E-10,  avg # of iterations =  1.0

     negative rho (up, down):  5.875E-02 0.000E+00

     total cpu time spent up to now is    53104.6 secs

     total energy              =  -11682.12271058 Ry
     estimated scf accuracy    <       0.00001368 Ry

     iteration #182     ecut=    80.00 Ry     beta= 0.10
     Davidson diagonalization with overlap
     ethr =  4.52E-10,  avg # of iterations =  1.0

     negative rho (up, down):  5.875E-02 0.000E+00

     total cpu time spent up to now is    53391.9 secs

     total energy              =  -11682.12271077 Ry
     estimated scf accuracy    <       0.00000723 Ry

     iteration #183     ecut=    80.00 Ry     beta= 0.10
     Davidson diagonalization with overlap
     ethr =  3.86E-10,  avg # of iterations =  1.0

     negative rho (up, down):  5.875E-02 0.000E+00

     total cpu time spent up to now is    53679.5 secs

     total energy              =  -11682.12271085 Ry
     estimated scf accuracy    <       0.00000607 Ry

     iteration #184     ecut=    80.00 Ry     beta= 0.10
     Davidson diagonalization with overlap
     ethr =  3.25E-10,  avg # of iterations =  1.0

     negative rho (up, down):  5.875E-02 0.000E+00

     total cpu time spent up to now is    53967.1 secs

     total energy              =  -11682.12271090 Ry
     estimated scf accuracy    <       0.00000924 Ry

     iteration #185     ecut=    80.00 Ry     beta= 0.10
     Davidson diagonalization with overlap
     ethr =  3.25E-10,  avg # of iterations =  1.0

     negative rho (up, down):  5.875E-02 0.000E+00

     total cpu time spent up to now is    54254.8 secs

     total energy              =  -11682.12271084 Ry
     estimated scf accuracy    <       0.00001400 Ry

     iteration #186     ecut=    80.00 Ry     beta= 0.10
     Davidson diagonalization with overlap
     ethr =  3.25E-10,  avg # of iterations =  1.0

     negative rho (up, down):  5.875E-02 0.000E+00

     total cpu time spent up to now is    54542.8 secs

     total energy              =  -11682.12271074 Ry
     estimated scf accuracy    <       0.00001264 Ry

     iteration #187     ecut=    80.00 Ry     beta= 0.10
     Davidson diagonalization with overlap
     ethr =  3.25E-10,  avg # of iterations =  1.0

     negative rho (up, down):  5.875E-02 0.000E+00

     total cpu time spent up to now is    54830.1 secs

     total energy              =  -11682.12271080 Ry
     estimated scf accuracy    <       0.00002669 Ry

     iteration #188     ecut=    80.00 Ry     beta= 0.10
     Davidson diagonalization with overlap
     ethr =  3.25E-10,  avg # of iterations =  1.0

     negative rho (up, down):  5.875E-02 0.000E+00

     total cpu time spent up to now is    55117.7 secs

     total energy              =  -11682.12271085 Ry
     estimated scf accuracy    <       0.00002808 Ry

     iteration #189     ecut=    80.00 Ry     beta= 0.10
     Davidson diagonalization with overlap
     ethr =  3.25E-10,  avg # of iterations =  1.0

     negative rho (up, down):  5.876E-02 0.000E+00

     total cpu time spent up to now is    55405.2 secs

     total energy              =  -11682.12271101 Ry
     estimated scf accuracy    <       0.00000641 Ry

     iteration #190     ecut=    80.00 Ry     beta= 0.10
     Davidson diagonalization with overlap
     ethr =  3.25E-10,  avg # of iterations =  1.0

     negative rho (up, down):  5.876E-02 0.000E+00

     total cpu time spent up to now is    55692.6 secs

     total energy              =  -11682.12271102 Ry
     estimated scf accuracy    <       0.00000553 Ry

     iteration #191     ecut=    80.00 Ry     beta= 0.10
     Davidson diagonalization with overlap
     ethr =  2.95E-10,  avg # of iterations =  1.0

     negative rho (up, down):  5.875E-02 0.000E+00

     total cpu time spent up to now is    55981.1 secs

     total energy              =  -11682.12271098 Ry
     estimated scf accuracy    <       0.00000843 Ry

     iteration #192     ecut=    80.00 Ry     beta= 0.10
     Davidson diagonalization with overlap
     ethr =  2.95E-10,  avg # of iterations =  1.0

     negative rho (up, down):  5.876E-02 0.000E+00

     total cpu time spent up to now is    56268.3 secs

     total energy              =  -11682.12271108 Ry
     estimated scf accuracy    <       0.00000468 Ry

     iteration #193     ecut=    80.00 Ry     beta= 0.10
     Davidson diagonalization with overlap
     ethr =  2.50E-10,  avg # of iterations =  1.0

     negative rho (up, down):  5.876E-02 0.000E+00

     total cpu time spent up to now is    56555.8 secs

     total energy              =  -11682.12271114 Ry
     estimated scf accuracy    <       0.00000262 Ry

     iteration #194     ecut=    80.00 Ry     beta= 0.10
     Davidson diagonalization with overlap
     ethr =  1.40E-10,  avg # of iterations =  1.0

     negative rho (up, down):  5.876E-02 0.000E+00

     total cpu time spent up to now is    56843.8 secs

     total energy              =  -11682.12271116 Ry
     estimated scf accuracy    <       0.00000315 Ry

     iteration #195     ecut=    80.00 Ry     beta= 0.10
     Davidson diagonalization with overlap
     ethr =  1.40E-10,  avg # of iterations =  1.0

     negative rho (up, down):  5.876E-02 0.000E+00

     total cpu time spent up to now is    57131.0 secs

     total energy              =  -11682.12271118 Ry
     estimated scf accuracy    <       0.00000426 Ry

     iteration #196     ecut=    80.00 Ry     beta= 0.10
     Davidson diagonalization with overlap
     ethr =  1.40E-10,  avg # of iterations =  1.0

     negative rho (up, down):  5.876E-02 0.000E+00

     total cpu time spent up to now is    57418.7 secs

     total energy              =  -11682.12271109 Ry
     estimated scf accuracy    <       0.00000485 Ry

     iteration #197     ecut=    80.00 Ry     beta= 0.10
     Davidson diagonalization with overlap
     ethr =  1.40E-10,  avg # of iterations =  1.0

     negative rho (up, down):  5.876E-02 0.000E+00

     total cpu time spent up to now is    57706.4 secs

     total energy              =  -11682.12271114 Ry
     estimated scf accuracy    <       0.00001760 Ry

     iteration #198     ecut=    80.00 Ry     beta= 0.10
     Davidson diagonalization with overlap
     ethr =  1.40E-10,  avg # of iterations =  1.0

     negative rho (up, down):  5.876E-02 0.000E+00

     total cpu time spent up to now is    57994.1 secs

     total energy              =  -11682.12271114 Ry
     estimated scf accuracy    <       0.00001602 Ry

     iteration #199     ecut=    80.00 Ry     beta= 0.10
     Davidson diagonalization with overlap
     ethr =  1.40E-10,  avg # of iterations =  1.0

     negative rho (up, down):  5.876E-02 0.000E+00

     total cpu time spent up to now is    58282.4 secs

     total energy              =  -11682.12271122 Ry
     estimated scf accuracy    <       0.00000370 Ry

     iteration #200     ecut=    80.00 Ry     beta= 0.10
     Davidson diagonalization with overlap
     ethr =  1.40E-10,  avg # of iterations =  1.0

     negative rho (up, down):  5.876E-02 0.000E+00

     total cpu time spent up to now is    58570.2 secs

     total energy              =  -11682.12271124 Ry
     estimated scf accuracy    <       0.00000326 Ry

     iteration #201     ecut=    80.00 Ry     beta= 0.10
     Davidson diagonalization with overlap
     ethr =  1.40E-10,  avg # of iterations =  1.0

     negative rho (up, down):  5.876E-02 0.000E+00

     total cpu time spent up to now is    58857.9 secs

     total energy              =  -11682.12271120 Ry
     estimated scf accuracy    <       0.00000535 Ry

     iteration #202     ecut=    80.00 Ry     beta= 0.10
     Davidson diagonalization with overlap
     ethr =  1.40E-10,  avg # of iterations =  1.0

     negative rho (up, down):  5.876E-02 0.000E+00

     total cpu time spent up to now is    59146.3 secs

     total energy              =  -11682.12271125 Ry
     estimated scf accuracy    <       0.00000429 Ry

     iteration #203     ecut=    80.00 Ry     beta= 0.10
     Davidson diagonalization with overlap
     ethr =  1.40E-10,  avg # of iterations =  1.0

     negative rho (up, down):  5.876E-02 0.000E+00

     total cpu time spent up to now is    59433.5 secs

     total energy              =  -11682.12271128 Ry
     estimated scf accuracy    <       0.00000175 Ry

     iteration #204     ecut=    80.00 Ry     beta= 0.10
     Davidson diagonalization with overlap
     ethr =  9.34E-11,  avg # of iterations =  1.0

     negative rho (up, down):  5.876E-02 0.000E+00

     total cpu time spent up to now is    59721.0 secs

     total energy              =  -11682.12271130 Ry
     estimated scf accuracy    <       0.00000161 Ry

     iteration #205     ecut=    80.00 Ry     beta= 0.10
     Davidson diagonalization with overlap
     ethr =  8.58E-11,  avg # of iterations =  1.0

     negative rho (up, down):  5.876E-02 0.000E+00

     total cpu time spent up to now is    60008.7 secs

     total energy              =  -11682.12271131 Ry
     estimated scf accuracy    <       0.00000141 Ry

     iteration #206     ecut=    80.00 Ry     beta= 0.10
     Davidson diagonalization with overlap
     ethr =  7.54E-11,  avg # of iterations =  1.0

     negative rho (up, down):  5.876E-02 0.000E+00

     total cpu time spent up to now is    60295.1 secs

     total energy              =  -11682.12271128 Ry
     estimated scf accuracy    <       0.00000152 Ry

     iteration #207     ecut=    80.00 Ry     beta= 0.10
     Davidson diagonalization with overlap
     ethr =  7.54E-11,  avg # of iterations =  1.0

     negative rho (up, down):  5.876E-02 0.000E+00

     total cpu time spent up to now is    60582.3 secs

     total energy              =  -11682.12271131 Ry
     estimated scf accuracy    <       0.00000818 Ry

     iteration #208     ecut=    80.00 Ry     beta= 0.10
     Davidson diagonalization with overlap
     ethr =  7.54E-11,  avg # of iterations =  1.0

     negative rho (up, down):  5.876E-02 0.000E+00

     total cpu time spent up to now is    60869.8 secs

     total energy              =  -11682.12271130 Ry
     estimated scf accuracy    <       0.00000542 Ry

     iteration #209     ecut=    80.00 Ry     beta= 0.10
     Davidson diagonalization with overlap
     ethr =  7.54E-11,  avg # of iterations =  1.0

     negative rho (up, down):  5.876E-02 0.000E+00

     total cpu time spent up to now is    61156.6 secs

     total energy              =  -11682.12271133 Ry
     estimated scf accuracy    <       0.00000164 Ry

     iteration #210     ecut=    80.00 Ry     beta= 0.10
     Davidson diagonalization with overlap
     ethr =  7.54E-11,  avg # of iterations =  1.0

     negative rho (up, down):  5.876E-02 0.000E+00

     total cpu time spent up to now is    61443.1 secs

     total energy              =  -11682.12271134 Ry
     estimated scf accuracy    <       0.00000169 Ry

     iteration #211     ecut=    80.00 Ry     beta= 0.10
     Davidson diagonalization with overlap
     ethr =  7.54E-11,  avg # of iterations =  1.0

     negative rho (up, down):  5.876E-02 0.000E+00

     total cpu time spent up to now is    61730.4 secs

     total energy              =  -11682.12271132 Ry
     estimated scf accuracy    <       0.00000303 Ry

     iteration #212     ecut=    80.00 Ry     beta= 0.10
     Davidson diagonalization with overlap
     ethr =  7.54E-11,  avg # of iterations =  1.0

     negative rho (up, down):  5.876E-02 0.000E+00

     total cpu time spent up to now is    62017.5 secs

     total energy              =  -11682.12271133 Ry
     estimated scf accuracy    <       0.00000406 Ry

     iteration #213     ecut=    80.00 Ry     beta= 0.10
     Davidson diagonalization with overlap
     ethr =  7.54E-11,  avg # of iterations =  1.0

     negative rho (up, down):  5.876E-02 0.000E+00

     total cpu time spent up to now is    62304.9 secs

     total energy              =  -11682.12271135 Ry
     estimated scf accuracy    <       0.00000154 Ry

     iteration #214     ecut=    80.00 Ry     beta= 0.10
     Davidson diagonalization with overlap
     ethr =  7.54E-11,  avg # of iterations =  1.0

     negative rho (up, down):  5.876E-02 0.000E+00

     total cpu time spent up to now is    62592.7 secs

     total energy              =  -11682.12271136 Ry
     estimated scf accuracy    <       0.00000127 Ry

     iteration #215     ecut=    80.00 Ry     beta= 0.10
     Davidson diagonalization with overlap
     ethr =  6.79E-11,  avg # of iterations =  1.0

     negative rho (up, down):  5.876E-02 0.000E+00

     total cpu time spent up to now is    62880.6 secs

     total energy              =  -11682.12271137 Ry
     estimated scf accuracy    <       0.00000073 Ry

     iteration #216     ecut=    80.00 Ry     beta= 0.10
     Davidson diagonalization with overlap
     ethr =  3.87E-11,  avg # of iterations =  1.0

     negative rho (up, down):  5.876E-02 0.000E+00

     total cpu time spent up to now is    63167.9 secs

     total energy              =  -11682.12271137 Ry
     estimated scf accuracy    <       0.00000054 Ry

     iteration #217     ecut=    80.00 Ry     beta= 0.10
     Davidson diagonalization with overlap
     ethr =  2.88E-11,  avg # of iterations =  1.0

     negative rho (up, down):  5.876E-02 0.000E+00

     total cpu time spent up to now is    63454.9 secs

     total energy              =  -11682.12271137 Ry
     estimated scf accuracy    <       0.00000339 Ry

     iteration #218     ecut=    80.00 Ry     beta= 0.10
     Davidson diagonalization with overlap
     ethr =  2.88E-11,  avg # of iterations =  1.0

     negative rho (up, down):  5.876E-02 0.000E+00

     total cpu time spent up to now is    63743.2 secs

     total energy              =  -11682.12271137 Ry
     estimated scf accuracy    <       0.00000158 Ry

     iteration #219     ecut=    80.00 Ry     beta= 0.10
     Davidson diagonalization with overlap
     ethr =  2.88E-11,  avg # of iterations =  1.0

     negative rho (up, down):  5.876E-02 0.000E+00

     total cpu time spent up to now is    64031.1 secs

     total energy              =  -11682.12271138 Ry
     estimated scf accuracy    <       0.00000069 Ry

     iteration #220     ecut=    80.00 Ry     beta= 0.10
     Davidson diagonalization with overlap
     ethr =  2.88E-11,  avg # of iterations =  1.0

     negative rho (up, down):  5.876E-02 0.000E+00

     total cpu time spent up to now is    64319.5 secs

     total energy              =  -11682.12271139 Ry
     estimated scf accuracy    <       0.00000079 Ry

     iteration #221     ecut=    80.00 Ry     beta= 0.10
     Davidson diagonalization with overlap
     ethr =  2.88E-11,  avg # of iterations =  1.0

     negative rho (up, down):  5.876E-02 0.000E+00

     total cpu time spent up to now is    64606.8 secs

     total energy              =  -11682.12271139 Ry
     estimated scf accuracy    <       0.00000137 Ry

     iteration #222     ecut=    80.00 Ry     beta= 0.10
     Davidson diagonalization with overlap
     ethr =  2.88E-11,  avg # of iterations =  1.0

     negative rho (up, down):  5.876E-02 0.000E+00

     total cpu time spent up to now is    64894.5 secs

     total energy              =  -11682.12271138 Ry
     estimated scf accuracy    <       0.00000251 Ry

     iteration #223     ecut=    80.00 Ry     beta= 0.10
     Davidson diagonalization with overlap
     ethr =  2.88E-11,  avg # of iterations =  1.0

     negative rho (up, down):  5.876E-02 0.000E+00

     total cpu time spent up to now is    65181.9 secs

     total energy              =  -11682.12271139 Ry
     estimated scf accuracy    <       0.00000111 Ry

     iteration #224     ecut=    80.00 Ry     beta= 0.10
     Davidson diagonalization with overlap
     ethr =  2.88E-11,  avg # of iterations =  1.0

     negative rho (up, down):  5.876E-02 0.000E+00

     total cpu time spent up to now is    65469.4 secs

     total energy              =  -11682.12271139 Ry
     estimated scf accuracy    <       0.00000108 Ry

     iteration #225     ecut=    80.00 Ry     beta= 0.10
     Davidson diagonalization with overlap
     ethr =  2.88E-11,  avg # of iterations =  1.0

     negative rho (up, down):  5.876E-02 0.000E+00

     total cpu time spent up to now is    65757.2 secs

     total energy              =  -11682.12271140 Ry
     estimated scf accuracy    <       0.00000060 Ry

     iteration #226     ecut=    80.00 Ry     beta= 0.10
     Davidson diagonalization with overlap
     ethr =  2.88E-11,  avg # of iterations =  1.0

     negative rho (up, down):  5.876E-02 0.000E+00

     total cpu time spent up to now is    66043.7 secs

     total energy              =  -11682.12271140 Ry
     estimated scf accuracy    <       0.00000030 Ry

     iteration #227     ecut=    80.00 Ry     beta= 0.10
     Davidson diagonalization with overlap
     ethr =  1.59E-11,  avg # of iterations =  1.0

     negative rho (up, down):  5.876E-02 0.000E+00

     total cpu time spent up to now is    66331.3 secs

     total energy              =  -11682.12271140 Ry
     estimated scf accuracy    <       0.00000210 Ry

     iteration #228     ecut=    80.00 Ry     beta= 0.10
     Davidson diagonalization with overlap
     ethr =  1.59E-11,  avg # of iterations =  1.0

     negative rho (up, down):  5.876E-02 0.000E+00

     total cpu time spent up to now is    66618.7 secs

     total energy              =  -11682.12271140 Ry
     estimated scf accuracy    <       0.00000065 Ry

     iteration #229     ecut=    80.00 Ry     beta= 0.10
     Davidson diagonalization with overlap
     ethr =  1.59E-11,  avg # of iterations =  1.0

     negative rho (up, down):  5.876E-02 0.000E+00

     total cpu time spent up to now is    66905.8 secs

     total energy              =  -11682.12271140 Ry
     estimated scf accuracy    <       0.00000036 Ry

     iteration #230     ecut=    80.00 Ry     beta= 0.10
     Davidson diagonalization with overlap
     ethr =  1.59E-11,  avg # of iterations =  1.0

     negative rho (up, down):  5.876E-02 0.000E+00

     total cpu time spent up to now is    67193.8 secs

     total energy              =  -11682.12271141 Ry
     estimated scf accuracy    <       0.00000035 Ry

     iteration #231     ecut=    80.00 Ry     beta= 0.10
     Davidson diagonalization with overlap
     ethr =  1.59E-11,  avg # of iterations =  1.0

     negative rho (up, down):  5.876E-02 0.000E+00

     total cpu time spent up to now is    67481.4 secs

     total energy              =  -11682.12271141 Ry
     estimated scf accuracy    <       0.00000048 Ry

     iteration #232     ecut=    80.00 Ry     beta= 0.10
     Davidson diagonalization with overlap
     ethr =  1.59E-11,  avg # of iterations =  1.0

     negative rho (up, down):  5.876E-02 0.000E+00

     total cpu time spent up to now is    67769.6 secs

     total energy              =  -11682.12271141 Ry
     estimated scf accuracy    <       0.00000094 Ry

     iteration #233     ecut=    80.00 Ry     beta= 0.10
     Davidson diagonalization with overlap
     ethr =  1.59E-11,  avg # of iterations =  1.0

     negative rho (up, down):  5.876E-02 0.000E+00

     total cpu time spent up to now is    68057.6 secs

     total energy              =  -11682.12271141 Ry
     estimated scf accuracy    <       0.00000054 Ry

     iteration #234     ecut=    80.00 Ry     beta= 0.10
     Davidson diagonalization with overlap
     ethr =  1.59E-11,  avg # of iterations =  1.0

     negative rho (up, down):  5.876E-02 0.000E+00

     total cpu time spent up to now is    68344.7 secs

     total energy              =  -11682.12271141 Ry
     estimated scf accuracy    <       0.00000075 Ry

     iteration #235     ecut=    80.00 Ry     beta= 0.10
     Davidson diagonalization with overlap
     ethr =  1.59E-11,  avg # of iterations =  1.0

     negative rho (up, down):  5.876E-02 0.000E+00

     total cpu time spent up to now is    68632.5 secs

     total energy              =  -11682.12271141 Ry
     estimated scf accuracy    <       0.00000062 Ry

     iteration #236     ecut=    80.00 Ry     beta= 0.10
     Davidson diagonalization with overlap
     ethr =  1.59E-11,  avg # of iterations =  1.0

     negative rho (up, down):  5.876E-02 0.000E+00

     total cpu time spent up to now is    68920.2 secs

     total energy              =  -11682.12271141 Ry
     estimated scf accuracy    <       0.00000024 Ry

     iteration #237     ecut=    80.00 Ry     beta= 0.10
     Davidson diagonalization with overlap
     ethr =  1.31E-11,  avg # of iterations =  1.0

     negative rho (up, down):  5.876E-02 0.000E+00

     total cpu time spent up to now is    69208.7 secs

     total energy              =  -11682.12271141 Ry
     estimated scf accuracy    <       0.00000191 Ry

     iteration #238     ecut=    80.00 Ry     beta= 0.10
     Davidson diagonalization with overlap
     ethr =  1.31E-11,  avg # of iterations =  1.0

     negative rho (up, down):  5.876E-02 0.000E+00

     total cpu time spent up to now is    69497.2 secs

     total energy              =  -11682.12271141 Ry
     estimated scf accuracy    <       0.00000039 Ry

     iteration #239     ecut=    80.00 Ry     beta= 0.10
     Davidson diagonalization with overlap
     ethr =  1.31E-11,  avg # of iterations =  1.0

     negative rho (up, down):  5.876E-02 0.000E+00

     total cpu time spent up to now is    69784.7 secs

     total energy              =  -11682.12271141 Ry
     estimated scf accuracy    <       0.00000024 Ry

     iteration #240     ecut=    80.00 Ry     beta= 0.10
     Davidson diagonalization with overlap
     ethr =  1.29E-11,  avg # of iterations =  1.0

     negative rho (up, down):  5.876E-02 0.000E+00

     total cpu time spent up to now is    70071.3 secs

     total energy              =  -11682.12271142 Ry
     estimated scf accuracy    <       0.00000019 Ry

     iteration #241     ecut=    80.00 Ry     beta= 0.10
     Davidson diagonalization with overlap
     ethr =  1.00E-11,  avg # of iterations =  1.0

     negative rho (up, down):  5.876E-02 0.000E+00

     total cpu time spent up to now is    70359.0 secs

     total energy              =  -11682.12271141 Ry
     estimated scf accuracy    <       0.00000016 Ry

     iteration #242     ecut=    80.00 Ry     beta= 0.10
     Davidson diagonalization with overlap
     ethr =  8.53E-12,  avg # of iterations =  1.0

     negative rho (up, down):  5.877E-02 0.000E+00

     total cpu time spent up to now is    70647.7 secs

     total energy              =  -11682.12271141 Ry
     estimated scf accuracy    <       0.00000028 Ry

     iteration #243     ecut=    80.00 Ry     beta= 0.10
     Davidson diagonalization with overlap
     ethr =  8.53E-12,  avg # of iterations =  1.0

     negative rho (up, down):  5.877E-02 0.000E+00

     total cpu time spent up to now is    70936.0 secs

     total energy              =  -11682.12271141 Ry
     estimated scf accuracy    <       0.00000020 Ry

     iteration #244     ecut=    80.00 Ry     beta= 0.10
     Davidson diagonalization with overlap
     ethr =  8.53E-12,  avg # of iterations =  1.0

     negative rho (up, down):  5.876E-02 0.000E+00

     total cpu time spent up to now is    71223.3 secs

     total energy              =  -11682.12271141 Ry
     estimated scf accuracy    <       0.00000039 Ry

     iteration #245     ecut=    80.00 Ry     beta= 0.10
     Davidson diagonalization with overlap
     ethr =  8.53E-12,  avg # of iterations =  1.0

     negative rho (up, down):  5.877E-02 0.000E+00

     total cpu time spent up to now is    71510.9 secs

     total energy              =  -11682.12271141 Ry
     estimated scf accuracy    <       0.00000054 Ry

     iteration #246     ecut=    80.00 Ry     beta= 0.10
     Davidson diagonalization with overlap
     ethr =  8.53E-12,  avg # of iterations =  1.0

     negative rho (up, down):  5.877E-02 0.000E+00

     total cpu time spent up to now is    71798.0 secs

     total energy              =  -11682.12271141 Ry
     estimated scf accuracy    <       0.00000019 Ry

     iteration #247     ecut=    80.00 Ry     beta= 0.10
     Davidson diagonalization with overlap
     ethr =  8.53E-12,  avg # of iterations =  1.0

     negative rho (up, down):  5.877E-02 0.000E+00

     total cpu time spent up to now is    72085.8 secs

     total energy              =  -11682.12271141 Ry
     estimated scf accuracy    <       0.00000125 Ry

     iteration #248     ecut=    80.00 Ry     beta= 0.10
     Davidson diagonalization with overlap
     ethr =  8.53E-12,  avg # of iterations =  1.0

     negative rho (up, down):  5.877E-02 0.000E+00

     total cpu time spent up to now is    72372.7 secs

     total energy              =  -11682.12271142 Ry
     estimated scf accuracy    <       0.00000025 Ry

     iteration #249     ecut=    80.00 Ry     beta= 0.10
     Davidson diagonalization with overlap
     ethr =  8.53E-12,  avg # of iterations =  1.0

     negative rho (up, down):  5.877E-02 0.000E+00

     total cpu time spent up to now is    72659.6 secs

     total energy              =  -11682.12271141 Ry
     estimated scf accuracy    <       0.00000019 Ry

     iteration #250     ecut=    80.00 Ry     beta= 0.10
     Davidson diagonalization with overlap
     ethr =  8.53E-12,  avg # of iterations =  1.0

     negative rho (up, down):  5.877E-02 0.000E+00

     total cpu time spent up to now is    72947.2 secs

     total energy              =  -11682.12271141 Ry
     estimated scf accuracy    <       0.00000014 Ry

     iteration #251     ecut=    80.00 Ry     beta= 0.10
     Davidson diagonalization with overlap
     ethr =  7.46E-12,  avg # of iterations =  1.0

     negative rho (up, down):  5.877E-02 0.000E+00

     total cpu time spent up to now is    73235.7 secs

     total energy              =  -11682.12271141 Ry
     estimated scf accuracy    <       0.00000008 Ry

     iteration #252     ecut=    80.00 Ry     beta= 0.10
     Davidson diagonalization with overlap
     ethr =  4.18E-12,  avg # of iterations =  1.0

     negative rho (up, down):  5.877E-02 0.000E+00

     total cpu time spent up to now is    73523.5 secs

     total energy              =  -11682.12271141 Ry
     estimated scf accuracy    <       0.00000009 Ry

     iteration #253     ecut=    80.00 Ry     beta= 0.10
     Davidson diagonalization with overlap
     ethr =  4.18E-12,  avg # of iterations =  1.0

     negative rho (up, down):  5.877E-02 0.000E+00

     total cpu time spent up to now is    73810.7 secs

     total energy              =  -11682.12271142 Ry
     estimated scf accuracy    <       0.00000007 Ry

     iteration #254     ecut=    80.00 Ry     beta= 0.10
     Davidson diagonalization with overlap
     ethr =  3.73E-12,  avg # of iterations =  1.0

     negative rho (up, down):  5.877E-02 0.000E+00

     total cpu time spent up to now is    74098.5 secs

     total energy              =  -11682.12271141 Ry
     estimated scf accuracy    <       0.00000014 Ry

     iteration #255     ecut=    80.00 Ry     beta= 0.10
     Davidson diagonalization with overlap
     ethr =  3.73E-12,  avg # of iterations =  1.0

     negative rho (up, down):  5.877E-02 0.000E+00

     total cpu time spent up to now is    74386.1 secs

     total energy              =  -11682.12271141 Ry
     estimated scf accuracy    <       0.00000029 Ry

     iteration #256     ecut=    80.00 Ry     beta= 0.10
     Davidson diagonalization with overlap
     ethr =  3.73E-12,  avg # of iterations =  1.0

     negative rho (up, down):  5.877E-02 0.000E+00

     total cpu time spent up to now is    74673.5 secs

     total energy              =  -11682.12271141 Ry
     estimated scf accuracy    <       0.00000010 Ry

     iteration #257     ecut=    80.00 Ry     beta= 0.10
     Davidson diagonalization with overlap
     ethr =  3.73E-12,  avg # of iterations =  1.0

     negative rho (up, down):  5.877E-02 0.000E+00

     total cpu time spent up to now is    74961.4 secs

     total energy              =  -11682.12271141 Ry
     estimated scf accuracy    <       0.00000047 Ry

     iteration #258     ecut=    80.00 Ry     beta= 0.10
     Davidson diagonalization with overlap
     ethr =  3.73E-12,  avg # of iterations =  1.0

     negative rho (up, down):  5.877E-02 0.000E+00

     total cpu time spent up to now is    75248.4 secs

     total energy              =  -11682.12271141 Ry
     estimated scf accuracy    <       0.00000013 Ry

     iteration #259     ecut=    80.00 Ry     beta= 0.10
     Davidson diagonalization with overlap
     ethr =  3.73E-12,  avg # of iterations =  1.0

     negative rho (up, down):  5.877E-02 0.000E+00

     total cpu time spent up to now is    75536.0 secs

     total energy              =  -11682.12271141 Ry
     estimated scf accuracy    <       0.00000014 Ry

     iteration #260     ecut=    80.00 Ry     beta= 0.10
     Davidson diagonalization with overlap
     ethr =  3.73E-12,  avg # of iterations =  1.0

     negative rho (up, down):  5.877E-02 0.000E+00

     total cpu time spent up to now is    75823.8 secs

     total energy              =  -11682.12271141 Ry
     estimated scf accuracy    <       0.00000013 Ry

     iteration #261     ecut=    80.00 Ry     beta= 0.10
     Davidson diagonalization with overlap
     ethr =  3.73E-12,  avg # of iterations =  1.0

     negative rho (up, down):  5.877E-02 0.000E+00

     total cpu time spent up to now is    76110.8 secs

     total energy              =  -11682.12271141 Ry
     estimated scf accuracy    <       0.00000007 Ry

     iteration #262     ecut=    80.00 Ry     beta= 0.10
     Davidson diagonalization with overlap
     ethr =  3.64E-12,  avg # of iterations =  1.0

     negative rho (up, down):  5.877E-02 0.000E+00

     total cpu time spent up to now is    76398.3 secs

     total energy              =  -11682.12271141 Ry
     estimated scf accuracy    <       0.00000004 Ry

     iteration #263     ecut=    80.00 Ry     beta= 0.10
     Davidson diagonalization with overlap
     ethr =  2.24E-12,  avg # of iterations =  1.0

     negative rho (up, down):  5.877E-02 0.000E+00

     total cpu time spent up to now is    76685.8 secs

     total energy              =  -11682.12271141 Ry
     estimated scf accuracy    <       0.00000003 Ry

     iteration #264     ecut=    80.00 Ry     beta= 0.10
     Davidson diagonalization with overlap
     ethr =  1.51E-12,  avg # of iterations =  1.0

     negative rho (up, down):  5.877E-02 0.000E+00

     total cpu time spent up to now is    76972.8 secs

     total energy              =  -11682.12271141 Ry
     estimated scf accuracy    <       0.00000005 Ry

     iteration #265     ecut=    80.00 Ry     beta= 0.10
     Davidson diagonalization with overlap
     ethr =  1.51E-12,  avg # of iterations =  1.0

     negative rho (up, down):  5.877E-02 0.000E+00

     total cpu time spent up to now is    77260.1 secs

     total energy              =  -11682.12271141 Ry
     estimated scf accuracy    <       0.00000011 Ry

     iteration #266     ecut=    80.00 Ry     beta= 0.10
     Davidson diagonalization with overlap
     ethr =  1.51E-12,  avg # of iterations =  1.0

     negative rho (up, down):  5.877E-02 0.000E+00

     total cpu time spent up to now is    77548.9 secs

     total energy              =  -11682.12271141 Ry
     estimated scf accuracy    <       0.00000004 Ry

     iteration #267     ecut=    80.00 Ry     beta= 0.10
     Davidson diagonalization with overlap
     ethr =  1.51E-12,  avg # of iterations =  1.0

     negative rho (up, down):  5.877E-02 0.000E+00

     total cpu time spent up to now is    77836.3 secs

     total energy              =  -11682.12271141 Ry
     estimated scf accuracy    <       0.00000013 Ry

     iteration #268     ecut=    80.00 Ry     beta= 0.10
     Davidson diagonalization with overlap
     ethr =  1.51E-12,  avg # of iterations =  1.0

     negative rho (up, down):  5.877E-02 0.000E+00

     total cpu time spent up to now is    78126.8 secs

     total energy              =  -11682.12271141 Ry
     estimated scf accuracy    <       0.00000007 Ry

     iteration #269     ecut=    80.00 Ry     beta= 0.10
     Davidson diagonalization with overlap
     ethr =  1.51E-12,  avg # of iterations =  1.0

     negative rho (up, down):  5.877E-02 0.000E+00

     total cpu time spent up to now is    78413.9 secs

     total energy              =  -11682.12271141 Ry
     estimated scf accuracy    <       0.00000009 Ry

     iteration #270     ecut=    80.00 Ry     beta= 0.10
     Davidson diagonalization with overlap
     ethr =  1.51E-12,  avg # of iterations =  1.0

     negative rho (up, down):  5.877E-02 0.000E+00

     total cpu time spent up to now is    78701.0 secs

     total energy              =  -11682.12271141 Ry
     estimated scf accuracy    <       0.00000011 Ry

     iteration #271     ecut=    80.00 Ry     beta= 0.10
     Davidson diagonalization with overlap
     ethr =  1.51E-12,  avg # of iterations =  1.0

     negative rho (up, down):  5.877E-02 0.000E+00

     total cpu time spent up to now is    78989.1 secs

     total energy              =  -11682.12271141 Ry
     estimated scf accuracy    <       0.00000007 Ry

     iteration #272     ecut=    80.00 Ry     beta= 0.10
     Davidson diagonalization with overlap
     ethr =  1.51E-12,  avg # of iterations =  1.0

     negative rho (up, down):  5.877E-02 0.000E+00

     total cpu time spent up to now is    79276.8 secs

     total energy              =  -11682.12271141 Ry
     estimated scf accuracy    <       0.00000003 Ry

     iteration #273     ecut=    80.00 Ry     beta= 0.10
     Davidson diagonalization with overlap
     ethr =  1.51E-12,  avg # of iterations =  1.0

     negative rho (up, down):  5.877E-02 0.000E+00

     total cpu time spent up to now is    79564.0 secs

     total energy              =  -11682.12271141 Ry
     estimated scf accuracy    <       0.00000002 Ry

     iteration #274     ecut=    80.00 Ry     beta= 0.10
     Davidson diagonalization with overlap
     ethr =  8.66E-13,  avg # of iterations =  1.0

     negative rho (up, down):  5.877E-02 0.000E+00

     total cpu time spent up to now is    79851.2 secs

     total energy              =  -11682.12271141 Ry
     estimated scf accuracy    <       0.00000002 Ry

     iteration #275     ecut=    80.00 Ry     beta= 0.10
     Davidson diagonalization with overlap
     ethr =  8.66E-13,  avg # of iterations =  1.0

     negative rho (up, down):  5.877E-02 0.000E+00

     total cpu time spent up to now is    80138.6 secs

     total energy              =  -11682.12271141 Ry
     estimated scf accuracy    <       0.00000004 Ry

     iteration #276     ecut=    80.00 Ry     beta= 0.10
     Davidson diagonalization with overlap
     ethr =  8.66E-13,  avg # of iterations =  1.0

     negative rho (up, down):  5.877E-02 0.000E+00

     total cpu time spent up to now is    80426.6 secs

     total energy              =  -11682.12271141 Ry
     estimated scf accuracy    <       0.00000002 Ry

     iteration #277     ecut=    80.00 Ry     beta= 0.10
     Davidson diagonalization with overlap
     ethr =  8.66E-13,  avg # of iterations =  1.0

     negative rho (up, down):  5.877E-02 0.000E+00

     total cpu time spent up to now is    80713.8 secs

     total energy              =  -11682.12271141 Ry
     estimated scf accuracy    <       0.00000004 Ry

     iteration #278     ecut=    80.00 Ry     beta= 0.10
     Davidson diagonalization with overlap
     ethr =  8.66E-13,  avg # of iterations =  1.0

     negative rho (up, down):  5.877E-02 0.000E+00

     total cpu time spent up to now is    81001.6 secs

     total energy              =  -11682.12271141 Ry
     estimated scf accuracy    <       0.00000003 Ry

     iteration #279     ecut=    80.00 Ry     beta= 0.10
     Davidson diagonalization with overlap
     ethr =  8.66E-13,  avg # of iterations =  1.0

     negative rho (up, down):  5.877E-02 0.000E+00

     total cpu time spent up to now is    81289.0 secs

     total energy              =  -11682.12271141 Ry
     estimated scf accuracy    <       0.00000004 Ry

     iteration #280     ecut=    80.00 Ry     beta= 0.10
     Davidson diagonalization with overlap
     ethr =  8.66E-13,  avg # of iterations =  1.0

     negative rho (up, down):  5.877E-02 0.000E+00

     total cpu time spent up to now is    81576.2 secs

     total energy              =  -11682.12271141 Ry
     estimated scf accuracy    <       0.00000005 Ry

     iteration #281     ecut=    80.00 Ry     beta= 0.10
     Davidson diagonalization with overlap
     ethr =  8.66E-13,  avg # of iterations =  1.0

     negative rho (up, down):  5.877E-02 0.000E+00

     total cpu time spent up to now is    81864.3 secs

     total energy              =  -11682.12271141 Ry
     estimated scf accuracy    <       0.00000005 Ry

     iteration #282     ecut=    80.00 Ry     beta= 0.10
     Davidson diagonalization with overlap
     ethr =  8.66E-13,  avg # of iterations =  1.0

     negative rho (up, down):  5.877E-02 0.000E+00

     total cpu time spent up to now is    82158.9 secs

     total energy              =  -11682.12271141 Ry
     estimated scf accuracy    <       0.00000002 Ry

     iteration #283     ecut=    80.00 Ry     beta= 0.10
     Davidson diagonalization with overlap
     ethr =  8.66E-13,  avg # of iterations =  1.0

     negative rho (up, down):  5.877E-02 0.000E+00

     total cpu time spent up to now is    82446.3 secs

     total energy              =  -11682.12271141 Ry
     estimated scf accuracy    <       0.00000001 Ry

     iteration #284     ecut=    80.00 Ry     beta= 0.10
     Davidson diagonalization with overlap
     ethr =  7.07E-13,  avg # of iterations =  1.0

     negative rho (up, down):  5.877E-02 0.000E+00

     total cpu time spent up to now is    82732.6 secs

     total energy              =  -11682.12271141 Ry
     estimated scf accuracy    <       0.00000001 Ry

     iteration #285     ecut=    80.00 Ry     beta= 0.10
     Davidson diagonalization with overlap
     ethr =  6.72E-13,  avg # of iterations =  1.0

     negative rho (up, down):  5.877E-02 0.000E+00

     total cpu time spent up to now is    83019.6 secs

     total energy              =  -11682.12271141 Ry
     estimated scf accuracy    <       0.00000002 Ry

     iteration #286     ecut=    80.00 Ry     beta= 0.10
     Davidson diagonalization with overlap
     ethr =  6.72E-13,  avg # of iterations =  1.0

     negative rho (up, down):  5.877E-02 0.000E+00

     total cpu time spent up to now is    83308.1 secs

     total energy              =  -11682.12271141 Ry
     estimated scf accuracy    <       0.00000001 Ry

     iteration #287     ecut=    80.00 Ry     beta= 0.10
     Davidson diagonalization with overlap
     ethr =  5.59E-13,  avg # of iterations =  1.0

     negative rho (up, down):  5.877E-02 0.000E+00

     total cpu time spent up to now is    83595.3 secs

     total energy              =  -11682.12271140 Ry
     estimated scf accuracy    <       0.00000001 Ry

     iteration #288     ecut=    80.00 Ry     beta= 0.10
     Davidson diagonalization with overlap
     ethr =  5.59E-13,  avg # of iterations =  1.0

     negative rho (up, down):  5.877E-02 0.000E+00

     total cpu time spent up to now is    83884.1 secs

     total energy              =  -11682.12271140 Ry
     estimated scf accuracy    <       0.00000002 Ry

     iteration #289     ecut=    80.00 Ry     beta= 0.10
     Davidson diagonalization with overlap
     ethr =  5.59E-13,  avg # of iterations =  1.0

     negative rho (up, down):  5.877E-02 0.000E+00

     total cpu time spent up to now is    84171.5 secs

     total energy              =  -11682.12271140 Ry
     estimated scf accuracy    <       0.00000002 Ry

     iteration #290     ecut=    80.00 Ry     beta= 0.10
     Davidson diagonalization with overlap
     ethr =  5.59E-13,  avg # of iterations =  1.0

     negative rho (up, down):  5.877E-02 0.000E+00

     total cpu time spent up to now is    84460.9 secs

     total energy              =  -11682.12271140 Ry
     estimated scf accuracy    <       0.00000001 Ry

     iteration #291     ecut=    80.00 Ry     beta= 0.10
     Davidson diagonalization with overlap
     ethr =  5.59E-13,  avg # of iterations =  1.0

     negative rho (up, down):  5.877E-02 0.000E+00

     total cpu time spent up to now is    84748.0 secs

     total energy              =  -11682.12271140 Ry
     estimated scf accuracy    <       0.00000003 Ry

     iteration #292     ecut=    80.00 Ry     beta= 0.10
     Davidson diagonalization with overlap
     ethr =  5.59E-13,  avg # of iterations =  1.0

     negative rho (up, down):  5.877E-02 0.000E+00

     total cpu time spent up to now is    85035.7 secs

     total energy              =  -11682.12271140 Ry
     estimated scf accuracy    <       0.00000002 Ry

     iteration #293     ecut=    80.00 Ry     beta= 0.10
     Davidson diagonalization with overlap
     ethr =  5.59E-13,  avg # of iterations =  1.0

     negative rho (up, down):  5.877E-02 0.000E+00

     total cpu time spent up to now is    85323.4 secs

     total energy              =  -11682.12271140 Ry
     estimated scf accuracy    <       0.00000001 Ry

     iteration #294     ecut=    80.00 Ry     beta= 0.10
     Davidson diagonalization with overlap
     ethr =  5.59E-13,  avg # of iterations =  1.0

     negative rho (up, down):  5.877E-02 0.000E+00

     total cpu time spent up to now is    85611.5 secs

     total energy              =  -11682.12271140 Ry
     estimated scf accuracy    <       0.00000001 Ry

     iteration #295     ecut=    80.00 Ry     beta= 0.10
     Davidson diagonalization with overlap
     ethr =  5.59E-13,  avg # of iterations =  1.0

     negative rho (up, down):  5.877E-02 0.000E+00

     total cpu time spent up to now is    85899.2 secs

     total energy              =  -11682.12271140 Ry
     estimated scf accuracy    <       0.00000002 Ry

     iteration #296     ecut=    80.00 Ry     beta= 0.10
     Davidson diagonalization with overlap
     ethr =  5.59E-13,  avg # of iterations =  1.0

     negative rho (up, down):  5.877E-02 0.000E+00

     total cpu time spent up to now is    86186.6 secs

     End of self-consistent calculation

          k = 0.0000 0.0000 0.0000 (****** PWs)   bands (ev):

   -57.9881 -56.2230 -55.8888 -55.8563 -55.6866 -55.6119 -55.0557 -55.0553
   -54.7840 -54.5312 -53.9030 -29.9147 -29.8973 -29.8595 -28.1737 -28.1310
   -28.0899 -27.8221 -27.8145 -27.7930 -27.7746 -27.7745 -27.7515 -27.6208
   -27.5917 -27.5796 -27.5540 -27.5139 -27.4854 -27.1557 -27.0267 -27.0088
   -26.9665 -26.9468 -26.9316 -26.9265 -26.7763 -26.7249 -26.6844 -26.5075
   -26.4689 -26.4137 -26.2891 -26.1488 -25.9018 -25.8543 -25.8257 -25.8073
   -25.7928 -25.7837 -25.6365 -25.6113 -25.5910 -25.5854 -25.4784 -25.3860
   -25.3237 -25.2659 -25.2162 -25.1582 -25.1338 -25.0825 -25.0576 -25.0391
   -25.0298 -25.0192 -24.9762 -24.9341 -24.9221 -24.9120 -24.8779 -24.8760
   -24.8303 -24.8130 -24.7846 -24.7617 -24.7344 -24.6949 -24.6747 -24.6521
   -24.6361 -24.6329 -24.5986 -24.5769 -24.5634 -24.5385 -24.5185 -24.4806
   -24.4675 -24.4333 -24.4295 -24.4075 -24.3905 -24.3621 -24.3540 -24.3287
   -24.3231 -24.2983 -24.2846 -24.2721 -24.2428 -24.2369 -24.2123 -24.2032
   -24.1787 -24.1506 -24.1320 -24.1249 -24.1079 -24.0890 -24.0778 -24.0471
   -24.0193 -24.0040 -23.9904 -23.9701 -23.9557 -23.9277 -23.8989 -23.8945
   -23.8412 -23.8205 -23.8161 -23.8026 -23.7843 -23.7682 -23.7603 -23.7499
   -23.7324 -23.7276 -23.7207 -23.7116 -23.7017 -23.6950 -23.6626 -23.6497
   -23.6361 -23.6308 -23.6151 -23.5932 -23.5829 -23.5714 -23.5522 -23.5399
   -23.5304 -23.5151 -23.5002 -23.4727 -23.4414 -23.4310 -23.4158 -23.4135
   -23.3866 -23.3743 -23.3712 -23.3375 -23.3288 -23.3147 -23.3057 -23.2877
   -23.2752 -23.2514 -23.2443 -23.2209 -23.2117 -23.1825 -23.1728 -23.1531
   -23.1502 -23.1272 -23.1209 -23.1095 -23.0872 -23.0780 -23.0760 -23.0645
   -23.0454 -23.0392 -23.0215 -22.9853 -22.9579 -22.9396 -22.9314 -22.9166
   -22.9054 -22.8851 -22.8707 -22.8586 -22.8571 -22.8285 -22.8187 -22.8036
   -22.7936 -22.7790 -22.7395 -22.7303 -22.7261 -22.7249 -22.6900 -22.6854
   -22.6649 -22.5936 -22.5507 -22.5464 -22.4991 -22.4809 -22.4235 -22.4194
   -22.4150 -22.4113 -22.4055 -22.3566 -22.2912 -22.2715 -22.2632 -22.2458
   -22.2339 -22.2022 -22.1382 -22.0560 -22.0118 -22.0036 -21.9647 -21.8632
   -21.6772 -21.6063 -21.6030 -21.5884 -21.5326 -21.4772 -21.4509 -21.4186
   -21.3483 -21.3317 -20.6957 -20.6219 -20.5877 -20.5825 -20.5785 -20.5497
   -20.5485 -20.5044 -20.4928 -20.3856 -20.3359 -20.1874 -20.1004 -20.0957
   -20.0385 -19.8518 -19.7593 -19.7566 -19.7543 -19.7440 -19.7355 -19.7345
   -19.7332 -19.7003 -19.6993 -19.6873 -19.6274 -18.8756 -18.5425 -17.6532
   -16.8698 -16.1082 -15.3700 -15.2383 -15.1695 -15.1020 -14.9935 -14.9186
   -14.8830 -14.8092 -14.7736 -14.7293 -14.6808 -14.6155 -14.6056 -14.5553
   -14.5316 -14.4465 -14.3652 -14.3176 -14.2334 -14.2046 -14.1527 -14.1259
   -14.0559 -14.0329 -13.9832 -13.9568 -13.9455 -13.9283 -13.9063 -13.8387
   -13.8221 -13.7773 -13.7670 -13.7139 -13.6855 -13.6312 -13.5609 -13.5487
   -13.4690 -13.4671 -13.4551 -13.4462 -13.3985 -13.3481 -13.3226 -13.3107
   -13.2427 -13.2354 -13.1831 -13.1788 -13.1545 -13.1128 -13.1058 -13.0766
   -13.0324 -13.0167 -12.9863 -12.9532 -12.9283 -12.9097 -12.8749 -12.8514
   -12.8263 -12.7970 -12.7589 -12.7495 -12.6910 -12.6705 -12.6528 -12.5772
   -12.5663 -12.5434 -12.5078 -12.4684 -12.4382 -12.3990 -12.3859 -12.3515
   -12.3410 -12.3233 -12.3173 -12.2533 -12.2363 -12.1920 -12.1699 -12.1505
   -12.1075 -12.0651 -12.0475 -12.0235 -12.0037 -11.9716 -11.9408 -11.9129
   -11.8902 -11.8768 -11.8522 -11.8327 -11.8079 -11.7735 -11.7644 -11.7281
   -11.7254 -11.7174 -11.6710 -11.6604 -11.6245 -11.6217 -11.6058 -11.5918
   -11.5681 -11.5611 -11.5426 -11.5201 -11.5061 -11.4915 -11.4879 -11.4703
   -11.4509 -11.4381 -11.4111 -11.4022 -11.3961 -11.3578 -11.3404 -11.3206
   -11.2982 -11.2920 -11.2734 -11.2390 -11.2207 -11.1963 -11.1907 -11.1697
   -11.1651 -11.1443 -11.1233 -11.1136 -11.1107 -11.0938 -11.0884 -11.0618
   -11.0146 -11.0129 -10.9858 -10.9749 -10.9532 -10.9264 -10.9162 -10.9052
   -10.9020 -10.8776 -10.8765 -10.8499 -10.8487 -10.8377 -10.8068 -10.8058
   -10.8011 -10.7676 -10.7446 -10.7360 -10.7178 -10.7160 -10.6861 -10.6782
   -10.6407 -10.6058 -10.5873 -10.5720 -10.5587 -10.5430 -10.5380 -10.5130
   -10.4977 -10.4846 -10.4539 -10.4139 -10.4056 -10.3574 -10.3333 -10.3201
   -10.3051 -10.2578 -10.2358 -10.2306 -10.2092 -10.1893 -10.1358 -10.1001
   -10.0979 -10.0722 -10.0533 -10.0176  -9.9824  -9.9354  -9.9223  -9.8994
    -9.8847  -9.8631  -9.8339  -9.8201  -9.8095  -9.7905  -9.7676  -9.7412
    -9.6909  -9.6737  -9.6151  -9.6107  -9.5933  -9.5729  -9.5537  -9.5386
    -9.5211  -9.5080  -9.4914  -9.4748  -9.4429  -9.4215  -9.3964  -9.3896
    -9.3630  -9.3586  -9.3494  -9.3365  -9.3265  -9.3148  -9.2851  -9.2682
    -9.2607  -9.2534  -9.2474  -9.2124  -9.2053  -9.1939  -9.1723  -9.1635
    -9.1462  -9.1319  -9.1026  -9.0828  -9.0682  -9.0416  -9.0403  -9.0005
    -8.9905  -8.9663  -8.9347  -8.9336  -8.9059  -8.8916  -8.8807  -8.8723
    -8.8648  -8.8516  -8.8314  -8.8121  -8.7966  -8.7875  -8.7661  -8.7571
    -8.7460  -8.7356  -8.7257  -8.7102  -8.6945  -8.6899  -8.6834  -8.6693
    -8.6630  -8.6464  -8.6184  -8.6135  -8.5957  -8.5942  -8.5769  -8.5703
    -8.5601  -8.5436  -8.5380  -8.5358  -8.5255  -8.5160  -8.5145  -8.5044
    -8.4908  -8.4802  -8.4710  -8.4600  -8.4417  -8.4223  -8.4166  -8.4092
    -8.3994  -8.3923  -8.3866  -8.3697  -8.3572  -8.3522  -8.3390  -8.3302
    -8.3222  -8.3103  -8.2953  -8.2885  -8.2729  -8.2593  -8.2485  -8.2396
    -8.2279  -8.2190  -8.2044  -8.2023  -8.1981  -8.1897  -8.1721  -8.1666
    -8.1650  -8.1540  -8.1339  -8.1152  -8.1072  -8.0979  -8.0873  -8.0747
    -8.0611  -8.0610  -8.0534  -8.0453  -8.0303  -8.0225  -8.0143  -8.0049
    -7.9856  -7.9743  -7.9682  -7.9652  -7.9419  -7.9415  -7.9379  -7.9353
    -7.9110  -7.9068  -7.8941  -7.8846  -7.8767  -7.8648  -7.8599  -7.8486
    -7.8463  -7.8310  -7.8274  -7.8174  -7.8021  -7.7985  -7.7883  -7.7752
    -7.7716  -7.7664  -7.7585  -7.7464  -7.7402  -7.7276  -7.7194  -7.7044
    -7.7008  -7.6966  -7.6792  -7.6710  -7.6650  -7.6522  -7.6475  -7.6393
    -7.6255  -7.6215  -7.6103  -7.6021  -7.5973  -7.5798  -7.5764  -7.5639
    -7.5591  -7.5396  -7.5326  -7.5278  -7.5174  -7.5079  -7.4923  -7.4911
    -7.4756  -7.4709  -7.4664  -7.4504  -7.4426  -7.4311  -7.4262  -7.4121
    -7.4023  -7.3982  -7.3911  -7.3829  -7.3525  -7.3411  -7.3387  -7.3251
    -7.3170  -7.3147  -7.3105  -7.2998  -7.2853  -7.2803  -7.2730  -7.2568
    -7.2506  -7.2377  -7.2284  -7.2169  -7.2126  -7.2083  -7.2026  -7.1890
    -7.1811  -7.1670  -7.1588  -7.1436  -7.1378  -7.1196  -7.1099  -7.1042
    -7.0897  -7.0873  -7.0745  -7.0643  -7.0542  -7.0458  -7.0363  -7.0290
    -7.0186  -7.0152  -7.0067  -6.9906  -6.9846  -6.9805  -6.9616  -6.9494
    -6.9325  -6.9224  -6.9133  -6.9009  -6.8911  -6.8808  -6.8704  -6.8672
    -6.8531  -6.8489  -6.8352  -6.8151  -6.8085  -6.8005  -6.7942  -6.7816
    -6.7700  -6.7579  -6.7517  -6.7423  -6.7380  -6.7240  -6.7104  -6.7072
    -6.6992  -6.6870  -6.6772  -6.6636  -6.6527  -6.6450  -6.6330  -6.6240
    -6.6145  -6.6133  -6.6084  -6.5835  -6.5793  -6.5601  -6.5584  -6.5427
    -6.5289  -6.5170  -6.5108  -6.5071  -6.4941  -6.4790  -6.4729  -6.4599
    -6.4579  -6.4454  -6.4438  -6.4328  -6.4281  -6.4139  -6.4037  -6.3989
    -6.3940  -6.3795  -6.3766  -6.3714  -6.3555  -6.3455  -6.3319  -6.3218
    -6.3085  -6.3051  -6.2922  -6.2803  -6.2716  -6.2663  -6.2527  -6.2453
    -6.2381  -6.2191  -6.2072  -6.1993  -6.1923  -6.1671  -6.1653  -6.1350
    -6.1235  -6.1102  -6.1010  -6.0873  -6.0826  -6.0612  -6.0585  -6.0368
    -6.0218  -6.0129  -5.9989  -5.9802  -5.9756  -5.9683  -5.9641  -5.9506
    -5.9411  -5.9324  -5.9103  -5.9042  -5.8911  -5.8722  -5.8662  -5.8644
    -5.8529  -5.8381  -5.8210  -5.8081  -5.8011  -5.7927  -5.7708  -5.7521
    -5.7510  -5.7441  -5.7425  -5.7258  -5.7110  -5.7078  -5.7012  -5.6802
    -5.6750  -5.6511  -5.6287  -5.6235  -5.6109  -5.5995  -5.5926  -5.5713
    -5.5658  -5.5408  -5.5212  -5.5041  -5.4946  -5.4830  -5.4721  -5.4630
    -5.4314  -5.4217  -5.4153  -5.3987  -5.3704  -5.3655  -5.3623  -5.3590
    -5.3530  -5.3375  -5.3091  -5.2946  -5.2804  -5.2695  -5.2439  -5.2288
    -5.1984  -5.1766  -5.1685  -5.1458  -5.1189  -5.0982  -5.0778  -5.0574
    -5.0340  -4.9929  -4.9143  -4.8838  -4.8788  -4.8694  -4.8537  -4.8367
    -4.7934  -4.7523  -4.7402  -4.7116  -4.6905  -4.6888  -4.6351  -4.6282
    -4.6098  -4.5323  -4.5110  -4.4863  -4.4779  -4.4762  -4.4665  -4.4520
    -4.3674  -4.2816  -4.2363  -4.2270  -4.1681  -4.1320  -4.0816  -4.0629
    -4.0541  -4.0425  -4.0396  -3.9984  -3.9883  -3.9611  -3.9500  -3.9414
    -3.9296  -3.9198  -3.9115  -3.8774  -3.8765  -3.8702  -3.8560  -3.8509
    -3.8446  -3.8362  -3.8276  -3.8251  -3.8234  -3.8149  -3.8103  -3.8063
    -3.8046  -3.7956  -3.7894  -3.7735  -3.7657  -3.7612  -3.7515  -3.7483
    -3.7380  -3.7348  -3.7083  -3.6909  -3.6753  -3.6566  -3.6544  -3.6411
    -3.5576  -3.4743  -3.4231  -3.3830  -3.3389  -3.3164  -3.2166  -3.1384
    -2.7965  -2.6492  -2.2345  -2.0061  -1.5761  -0.6367  -0.5847  -0.4927
    -0.4473  -0.4429  -0.2982  -0.2848  -0.2112  -0.1319  -0.0561  -0.0197
     0.0168   0.1303   0.2176   0.3549   0.4009   0.4393   0.5113   0.6026
     0.6473   0.6786   0.7133   0.7473   0.8055   0.8507   0.9060   0.9531
     0.9976   1.0246   1.0436   1.0700   1.1065   1.1214   1.1748   1.1838
     1.2195   1.2482   1.2834   1.3001   1.3237   1.3424   1.3497   1.3610
     1.4020   1.4071   1.4325   1.4627   1.4816   1.5214   1.5477   1.5860
     1.5949   1.6217   1.6612   1.6814   1.6880   1.7097   1.7198   1.7403
     1.7554   1.7851   1.7952   1.8011   1.8420   1.8454   1.8619   1.8763
     1.8966   1.9129   1.9410   1.9530   1.9627   1.9639   1.9812   2.0237
     2.0292   2.0489   2.0630   2.0751   2.0877   2.1095   2.1294   2.1356
     2.1455   2.1500   2.1695   2.1819   2.1908   2.1935   2.2011   2.2080
     2.2158   2.2257   2.2319   2.2387   2.2573   2.2693   2.2767   2.2886
     2.3051   2.3234   2.3292   2.3370   2.3473   2.3576   2.3746   2.3942
     2.3946   2.4076   2.4219   2.4289   2.4429   2.4516   2.4709   2.4823
     2.4912   2.5077   2.5147   2.5306   2.5405   2.5483   2.5555   2.5634
     2.5758   2.5820   2.5902   2.6022   2.6067   2.6193   2.6219   2.6260
     2.6325   2.6554   2.6640   2.6646   2.6686   2.6774   2.6906   2.6929
     2.7026   2.7136   2.7274   2.7313   2.7393   2.7447   2.7496   2.7615
     2.7682   2.7767   2.7870   2.8011   2.8076   2.8137   2.8227   2.8297
     2.8386   2.8519   2.8619   2.8755   2.8762   2.8834   2.8918   2.9063
     2.9136   2.9224   2.9380

     the Fermi energy is    -3.7100 ev

!    total energy              =  -11682.12271139 Ry
     estimated scf accuracy    <          9.1E-09 Ry
     smearing contrib. (-TS)   =      -0.11182246 Ry
     internal energy E=F+TS    =  -11682.01088893 Ry

     The total energy is F=E-TS. E is the sum of the following terms:
     one-electron contribution = -370424.93598083 Ry
     hartree contribution      =  185673.85165849 Ry
     xc contribution           =   -2470.90914438 Ry
     ewald contribution        =  177899.68457749 Ry
     one-center paw contrib.   =   -2359.70199970 Ry

     convergence has been achieved in 296 iterations

     negative rho (up, down):  5.877E-02 0.000E+00

     Forces acting on atoms (cartesian axes, Ry/au):

     atom    1 type  1   force =     0.01197498    0.01353607    0.05500744
     atom    2 type  1   force =     0.02859370    0.02457472   -0.00195053
     atom    3 type  1   force =     0.00768298    0.00106745   -0.00353668
     atom    4 type  1   force =    -0.01246576   -0.01524742   -0.01032543
     atom    5 type  1   force =     0.01476657   -0.02238531   -0.02720841
     atom    6 type  1   force =     0.00356349   -0.00142403    0.00424069
     atom    7 type  1   force =    -0.00873003    0.01231688    0.01068822
     atom    8 type  1   force =    -0.01211428   -0.03100808    0.00324308
     atom    9 type  1   force =    -0.00149036    0.00644356    0.01342733
     atom   10 type  1   force =     0.01836562   -0.00152174    0.01721503
     atom   11 type  1   force =    -0.01122708   -0.00525368   -0.01235023
     atom   12 type  2   force =     0.00698506    0.12279166   -0.04038750
     atom   13 type  2   force =     0.13779119    0.10373695   -0.00213203
     atom   14 type  2   force =     0.08061524    0.03201181   -0.06295150
     atom   15 type  2   force =     0.14554742   -0.03942756   -0.15255616
     atom   16 type  2   force =     0.02151926    0.03841307    0.04011306
     atom   17 type  2   force =     0.15431051    0.01480622    0.25411967
     atom   18 type  2   force =    -0.01244618   -0.04669675   -0.04957667
     atom   19 type  2   force =    -0.01082931    0.03870165   -0.10076725
     atom   20 type  2   force =    -0.02590567   -0.01331872   -0.04195492
     atom   21 type  2   force =    -0.05466289    0.13501443   -0.03956008
     atom   22 type  2   force =     0.03602585   -0.13341596    0.09295124
     atom   23 type  2   force =    -0.03939341   -0.06833366   -0.05875855
     atom   24 type  2   force =     0.03242543    0.02643737    0.00994622
     atom   25 type  2   force =     0.06546743    0.00662963    0.07188869
     atom   26 type  2   force =    -0.01669219   -0.00980602   -0.01122312
     atom   27 type  2   force =     0.04172726    0.11814438   -0.07360664
     atom   28 type  2   force =    -0.00193715   -0.05838783   -0.01150733
     atom   29 type  2   force =    -0.03148081   -0.05048207    0.08141040
     atom   30 type  2   force =     0.03242130   -0.03173857   -0.03946395
     atom   31 type  2   force =     0.03577064    0.02205574    0.00208461
     atom   32 type  2   force =    -0.00990756   -0.06580254    0.08800308
     atom   33 type  2   force =    -0.05567146    0.01793373   -0.05606962
     atom   34 type  2   force =     0.06102129   -0.02690540   -0.02236902
     atom   35 type  3   force =    -0.01339136   -0.07805236    0.00310957
     atom   36 type  3   force =    -0.16400087    0.08783769   -0.04848275
     atom   37 type  3   force =    -0.06763914    0.03583127   -0.01404090
     atom   38 type  3   force =    -0.05431634   -0.00013062   -0.00942357
     atom   39 type  3   force =     0.07427174    0.00714741    0.01037259
     atom   40 type  3   force =     0.08621604    0.02274631   -0.04325770
     atom   41 type  3   force =    -0.10881781   -0.09033539   -0.13250779
     atom   42 type  3   force =     0.01248119   -0.06070321    0.06444041
     atom   43 type  3   force =     0.01841648   -0.02243672   -0.04846613
     atom   44 type  3   force =     0.06109726    0.10567889    0.04105649
     atom   45 type  3   force =    -0.03108393   -0.00107630   -0.03193932
     atom   46 type  3   force =    -0.03546427    0.12277603    0.06045409
     atom   47 type  3   force =    -0.05611433    0.00765889   -0.14708418
     atom   48 type  3   force =    -0.02867329   -0.12198978   -0.13775677
     atom   49 type  3   force =     0.06197936    0.18263115    0.05223960
     atom   50 type  3   force =     0.04357038   -0.02232644   -0.09795821
     atom   51 type  3   force =    -0.01923373    0.04789768    0.07041447
     atom   52 type  3   force =    -0.12137724   -0.10645598    0.12001808
     atom   53 type  3   force =    -0.12303332   -0.10981202   -0.05575638
     atom   54 type  3   force =    -0.03691105   -0.02292512    0.10180147
     atom   55 type  3   force =    -0.15031699    0.03129952    0.03090244
     atom   56 type  3   force =    -0.02202121    0.01166794    0.12304457
     atom   57 type  3   force =     0.00708263   -0.09514193   -0.04902806
     atom   58 type  3   force =     0.05975095   -0.00800421    0.04786977
     atom   59 type  3   force =    -0.03545467   -0.01068345    0.03800482
     atom   60 type  3   force =     0.07911958   -0.07457639   -0.00375789
     atom   61 type  3   force =     0.01535179    0.19124086    0.03547903
     atom   62 type  3   force =    -0.01911623   -0.01660912   -0.00638307
     atom   63 type  3   force =     0.01633182    0.01197062   -0.00657523
     atom   64 type  3   force =     0.00324738    0.05919561    0.08241882
     atom   65 type  3   force =    -0.00878306    0.02328811    0.02066254
     atom   66 type  3   force =    -0.01588540    0.00339315   -0.01880841
     atom   67 type  3   force =     0.03102118    0.00049817    0.10252613
     atom   68 type  3   force =    -0.06570873   -0.03465095    0.08006060
     atom   69 type  3   force =     0.04523570    0.03712939    0.03202203
     atom   70 type  3   force =    -0.05032676   -0.06707991   -0.05578520
     atom   71 type  3   force =     0.04896250   -0.03740938    0.05162323
     atom   72 type  3   force =     0.01414290    0.11147170    0.19916654
     atom   73 type  3   force =    -0.07884921    0.05115172   -0.07635955
     atom   74 type  3   force =     0.00519728   -0.06455562   -0.04796783
     atom   75 type  3   force =    -0.06347549    0.00869456   -0.00245689
     atom   76 type  3   force =     0.04447699   -0.10610273   -0.06066011
     atom   77 type  3   force =    -0.03076129    0.07730190    0.03336421
     atom   78 type  3   force =    -0.09876708   -0.02082080   -0.06911220
     atom   79 type  3   force =    -0.00395843   -0.04282856    0.03500725
     atom   80 type  3   force =    -0.03478130    0.03845492   -0.00313430
     atom   81 type  3   force =     0.03034520    0.01869531   -0.03949408
     atom   82 type  3   force =    -0.04206260    0.01722590   -0.05475270
     atom   83 type  3   force =    -0.05197111    0.09549979    0.02328226
     atom   84 type  3   force =    -0.02515773    0.03987528   -0.04135678
     atom   85 type  3   force =    -0.01160859   -0.09872881    0.07686413
     atom   86 type  3   force =    -0.02675712   -0.07886999   -0.10491718
     atom   87 type  3   force =     0.02203558   -0.00716234   -0.06787641
     atom   88 type  3   force =    -0.00063814    0.05376610   -0.11888382
     atom   89 type  3   force =    -0.04823333   -0.02077702    0.06503380
     atom   90 type  3   force =     0.05310304   -0.04821312   -0.04596479
     atom   91 type  3   force =     0.06649305    0.04067333   -0.01545914
     atom   92 type  3   force =    -0.00908113   -0.00576972   -0.02095152
     atom   93 type  3   force =    -0.08709522   -0.10492351   -0.00536054
     atom   94 type  3   force =     0.07174233    0.08983393    0.05016154
     atom   95 type  3   force =    -0.01101300   -0.01093954   -0.07003729
     atom   96 type  3   force =    -0.09372085   -0.01182795    0.15323917
     atom   97 type  3   force =    -0.02816596   -0.04656768   -0.00183979
     atom   98 type  3   force =     0.10413553    0.01106763    0.09542359
     atom   99 type  3   force =    -0.05545366   -0.00671674    0.03637164
     atom  100 type  3   force =     0.02262639   -0.07810669    0.07964633
     atom  101 type  3   force =    -0.06018759    0.02729858   -0.01097844
     atom  102 type  3   force =     0.03186772    0.01822965    0.03184949
     atom  103 type  3   force =     0.04714011    0.03134825    0.09723161
     atom  104 type  3   force =    -0.08290077   -0.07676403   -0.00491144
     atom  105 type  3   force =     0.02911452    0.05416949   -0.00678170
     atom  106 type  3   force =     0.03801130    0.11411946   -0.01564619
     atom  107 type  3   force =    -0.02677965   -0.00365936    0.02757896
     atom  108 type  3   force =     0.04692907   -0.00944367    0.04594034
     atom  109 type  3   force =     0.11031585    0.01800292   -0.03908813
     atom  110 type  3   force =     0.13936286    0.00799310   -0.06101143
     atom  111 type  3   force =    -0.02027056   -0.01791471    0.01748981
     atom  112 type  3   force =    -0.06726480    0.09529478   -0.01097947
     atom  113 type  3   force =     0.02124229   -0.01982022   -0.05641935
     atom  114 type  3   force =    -0.03891351    0.02182818    0.08106217
     atom  115 type  3   force =     0.01342905   -0.02836466    0.07640567
     atom  116 type  3   force =     0.08469392    0.00793083   -0.04841354
     atom  117 type  3   force =    -0.06870152    0.00341246    0.03764735
     atom  118 type  3   force =    -0.11868691    0.11197086    0.02561171
     atom  119 type  3   force =     0.07046545   -0.00677033    0.03237783
     atom  120 type  3   force =     0.00914936    0.02814062    0.10528519
     atom  121 type  3   force =     0.12978411    0.07609910    0.01597220
     atom  122 type  4   force =     0.04001926    0.01289559    0.02889597
     atom  123 type  4   force =    -0.06136797   -0.03936148   -0.00999605
     atom  124 type  4   force =     0.00374515    0.02419683   -0.04570471
     atom  125 type  4   force =     0.01814349   -0.00574244   -0.00423454
     atom  126 type  4   force =    -0.13128767   -0.14925081   -0.01132907
     atom  127 type  4   force =    -0.09948421   -0.12886513   -0.07368331
     atom  128 type  4   force =     0.01054278   -0.04946141    0.05968623
     atom  129 type  4   force =     0.00896082   -0.06172209   -0.01131735
     atom  130 type  4   force =     0.00878400   -0.02148965    0.00880708
     atom  131 type  4   force =     0.00669538   -0.01824048   -0.01321135
     atom  132 type  4   force =     0.04938882   -0.03838347   -0.01672240
     atom  133 type  4   force =    -0.03657625   -0.05921270    0.03631451
     atom  134 type  4   force =    -0.09351819    0.00760078   -0.04005015
     atom  135 type  4   force =     0.02243277   -0.02685954    0.12467193
     atom  136 type  4   force =     0.01751844   -0.01006113   -0.01805423
     atom  137 type  4   force =     0.05407059    0.04128218   -0.03400788
     atom  138 type  4   force =     0.01585363    0.00195285   -0.01524917
     atom  139 type  4   force =    -0.00680503    0.02798393   -0.02060176
     atom  140 type  4   force =     0.02153832   -0.06867636    0.02208297
     atom  141 type  4   force =     0.05837088   -0.01208957    0.00220725
     atom  142 type  4   force =    -0.10495886   -0.05313037    0.04677630
     atom  143 type  4   force =    -0.14990220   -0.03704014   -0.09746359
     atom  144 type  4   force =    -0.00565425   -0.01756277    0.03000330
     atom  145 type  4   force =    -0.03988001    0.03692359    0.01641979
     atom  146 type  4   force =    -0.02230311    0.01713520   -0.02241032
     atom  147 type  4   force =    -0.13172888   -0.04978505    0.03205274
     atom  148 type  4   force =     0.01363676   -0.02072174   -0.01290138
     atom  149 type  4   force =     0.06868894    0.03545919    0.01730906
     atom  150 type  4   force =    -0.06340036   -0.05299307   -0.01992293
     atom  151 type  4   force =     0.05085812    0.03683827    0.02473461
     atom  152 type  4   force =    -0.05801364    0.02452581    0.01503586
     atom  153 type  4   force =     0.07629090    0.01867358    0.07643430
     atom  154 type  4   force =    -0.09666534    0.00594348    0.00629093
     atom  155 type  4   force =    -0.01261666   -0.01421081   -0.00920993
     atom  156 type  4   force =    -0.05019005    0.04127767   -0.02241120
     atom  157 type  4   force =     0.04238219   -0.01161873   -0.00366603
     atom  158 type  4   force =     0.01354744    0.01222153   -0.02432485
     atom  159 type  4   force =     0.06693161    0.00739138   -0.05925049
     atom  160 type  4   force =     0.03970770   -0.08940996    0.01438851
     atom  161 type  4   force =     0.00297523   -0.02881171    0.07148319
     atom  162 type  4   force =     0.05275615    0.09448558    0.01593037
     atom  163 type  4   force =    -0.01517768    0.05852219   -0.01521804
     atom  164 type  4   force =     0.02448734    0.02901137    0.06696355
     atom  165 type  4   force =    -0.07491437    0.01123327    0.04976931
     atom  166 type  4   force =    -0.00164546   -0.10198953    0.00490080
     atom  167 type  4   force =    -0.03905383   -0.03990420   -0.01506271
     atom  168 type  4   force =     0.01700305   -0.18446604    0.05859383
     atom  169 type  4   force =     0.05253206    0.04501125   -0.09520840
     atom  170 type  4   force =     0.02792927   -0.04780909   -0.03577887
     atom  171 type  4   force =     0.01258104   -0.01691557    0.00345634
     atom  172 type  4   force =    -0.06997663    0.01242967   -0.04374075
     atom  173 type  4   force =    -0.03893883    0.00692917   -0.02533403
     atom  174 type  4   force =     0.05694679    0.08561387    0.01775615
     atom  175 type  4   force =     0.01312735    0.04184265    0.00305314
     atom  176 type  4   force =     0.03726790   -0.00578963    0.02341997
     atom  177 type  4   force =     0.06396313   -0.00436404   -0.00804950
     atom  178 type  4   force =    -0.00371253    0.03654130    0.04563691
     atom  179 type  4   force =    -0.01222090    0.02840683    0.00332079
     atom  180 type  4   force =    -0.05735724    0.00565065   -0.00721113
     atom  181 type  4   force =     0.00001402   -0.00047495    0.09604594
     atom  182 type  4   force =    -0.02444525   -0.06136146    0.05021236
     atom  183 type  4   force =    -0.03325352    0.10710230   -0.05876371
     atom  184 type  4   force =     0.01827761   -0.01124339    0.05179096
     atom  185 type  4   force =     0.04928909   -0.03489916   -0.01729867
     atom  186 type  4   force =    -0.01142285   -0.01725084    0.00177813
     atom  187 type  4   force =    -0.02777812   -0.01191508    0.05061167
     atom  188 type  4   force =    -0.02034214   -0.01784043   -0.04712429
     atom  189 type  4   force =    -0.01978458    0.03510227   -0.00052826
     atom  190 type  4   force =     0.05860648   -0.03609855    0.00665628
     atom  191 type  4   force =    -0.01874341   -0.00294520   -0.00544047
     atom  192 type  4   force =    -0.03512518    0.02413975   -0.03096011
     atom  193 type  4   force =     0.03614787   -0.06481283    0.02239433
     atom  194 type  4   force =    -0.04956992    0.00131058   -0.00630325
     atom  195 type  4   force =    -0.01076826   -0.00387723    0.01731344
     atom  196 type  4   force =     0.00237640   -0.02551513   -0.06103647
     atom  197 type  4   force =     0.00920245    0.01573093   -0.00003612
     atom  198 type  4   force =    -0.03841186    0.04139007   -0.01355947
     atom  199 type  4   force =     0.00810281   -0.02591528    0.00624682
     atom  200 type  4   force =    -0.00958537   -0.03601602    0.05785546
     atom  201 type  4   force =    -0.01076783   -0.04754888   -0.02851057
     atom  202 type  4   force =     0.01615249    0.01501827    0.04163805
     atom  203 type  4   force =    -0.05687428   -0.05915044   -0.10307206
     atom  204 type  4   force =    -0.00235840    0.01815843    0.06248020
     atom  205 type  4   force =     0.01019428    0.07386674   -0.01369195
     atom  206 type  4   force =    -0.04073098   -0.03151241   -0.04463619
     atom  207 type  4   force =    -0.00511127   -0.03037830    0.03587982
     atom  208 type  4   force =    -0.00080685    0.01181507   -0.01007226
     atom  209 type  4   force =    -0.04456955    0.03148956   -0.05059699
     atom  210 type  4   force =    -0.01132419    0.01308379   -0.05115472
     atom  211 type  4   force =    -0.00067418   -0.03498220   -0.05669359
     atom  212 type  4   force =     0.04278768   -0.03969636   -0.03301802
     atom  213 type  4   force =     0.04284790   -0.14884152   -0.08357773
     atom  214 type  4   force =     0.05177575    0.06493010   -0.05767529
     atom  215 type  4   force =    -0.02625265   -0.02997493    0.00518053
     atom  216 type  4   force =    -0.02214890    0.07578797    0.04095198
     atom  217 type  4   force =    -0.02420917    0.03768404   -0.04190138
     atom  218 type  4   force =     0.01490264    0.02517699   -0.00783685
     atom  219 type  4   force =    -0.04392125   -0.04023491   -0.00913363
     atom  220 type  4   force =     0.01259918   -0.04145660    0.02294438
     atom  221 type  4   force =    -0.00423663    0.03039338    0.06498367
     atom  222 type  4   force =     0.10407729   -0.01662827    0.00583163
     atom  223 type  4   force =     0.02170865    0.08579780   -0.05084133
     atom  224 type  4   force =     0.03969146    0.02489849   -0.01331095
     atom  225 type  4   force =     0.06111730    0.04950582   -0.00336617
     atom  226 type  4   force =     0.02010244   -0.02509960    0.02090532
     atom  227 type  4   force =    -0.02260801    0.05202103    0.04188626
     atom  228 type  4   force =     0.00320536   -0.01705119   -0.02719313
     atom  229 type  4   force =     0.01366454    0.00009194    0.05427333
     atom  230 type  4   force =     0.05294190    0.04899755   -0.00148574
     atom  231 type  4   force =     0.04268436   -0.02078002    0.07108712
     atom  232 type  4   force =     0.04279131   -0.06429624   -0.00872763
     atom  233 type  4   force =     0.03888313    0.05824273    0.02892591
     atom  234 type  4   force =    -0.03292311   -0.05969857   -0.11445087
     atom  235 type  4   force =    -0.01907257    0.15892355   -0.01441737
     atom  236 type  4   force =     0.08820806   -0.01632698   -0.04590485
     atom  237 type  4   force =     0.00633615    0.00681723    0.01221361
     atom  238 type  4   force =    -0.01092004   -0.01291257    0.04268007
     atom  239 type  4   force =     0.01923094   -0.03613667    0.00735581
     atom  240 type  4   force =     0.07763337    0.03085200    0.02824288
     atom  241 type  4   force =     0.03115769   -0.01969018   -0.00486053
     atom  242 type  4   force =    -0.20304483   -0.02953102    0.07900725
     atom  243 type  4   force =     0.02976777    0.00104353    0.02050909
     atom  244 type  4   force =    -0.05111116   -0.00167395   -0.04534164
     atom  245 type  4   force =    -0.01908136   -0.02921037   -0.09473623
     atom  246 type  4   force =     0.02442279   -0.00900466   -0.03119599
     atom  247 type  4   force =    -0.00637163   -0.01714059   -0.06717613
     atom  248 type  4   force =    -0.01631090    0.03039989    0.05930266
     atom  249 type  4   force =     0.03807814    0.02612647   -0.06220026
     atom  250 type  4   force =    -0.08196849   -0.01668409    0.00424757
     atom  251 type  4   force =    -0.00784765   -0.00393998   -0.01946055
     atom  252 type  4   force =    -0.07130425    0.01914769   -0.05264923
     atom  253 type  4   force =     0.00126957   -0.04524354   -0.11019557
     atom  254 type  4   force =    -0.09099661    0.01337986   -0.01471428
     atom  255 type  4   force =     0.01621228   -0.01881372    0.02043560
     atom  256 type  4   force =     0.03190221   -0.00794957    0.03516222
     atom  257 type  4   force =     0.02692034   -0.02499575    0.03381096
     atom  258 type  4   force =     0.00066638    0.01269150   -0.02907957
     atom  259 type  4   force =     0.04800122    0.01501930   -0.00890483
     atom  260 type  4   force =    -0.04567955   -0.01155505   -0.06084763
     atom  261 type  4   force =     0.04139998    0.02808658   -0.03965175
     atom  262 type  4   force =    -0.05683890   -0.01118525    0.04557218
     atom  263 type  4   force =     0.09715786   -0.02671668    0.01794010
     atom  264 type  4   force =    -0.04572004    0.04259190   -0.02248849
     atom  265 type  4   force =     0.02483482    0.01496547   -0.03959745
     atom  266 type  4   force =     0.02701996    0.02037192   -0.04798456
     atom  267 type  4   force =     0.07757473   -0.00409947   -0.04302818
     atom  268 type  4   force =     0.02717479   -0.04394773   -0.03137925
     atom  269 type  4   force =    -0.01662879   -0.06669143    0.00511998
     atom  270 type  4   force =    -0.07175249   -0.01323329   -0.02961712
     atom  271 type  4   force =     0.06988075    0.01189570    0.00896213
     atom  272 type  4   force =     0.02763844    0.05486100   -0.01273578
     atom  273 type  4   force =     0.00243567   -0.00627880    0.04776454
     atom  274 type  4   force =    -0.02434469    0.00264157    0.02712072
     atom  275 type  4   force =    -0.01185425   -0.02060596    0.01825088
     atom  276 type  4   force =     0.04364709    0.07919339    0.06972891
     atom  277 type  4   force =     0.02668850   -0.01175621   -0.07648861
     atom  278 type  4   force =    -0.02156352    0.06315086    0.04439538
     atom  279 type  4   force =    -0.01202399   -0.02157809    0.00407012
     atom  280 type  4   force =    -0.02693982    0.05675509    0.00972289
     atom  281 type  4   force =     0.04152876    0.03152968    0.04332735
     atom  282 type  4   force =     0.03671514   -0.05133737    0.01537868
     atom  283 type  4   force =     0.00390173   -0.06539829   -0.03196747
     atom  284 type  4   force =     0.07214167   -0.05393367   -0.03033910
     atom  285 type  4   force =     0.01853861   -0.01657590    0.01466671
     atom  286 type  4   force =    -0.11918582   -0.02982806   -0.06897939
     atom  287 type  4   force =    -0.01715135   -0.00250304    0.04466012
     atom  288 type  4   force =     0.06711205   -0.00375757   -0.05578014
     atom  289 type  4   force =     0.02108865    0.09151122   -0.02682373
     atom  290 type  4   force =     0.10185568   -0.05820782   -0.11026568
     atom  291 type  4   force =    -0.03003314    0.01412079   -0.01587966
     atom  292 type  4   force =    -0.01941711   -0.01125584    0.01436268
     atom  293 type  4   force =    -0.00672506   -0.02633152   -0.04968022
     atom  294 type  4   force =     0.08021304   -0.02997196    0.16826048
     atom  295 type  4   force =    -0.05384958    0.06400131    0.06800338
     atom  296 type  4   force =    -0.05997372    0.01918469    0.03741392
     atom  297 type  4   force =    -0.01774959    0.01405336   -0.02413227
     atom  298 type  4   force =     0.01310865    0.01324350    0.01794424
     atom  299 type  4   force =    -0.06739088   -0.14662822   -0.02487516
     atom  300 type  4   force =    -0.01170570   -0.05288497   -0.03404549
     atom  301 type  4   force =    -0.07377873    0.03970804    0.02585517
     atom  302 type  4   force =     0.00559721    0.12644834    0.11064626
     atom  303 type  4   force =    -0.01420784   -0.02291003   -0.03983752
     atom  304 type  4   force =    -0.03908775   -0.00132555    0.01078010
     atom  305 type  4   force =    -0.03634913   -0.01646082    0.00727424
     atom  306 type  4   force =     0.00810088    0.01578264   -0.05864242
     atom  307 type  4   force =     0.02344110    0.02017891    0.04239204
     atom  308 type  4   force =     0.00963534    0.00085113   -0.05123241
     atom  309 type  4   force =     0.00196406   -0.02058296    0.01398475
     atom  310 type  4   force =     0.09236750   -0.00427055    0.11083237
     atom  311 type  4   force =    -0.03269472   -0.01333036    0.01160770
     atom  312 type  4   force =    -0.02336139    0.02163289    0.01465008
     atom  313 type  4   force =     0.01377132   -0.08617231    0.01972744
     atom  314 type  4   force =    -0.04591333    0.01315357   -0.02396223
     atom  315 type  4   force =    -0.01722599   -0.00383645   -0.02783756
     atom  316 type  4   force =    -0.00557820   -0.00388523    0.01816449
     atom  317 type  4   force =    -0.00182871    0.06898794    0.03995100
     atom  318 type  4   force =     0.04022627    0.00258512   -0.01725411
     atom  319 type  4   force =    -0.02971506   -0.01473234   -0.06105900
     atom  320 type  4   force =     0.04239960   -0.01845203   -0.02656068
     atom  321 type  4   force =    -0.02596895    0.12830480    0.03754597
     atom  322 type  4   force =     0.02382507    0.01081342   -0.06530092
     atom  323 type  4   force =     0.03712934   -0.03601005    0.05018895
     atom  324 type  4   force =     0.05266315    0.00494842   -0.02303131
     atom  325 type  4   force =     0.03443086   -0.02324663   -0.02826884
     atom  326 type  4   force =    -0.00822740    0.11663493    0.05604959
     atom  327 type  4   force =     0.04750956    0.04960611   -0.03967284
     atom  328 type  4   force =     0.02085711    0.00080184   -0.02010301
     atom  329 type  4   force =     0.10558686    0.01069260    0.01856330
     atom  330 type  4   force =     0.02373002   -0.03665423   -0.05452240
     atom  331 type  4   force =     0.03237538    0.04218352   -0.00804801
     atom  332 type  4   force =     0.02197446    0.05070673   -0.01243828
     atom  333 type  4   force =    -0.05387539   -0.05597451    0.02747959
     atom  334 type  4   force =     0.02379516    0.04553626   -0.02789660
     atom  335 type  4   force =     0.06794123    0.02175156   -0.02188783
     atom  336 type  4   force =    -0.03935319   -0.03109234   -0.04381115
     atom  337 type  4   force =    -0.00463621   -0.00477943   -0.02317457
     atom  338 type  4   force =    -0.05727248    0.04319262   -0.01895267
     atom  339 type  5   force =    -0.02045593    0.02372785    0.03462878
     atom  340 type  5   force =     0.00644980   -0.02890962    0.02808646
     atom  341 type  6   force =     0.02198268    0.00255106   -0.00069327
     atom  342 type  6   force =    -0.02221082   -0.00204080    0.00047235
     atom  343 type  6   force =     0.00628370   -0.03199820   -0.00140776
     atom  344 type  6   force =     0.00342898   -0.03304171   -0.00187629
     atom  345 type  6   force =    -0.00290780    0.03282584    0.00196961
     atom  346 type  6   force =    -0.00554570    0.03159543    0.00257085
     atom  347 type  6   force =     0.01934781    0.01282598    0.00103676
     atom  348 type  6   force =    -0.02229929    0.00781207    0.00148016
     atom  349 type  6   force =     0.02244420   -0.00840390   -0.00118482
     atom  350 type  6   force =    -0.02052481   -0.01247823    0.00048090
     atom  351 type  7   force =     0.00259621    0.00544870   -0.00084591
     atom  352 type  7   force =    -0.00388536    0.00506122   -0.00028708
     atom  353 type  7   force =     0.00415838   -0.00527067   -0.00086372
     atom  354 type  7   force =    -0.00231446   -0.00532081   -0.00112337
     atom  355 type  7   force =     0.00349640   -0.00260893   -0.00122465
     atom  356 type  7   force =    -0.00238059   -0.00370391   -0.00092660
     atom  357 type  7   force =     0.00244911    0.00417205    0.00010913
     atom  358 type  7   force =    -0.00362405    0.00279518   -0.00054484

     Total force =     1.685480     Total SCF correction =     0.000187


     Computing stress (Cartesian axis) and pressure


     negative rho (up, down):  5.877E-02 0.000E+00
          total   stress  (Ry/bohr**3)                   (kbar)     P=        7.99
   0.00005243   0.00000148  -0.00000301            7.71        0.22       -0.44
   0.00000148   0.00006142   0.00000346            0.22        9.03        0.51
  -0.00000301   0.00000346   0.00004913           -0.44        0.51        7.23


     Writing all to output data dir ./outputs/pwscf.save/ :
     XML data file, charge density, pseudopotentials, collected wavefunctions
 
     init_run     :    145.31s CPU    149.14s WALL (       1 calls)
     electrons    :  84214.20s CPU  86039.55s WALL (       1 calls)
     forces       :     92.45s CPU     96.52s WALL (       1 calls)
     stress       :    351.11s CPU    356.74s WALL (       1 calls)

     Called by init_run:
     wfcinit      :    129.33s CPU    131.90s WALL (       1 calls)
     potinit      :      1.18s CPU      1.28s WALL (       1 calls)
     hinit0       :      1.45s CPU      1.50s WALL (       1 calls)

     Called by electrons:
     c_bands      :  70542.42s CPU  71751.57s WALL (     296 calls)
     sum_band     :  12271.42s CPU  12614.45s WALL (     296 calls)
     v_of_rho     :    137.34s CPU    143.17s WALL (     297 calls)
     newd         :   1000.46s CPU   1261.92s WALL (     297 calls)
     PAW_pot      :    168.43s CPU    169.46s WALL (     297 calls)
     mix_rho      :     75.71s CPU     79.00s WALL (     296 calls)

     Called by c_bands:
     init_us_2    :    650.54s CPU    659.48s WALL (     594 calls)
     cegterg      :  69663.08s CPU  70834.28s WALL (     296 calls)

     Called by *egterg:
     cdiaghg      :    986.38s CPU    994.35s WALL (     641 calls)
     h_psi        :  38553.00s CPU  39051.17s WALL (     642 calls)
     s_psi        :  11477.78s CPU  11587.15s WALL (     642 calls)
     g_psi        :    110.78s CPU    111.79s WALL (     345 calls)

     Called by h_psi:
     h_psi:calbec :  11481.43s CPU  11555.88s WALL (     642 calls)
     vloc_psi     :  15492.97s CPU  15654.58s WALL (     642 calls)
                                        0.00s GPU  (     642 calls)
     add_vuspsi   :  11503.41s CPU  11641.62s WALL (     642 calls)

     General routines
     calbec       :  17507.14s CPU  17617.08s WALL (     955 calls)
     fft          :    137.35s CPU    144.60s WALL (    3884 calls)
     ffts         :     11.92s CPU     12.58s WALL (     593 calls)
     fftw         :  14924.60s CPU  15054.67s WALL ( 1669772 calls)
     interpolate  :     16.89s CPU     17.73s WALL (     297 calls)
 
     Parallel routines
 
     PWSCF        :     23h33m CPU   1d 0h 5m WALL

 
   This run was terminated on:  11:29: 9   4Mar2026            

=------------------------------------------------------------------------------=
   JOB DONE.
=------------------------------------------------------------------------------=
