
     Program PWSCF v.7.5 starts on  6Mar2026 at 10:23:30 

     This program is part of the open-source Quantum ESPRESSO suite
     for quantum simulation of materials; please cite
         "P. Giannozzi et al., J. Phys.:Condens. Matter 21 395502 (2009);
         "P. Giannozzi et al., J. Phys.:Condens. Matter 29 465901 (2017);
         "P. Giannozzi et al., J. Chem. Phys. 152 154105 (2020);
          URL http://www.quantum-espresso.org", 
     in publications or presentations arising from this work. More details at
     http://www.quantum-espresso.org/quote

     Parallel version (MPI), running on    80 processors

     MPI processes distributed on     4 nodes
     82968 MiB available memory on the printing compute node when the environment starts
 
     Reading input from NaphthaleneOnGlassSite3Snapshot14.in
Warning: card &CELL ignored
Warning: card &FCP ignored
Warning: card &RISM ignored

     Current dimensions of program PWSCF are:
     Max number of different atomic species (ntypx) = 10
     Max number of k-points (npk) =  40000
     Max angular momentum in pseudopotentials (lmaxx) =  4
     file Na.paw.z_9.ld1.psl.v1.0.0-low.upf: wavefunction(s)  2P renormalized
     file O.pbe-n-kjpaw_psl.0.1.UPF: wavefunction(s)  2P renormalized
     file Al.pbe-n-kjpaw_psl.1.0.0.UPF: wavefunction(s)  3S 3P renormalized
     file C.pbe-n-kjpaw_psl.1.0.0.UPF: wavefunction(s)  2S 2P renormalized
 
     R & G space division:  proc/nbgrp/npool/nimage =      80
     Subspace diagonalization in iterative solution of the eigenvalue problem:
     one sub-group per band group will be used
     custom distributed-memory algorithm (size of sub-group:  8*  8 procs)

 
     Parallelization info
     --------------------
     sticks:   dense  smooth     PW     G-vecs:    dense   smooth      PW
     Min         450     400    100               199276   167008   20874
     Max         451     401    101               199303   167021   20885
     Sum       36073   32057   8021             15943719 13361281 1670237
 
     Using Slab Decomposition
 


     bravais-lattice index     =            0
     lattice parameter (alat)  =      35.4885  a.u.
     unit-cell volume          =  138228.4306 (a.u.)^3
     number of atoms/cell      =          358
     number of atomic types    =            7
     number of electrons       =      1872.00
     number of Kohn-Sham states=         1123
     kinetic-energy cutoff     =      80.0000  Ry
     charge density cutoff     =     360.0000  Ry
     scf convergence threshold =      1.0E-08
     mixing beta               =       0.1000
     number of iterations used =            8  plain     mixing
     Exchange-correlation= PBE
                           (   1   4   3   4   0   0   0)

     celldm(1)=  35.488539  celldm(2)=   0.000000  celldm(3)=   0.000000
     celldm(4)=   0.000000  celldm(5)=   0.000000  celldm(6)=   0.000000

     crystal axes: (cart. coord. in units of alat)
               a(1) = (   1.000000   0.000000   0.000000 )  
               a(2) = (   0.000000   1.000000   0.000000 )  
               a(3) = (   0.000000   0.000000   3.092666 )  

     reciprocal axes: (cart. coord. in units 2 pi/alat)
               b(1) = (  1.000000  0.000000  0.000000 )  
               b(2) = (  0.000000  1.000000  0.000000 )  
               b(3) = (  0.000000  0.000000  0.323346 )  


     PseudoPot. # 1 for Na read from file:
     /home/sabeel/VOCC_Simulation/pseudopotentials/SSSP_Precision/Na.paw.z_9.ld1.psl.v1.0.0-low.upf
     MD5 check sum: 32bccecb13d7399e6c7dae6fe6685ff0
     Pseudo is Projector augmented-wave + core cor, Zval =  9.0
     Generated using &quot;atomic&quot; code by A. Dal Corso  v.6.3MaX
     Shape of augmentation charge: PSQ
     Using radial grid of 1121 points,  4 beta functions with: 
                l(1) =   0
                l(2) =   0
                l(3) =   1
                l(4) =   1
     Q(r) pseudized with 0 coefficients 


     PseudoPot. # 2 for B  read from file:
     /home/sabeel/VOCC_Simulation/pseudopotentials/SSSP_Precision/B_pbe_v1.01.uspp.F.UPF
     MD5 check sum: d081ebb89d0c768e112975f650467a00
     Pseudo is Ultrasoft + core correction, Zval =  3.0
     Generated by new atomic code, or converted to UPF format
     Using radial grid of  781 points,  4 beta functions with: 
                l(1) =   0
                l(2) =   0
                l(3) =   1
                l(4) =   1
     Q(r) pseudized with  8 coefficients,  rinner =    1.100   1.100   1.100


     PseudoPot. # 3 for Si read from file:
     /home/sabeel/VOCC_Simulation/pseudopotentials/SSSP_Precision/Si.pbe-n-rrkjus_psl.1.0.0.UPF
     MD5 check sum: 0b0bb1205258b0d07b9f9672cf965d36
     Pseudo is Ultrasoft + core correction, Zval =  4.0
     Generated using "atomic" code by A. Dal Corso  v.5.1
     Using radial grid of 1141 points,  6 beta functions with: 
                l(1) =   0
                l(2) =   0
                l(3) =   1
                l(4) =   1
                l(5) =   2
                l(6) =   2
     Q(r) pseudized with 0 coefficients 


     PseudoPot. # 4 for O  read from file:
     /home/sabeel/VOCC_Simulation/pseudopotentials/SSSP_Precision/O.pbe-n-kjpaw_psl.0.1.UPF
     MD5 check sum: 0234752ac141de4415c5fc33072bef88
     Pseudo is Projector augmented-wave + core cor, Zval =  6.0
     Generated using "atomic" code by A. Dal Corso  v.5.0.99 svn rev. 10869
     Shape of augmentation charge: BESSEL
     Using radial grid of 1095 points,  4 beta functions with: 
                l(1) =   0
                l(2) =   0
                l(3) =   1
                l(4) =   1
     Q(r) pseudized with 0 coefficients 


     PseudoPot. # 5 for Al read from file:
     /home/sabeel/VOCC_Simulation/pseudopotentials/SSSP_Precision/Al.pbe-n-kjpaw_psl.1.0.0.UPF
     MD5 check sum: cfc449ca30b5f3223ec38ddd88ac046d
     Pseudo is Projector augmented-wave + core cor, Zval =  3.0
     Generated using "atomic" code by A. Dal Corso  v.5.1
     Shape of augmentation charge: PSQ
     Using radial grid of 1135 points,  6 beta functions with: 
                l(1) =   0
                l(2) =   0
                l(3) =   1
                l(4) =   1
                l(5) =   2
                l(6) =   2
     Q(r) pseudized with 0 coefficients 


     PseudoPot. # 6 for C  read from file:
     /home/sabeel/VOCC_Simulation/pseudopotentials/SSSP_Precision/C.pbe-n-kjpaw_psl.1.0.0.UPF
     MD5 check sum: 5d2aebdfa2cae82b50a7e79e9516da0f
     Pseudo is Projector augmented-wave + core cor, Zval =  4.0
     Generated using "atomic" code by A. Dal Corso  v.5.1
     Shape of augmentation charge: PSQ
     Using radial grid of 1073 points,  4 beta functions with: 
                l(1) =   0
                l(2) =   0
                l(3) =   1
                l(4) =   1
     Q(r) pseudized with 0 coefficients 


     PseudoPot. # 7 for H  read from file:
     /home/sabeel/VOCC_Simulation/pseudopotentials/SSSP_Precision/H_ONCV_PBE-1.0.oncvpsp.upf
     MD5 check sum: 1790becc920ee074925cf490c71280fe
     Pseudo is Norm-conserving, Zval =  1.0
     Generated using ONCVPSP code by D. R. Hamann
     Using radial grid of 1166 points,  2 beta functions with: 
                l(1) =   0
                l(2) =   0

     atomic species   valence    mass     pseudopotential
     Na                9.00    22.98977     Na( 1.00)
     B                 3.00    10.81000     B ( 1.00)
     Si                4.00    28.08500     Si( 1.00)
     O                 6.00    15.99900     O ( 1.00)
     Al                3.00    26.98154     Al( 1.00)
     C                 4.00    12.01100     C ( 1.00)
     H                 1.00     1.00800     H ( 1.00)

     No symmetry found



   Cartesian axes

     site n.     atom                  positions (alat units)
         1        Na     tau(   1) = (   0.2476327   0.1287261   1.4401902  )
         2        Na     tau(   2) = (   0.2347070   0.3964799   1.8357059  )
         3        Na     tau(   3) = (   0.2580766   0.4457236   1.6551511  )
         4        Na     tau(   4) = (   0.0484944   0.0277893   1.6277847  )
         5        Na     tau(   5) = (   0.2352313   0.0813062   1.2863150  )
         6        Na     tau(   6) = (   0.0747243   0.2371463   1.1982473  )
         7        Na     tau(   7) = (   0.1133306   0.7698962   1.8611434  )
         8        Na     tau(   8) = (   0.9037110   0.1954209   1.2700780  )
         9        Na     tau(   9) = (   0.5181841   0.1014052   1.4940734  )
        10        Na     tau(  10) = (   0.3803624   0.0140251   1.8302637  )
        11        Na     tau(  11) = (   0.3545179   0.4989222   1.3772145  )
        12        B      tau(  12) = (   0.9565860   0.6559989   1.4661680  )
        13        B      tau(  13) = (   0.3779039   0.3190213   1.8506233  )
        14        B      tau(  14) = (   0.6357433   0.7757670   1.3375748  )
        15        B      tau(  15) = (   0.9958362   0.0827877   1.8476266  )
        16        B      tau(  16) = (   0.6987179   0.5586979   1.3943070  )
        17        B      tau(  17) = (   0.0903279   0.5997535   1.2200041  )
        18        B      tau(  18) = (   0.9460845   0.5017876   1.4754679  )
        19        B      tau(  19) = (   0.0032347   0.0527127   1.2839437  )
        20        B      tau(  20) = (   0.1241012   0.5940167   1.6016841  )
        21        B      tau(  21) = (   0.4174729   0.9198072   1.5541475  )
        22        B      tau(  22) = (   0.4638227   0.9107282   1.2322731  )
        23        B      tau(  23) = (   0.5096053   0.7092947   1.5000083  )
        24        B      tau(  24) = (   0.4035376   0.9367665   1.6900270  )
        25        B      tau(  25) = (   0.7132674   0.8560217   1.2558196  )
        26        B      tau(  26) = (   0.2579773   0.4217781   1.2874388  )
        27        B      tau(  27) = (   0.1862793   0.2338812   1.3576537  )
        28        B      tau(  28) = (   0.2134919   0.3664862   1.5073156  )
        29        B      tau(  29) = (   0.3546252   0.0462610   1.5293894  )
        30        B      tau(  30) = (   0.8082206   0.9504483   1.6218439  )
        31        B      tau(  31) = (   0.4915043   0.5408159   1.2913026  )
        32        B      tau(  32) = (   0.2471486   0.9450605   1.4099193  )
        33        B      tau(  33) = (   0.7089246   0.1566090   1.6669558  )
        34        B      tau(  34) = (   0.4858908   0.1745693   1.3498737  )
        35        Si     tau(  35) = (   0.5740761   0.3686341   1.4981594  )
        36        Si     tau(  36) = (   0.9600416   0.6521543   1.2713743  )
        37        Si     tau(  37) = (   0.8029666   0.9237355   1.4090604  )
        38        Si     tau(  38) = (   0.6589027   0.0111466   1.4303706  )
        39        Si     tau(  39) = (   0.7148031   0.8518694   1.6658713  )
        40        Si     tau(  40) = (   0.4062844   0.4370669   1.7000479  )
        41        Si     tau(  41) = (   0.8652299   0.0194200   1.2866760  )
        42        Si     tau(  42) = (   0.8792462   0.4724358   1.3313926  )
        43        Si     tau(  43) = (   0.9761010   0.8191325   1.3004490  )
        44        Si     tau(  44) = (   0.0927580   0.6000365   1.4532062  )
        45        Si     tau(  45) = (   0.8492038   0.6801733   1.8429896  )
        46        Si     tau(  46) = (   0.7648638   0.9759642   1.8781504  )
        47        Si     tau(  47) = (   0.8282769   0.9005504   1.7531841  )
        48        Si     tau(  48) = (   0.2400871   0.2615564   1.6009290  )
        49        Si     tau(  49) = (   0.0782160   0.8578516   1.7113893  )
        50        Si     tau(  50) = (   0.1793983   0.5421597   1.3229395  )
        51        Si     tau(  51) = (   0.3045589   0.3154693   1.3856788  )
        52        Si     tau(  52) = (   0.1868342   0.9496617   1.8144358  )
        53        Si     tau(  53) = (   0.5597482   0.9942014   1.8563540  )
        54        Si     tau(  54) = (   0.3283405   0.8654915   1.7979255  )
        55        Si     tau(  55) = (   0.3944303   0.1342286   1.2558232  )
        56        Si     tau(  56) = (   0.5556116   0.4029995   1.7688172  )
        57        Si     tau(  57) = (   0.8886951   0.0519111   1.5515978  )
        58        Si     tau(  58) = (   0.9177874   0.8266438   1.8602018  )
        59        Si     tau(  59) = (   0.5141592   0.7513592   1.7304853  )
        60        Si     tau(  60) = (   0.6200680   0.7296116   1.5975635  )
        61        Si     tau(  61) = (   0.4531771   0.2653855   1.4551164  )
        62        Si     tau(  62) = (   0.9530092   0.1910999   1.6203079  )
        63        Si     tau(  63) = (   0.9806318   0.2594417   1.4695044  )
        64        Si     tau(  64) = (   0.1810221   0.5658568   1.7318917  )
        65        Si     tau(  65) = (   0.2276537   0.6624309   1.2309086  )
        66        Si     tau(  66) = (   0.7086066   0.3068958   1.4624957  )
        67        Si     tau(  67) = (   0.7573617   0.5008676   1.2102682  )
        68        Si     tau(  68) = (   0.0630774   0.5052222   1.8068999  )
        69        Si     tau(  69) = (   0.9531780   0.4208941   1.7332624  )
        70        Si     tau(  70) = (   0.8429520   0.6341042   1.3864806  )
        71        Si     tau(  71) = (   0.8255070   0.2513717   1.7092992  )
        72        Si     tau(  72) = (   0.4660404   0.3166643   1.5999861  )
        73        Si     tau(  73) = (   0.3218087   0.1696541   1.7095271  )
        74        Si     tau(  74) = (   0.6054871   0.0864265   1.2929813  )
        75        Si     tau(  75) = (   0.4402609   0.0821865   1.6559030  )
        76        Si     tau(  76) = (   0.3770531   0.0317907   1.3941734  )
        77        Si     tau(  77) = (   0.5059912   0.8072476   1.3243503  )
        78        Si     tau(  78) = (   0.6069382   0.5044701   1.6609957  )
        79        Si     tau(  79) = (   0.6370349   0.4244534   1.3741369  )
        80        Si     tau(  80) = (   0.6855674   0.7078304   1.8645318  )
        81        Si     tau(  81) = (   0.0765130   0.9298841   1.2314627  )
        82        Si     tau(  82) = (   0.9863684   0.4054382   1.2235204  )
        83        Si     tau(  83) = (   0.4950631   0.2585395   1.7548401  )
        84        Si     tau(  84) = (   0.5719431   0.1160579   1.7357262  )
        85        Si     tau(  85) = (   0.3566442   0.7389475   1.7027041  )
        86        Si     tau(  86) = (   0.5887626   0.6478135   1.7482870  )
        87        Si     tau(  87) = (   0.3778403   0.4701707   1.1981005  )
        88        Si     tau(  88) = (   0.7705746   0.7745811   1.3546535  )
        89        Si     tau(  89) = (   0.6353056   0.3899359   1.2194797  )
        90        Si     tau(  90) = (   0.3199297   0.6027545   1.8036004  )
        91        Si     tau(  91) = (   0.6901246   0.5787282   1.5496775  )
        92        Si     tau(  92) = (   0.1108815   0.9857043   1.4484254  )
        93        Si     tau(  93) = (   0.0087222   0.8101075   1.4596435  )
        94        Si     tau(  94) = (   0.4662737   0.5842118   1.4387730  )
        95        Si     tau(  95) = (   0.1497603   0.1150345   1.8191784  )
        96        Si     tau(  96) = (   0.9119816   0.9073773   1.5284091  )
        97        Si     tau(  97) = (   0.5081777   0.9347421   1.4393654  )
        98        Si     tau(  98) = (   0.9733658   0.9480751   1.7929925  )
        99        Si     tau(  99) = (   0.2449909   0.7736475   1.5958723  )
       100        Si     tau( 100) = (   0.2568298   0.7840856   1.3334763  )
       101        Si     tau( 101) = (   0.1600543   0.7576293   1.4557816  )
       102        Si     tau( 102) = (   0.9190690   0.2974838   1.8287833  )
       103        Si     tau( 103) = (   0.8499270   0.3745654   1.6104514  )
       104        Si     tau( 104) = (   0.8444491   0.5369054   1.7673517  )
       105        Si     tau( 105) = (   0.1203187   0.1732756   1.6597012  )
       106        Si     tau( 106) = (   0.6321686   0.6005607   1.2681838  )
       107        Si     tau( 107) = (   0.6235724   0.8470731   1.8048529  )
       108        Si     tau( 108) = (   0.7501132   0.1202716   1.2309056  )
       109        Si     tau( 109) = (   0.2746484   0.2046900   1.8670863  )
       110        Si     tau( 110) = (   0.2273259   0.0646953   1.6216725  )
       111        Si     tau( 111) = (   0.0729274   0.4042159   1.4579120  )
       112        Si     tau( 112) = (   0.6640697   0.1601480   1.5162335  )
       113        Si     tau( 113) = (   0.1226817   0.7031938   1.6887692  )
       114        Si     tau( 114) = (   0.8406300   0.5276586   1.5875131  )
       115        Si     tau( 115) = (   0.8389500   0.3149315   1.3901795  )
       116        Si     tau( 116) = (   0.1722727   0.9211130   1.5953570  )
       117        Si     tau( 117) = (   0.0763504   0.1375521   1.3930086  )
       118        Si     tau( 118) = (   0.3256209   0.9115638   1.2548481  )
       119        Si     tau( 119) = (   0.3955849   0.7224945   1.4035300  )
       120        Si     tau( 120) = (   0.4652418   0.5499611   1.5942954  )
       121        Si     tau( 121) = (   0.1212618   0.3651412   1.3045003  )
       122        O      tau( 122) = (   0.0295168   0.4481121   1.8630498  )
       123        O      tau( 123) = (   0.8632305   0.7660730   1.8351295  )
       124        O      tau( 124) = (   0.7865379   0.5198677   1.8292109  )
       125        O      tau( 125) = (   0.7687039   0.8065522   1.2712216  )
       126        O      tau( 126) = (   0.2613316   0.2462125   1.3627201  )
       127        O      tau( 127) = (   0.4383841   0.2721051   1.5384261  )
       128        O      tau( 128) = (   0.4075804   0.9041606   1.6244717  )
       129        O      tau( 129) = (   0.2891632   0.9821156   1.2266374  )
       130        O      tau( 130) = (   0.3003666   0.1796727   1.7902854  )
       131        O      tau( 131) = (   0.5973279   0.4225163   1.2949590  )
       132        O      tau( 132) = (   0.5334428   0.5020140   1.6146071  )
       133        O      tau( 133) = (   0.2755656   0.1058719   1.6786020  )
       134        O      tau( 134) = (   0.1545595   0.1075181   1.6150265  )
       135        O      tau( 135) = (   0.1198242   0.5723265   1.5291309  )
       136        O      tau( 136) = (   0.5826608   0.7211316   1.6806210  )
       137        O      tau( 137) = (   0.4384820   0.7620469   1.6969890  )
       138        O      tau( 138) = (   0.3813441   0.2977472   1.4178316  )
       139        O      tau( 139) = (   0.9518571   0.2429557   1.5505285  )
       140        O      tau( 140) = (   0.6668767   0.5177678   1.6031137  )
       141        O      tau( 141) = (   0.1520770   0.1695411   1.3620472  )
       142        O      tau( 142) = (   0.6925009   0.7509516   1.3753791  )
       143        O      tau( 143) = (   0.1434568   0.6580895   1.2139172  )
       144        O      tau( 144) = (   0.4761486   0.9028411   1.5138988  )
       145        O      tau( 145) = (   0.0631356   0.5782061   1.8492954  )
       146        O      tau( 146) = (   0.5876332   0.4146284   1.8503125  )
       147        O      tau( 147) = (   0.1071621   0.8902567   1.6361869  )
       148        O      tau( 148) = (   0.0331486   0.1967754   1.4407710  )
       149        O      tau( 149) = (   0.9443941   0.9810288   1.5588672  )
       150        O      tau( 150) = (   0.5485694   0.5774714   1.2625723  )
       151        O      tau( 151) = (   0.6090489   0.9225244   1.8421140  )
       152        O      tau( 152) = (   0.3184350   0.7927686   1.7545505  )
       153        O      tau( 153) = (   0.2965868   0.2359092   1.6579206  )
       154        O      tau( 154) = (   0.3399948   0.4149078   1.7451441  )
       155        O      tau( 155) = (   0.6583099   0.3076783   1.2358723  )
       156        O      tau( 156) = (   0.5620926   0.7442927   1.5385442  )
       157        O      tau( 157) = (   0.5556976   0.3175372   1.7688381  )
       158        O      tau( 158) = (   0.3525972   0.6632019   1.7471104  )
       159        O      tau( 159) = (   0.9620412   0.3446718   1.7697440  )
       160        O      tau( 160) = (   0.5313272   0.1848172   1.7709556  )
       161        O      tau( 161) = (   0.9429693   0.0183272   1.3239474  )
       162        O      tau( 162) = (   0.4858005   0.9533180   1.8755890  )
       163        O      tau( 163) = (   0.3657073   0.5328581   1.8345358  )
       164        O      tau( 164) = (   0.4406081   0.5066782   1.2484323  )
       165        O      tau( 165) = (   0.3135028   0.2834622   1.8690668  )
       166        O      tau( 166) = (   0.7907911   0.8360261   1.7119523  )
       167        O      tau( 167) = (   0.7289290   0.9234833   1.2340123  )
       168        O      tau( 168) = (   0.1454692   0.2885690   1.3267456  )
       169        O      tau( 169) = (   0.3914991   0.9066251   1.7575926  )
       170        O      tau( 170) = (   0.7079875   0.2222935   1.4707635  )
       171        O      tau( 171) = (   0.9743698   0.8515159   1.5269402  )
       172        O      tau( 172) = (   0.1330105   0.5361140   1.2470617  )
       173        O      tau( 173) = (   0.5827735   0.0420994   1.2254729  )
       174        O      tau( 174) = (   0.8602910   0.6220068   1.7811976  )
       175        O      tau( 175) = (   0.5252483   0.6418342   1.4684534  )
       176        O      tau( 176) = (   0.6556139   0.6691234   1.7930720  )
       177        O      tau( 177) = (   0.9478947   0.4555202   1.2814895  )
       178        O      tau( 178) = (   0.9699578   0.0766966   1.2188133  )
       179        O      tau( 179) = (   0.5480526   0.8088247   1.7836236  )
       180        O      tau( 180) = (   0.3152477   0.7447790   1.3880620  )
       181        O      tau( 181) = (   0.1477991   0.6460434   1.7450578  )
       182        O      tau( 182) = (   0.4226375   0.0083615   1.6949577  )
       183        O      tau( 183) = (   0.5004654   0.8461638   1.2447985  )
       184        O      tau( 184) = (   0.7864920   0.8423242   1.4036977  )
       185        O      tau( 185) = (   0.9046070   0.6136339   1.3286598  )
       186        O      tau( 186) = (   0.1308852   0.5564651   1.3912596  )
       187        O      tau( 187) = (   0.0181193   0.9388870   1.8632981  )
       188        O      tau( 188) = (   0.5236768   0.3172741   1.4469420  )
       189        O      tau( 189) = (   0.6771903   0.1363695   1.2729556  )
       190        O      tau( 190) = (   0.5668565   0.7520726   1.3411952  )
       191        O      tau( 191) = (   0.4390184   0.1054952   1.8920128  )
       192        O      tau( 192) = (   0.2801127   0.0556319   1.5537880  )
       193        O      tau( 193) = (   0.9517833   0.2240015   1.8530263  )
       194        O      tau( 194) = (   0.4078786   0.5134087   1.6517908  )
       195        O      tau( 195) = (   0.6735166   0.7941076   1.8547702  )
       196        O      tau( 196) = (   0.7896414   0.2674110   1.3392843  )
       197        O      tau( 197) = (   0.9136500   0.5214282   1.5392122  )
       198        O      tau( 198) = (   0.5881526   0.4350093   1.4460280  )
       199        O      tau( 199) = (   0.7745755   0.5842257   1.3844862  )
       200        O      tau( 200) = (   0.2034896   0.9862494   1.6415920  )
       201        O      tau( 201) = (   0.1233221   0.6813655   1.4530684  )
       202        O      tau( 202) = (   0.7937827   0.3272627   1.4639956  )
       203        O      tau( 203) = (   0.4473563   0.5396589   1.5104804  )
       204        O      tau( 204) = (   0.6542799   0.3403998   1.5182787  )
       205        O      tau( 205) = (   0.8234572   0.7113307   1.3622509  )
       206        O      tau( 206) = (   0.8127487   0.4431771   1.5824090  )
       207        O      tau( 207) = (   0.5134106   0.6764784   1.7758121  )
       208        O      tau( 208) = (   0.1836556   0.7783442   1.3761575  )
       209        O      tau( 209) = (   0.8104766   0.3105590   1.6473803  )
       210        O      tau( 210) = (   0.3044033   0.9850075   1.3843284  )
       211        O      tau( 211) = (   0.1301504   0.8965179   1.7717389  )
       212        O      tau( 212) = (   0.3197141   0.1653364   1.2298596  )
       213        O      tau( 213) = (   0.4699233   0.1934200   1.4196372  )
       214        O      tau( 214) = (   0.2809558   0.8612246   1.3097159  )
       215        O      tau( 215) = (   0.4264163   0.2824703   1.8051299  )
       216        O      tau( 216) = (   0.6599679   0.6539216   1.5790006  )
       217        O      tau( 217) = (   0.7349642   0.9291111   1.6364595  )
       218        O      tau( 218) = (   0.0099961   0.4612132   1.4800917  )
       219        O      tau( 219) = (   0.5892025   0.1978638   1.5290320  )
       220        O      tau( 220) = (   0.0485841   0.8646896   1.2765110  )
       221        O      tau( 221) = (   0.9732948   0.8322736   1.3845405  )
       222        O      tau( 222) = (   0.4005127   0.1467648   1.7001924  )
       223        O      tau( 223) = (   0.8561165   0.3880932   1.3551362  )
       224        O      tau( 224) = (   0.1908703   0.7320545   1.6493092  )
       225        O      tau( 225) = (   0.5316561   0.3624401   1.5720686  )
       226        O      tau( 226) = (   0.6407674   0.0341441   1.3503554  )
       227        O      tau( 227) = (   0.2507360   0.3493753   1.4464087  )
       228        O      tau( 228) = (   0.5138994   0.8709061   1.3834646  )
       229        O      tau( 229) = (   0.9079300   0.5013233   1.4088368  )
       230        O      tau( 230) = (   0.4395504   0.1937154   1.2966161  )
       231        O      tau( 231) = (   0.2308999   0.6103161   1.2990312  )
       232        O      tau( 232) = (   0.3685013   0.9700313   1.5258447  )
       233        O      tau( 233) = (   0.8514985   0.9494698   1.6877232  )
       234        O      tau( 234) = (   0.0187499   0.4824011   1.7364241  )
       235        O      tau( 235) = (   0.2414021   0.3421124   1.5740169  )
       236        O      tau( 236) = (   0.6097970   0.4413714   1.7163163  )
       237        O      tau( 237) = (   0.4788214   0.4352721   1.7472383  )
       238        O      tau( 238) = (   0.1395403   0.9630524   1.5257738  )
       239        O      tau( 239) = (   0.3787358   0.0784353   1.3203646  )
       240        O      tau( 240) = (   0.5839692   0.9685892   1.4551464  )
       241        O      tau( 241) = (   0.9110607   0.6557788   1.2003494  )
       242        O      tau( 242) = (   0.0686474   0.1043740   1.8437037  )
       243        O      tau( 243) = (   0.1460976   0.3999842   1.5060950  )
       244        O      tau( 244) = (   0.4166165   0.3782170   1.6358330  )
       245        O      tau( 245) = (   0.0075933   0.9084354   1.7265037  )
       246        O      tau( 246) = (   0.8482460   0.9888286   1.2074661  )
       247        O      tau( 247) = (   0.6787187   0.3475581   1.3906861  )
       248        O      tau( 248) = (   0.2793975   0.6318760   1.8700688  )
       249        O      tau( 249) = (   0.1753735   0.9662414   1.3957977  )
       250        O      tau( 250) = (   0.0079684   0.6039592   1.4520956  )
       251        O      tau( 251) = (   0.6799702   0.7916690   1.6137563  )
       252        O      tau( 252) = (   0.8228944   0.4963375   1.2716413  )
       253        O      tau( 253) = (   0.1652982   0.5553089   1.6491463  )
       254        O      tau( 254) = (   0.6527640   0.8346788   1.2935381  )
       255        O      tau( 255) = (   0.0358116   0.1810737   1.6422342  )
       256        O      tau( 256) = (   0.5638762   0.0484964   1.7892635  )
       257        O      tau( 257) = (   0.7314789   0.9670683   1.4359075  )
       258        O      tau( 258) = (   0.2559548   0.8899428   1.4535926  )
       259        O      tau( 259) = (   0.7774448   0.5773609   1.5598674  )
       260        O      tau( 260) = (   0.0868638   0.6515873   1.6288983  )
       261        O      tau( 261) = (   0.2614827   0.9212168   1.7891965  )
       262        O      tau( 262) = (   0.1954831   0.1735609   1.8664394  )
       263        O      tau( 263) = (   0.9906684   0.7948073   1.8435173  )
       264        O      tau( 264) = (   0.4575167   0.9955248   1.4051103  )
       265        O      tau( 265) = (   0.7735858   0.2011661   1.2118609  )
       266        O      tau( 266) = (   0.8814090   0.9281431   1.4499689  )
       267        O      tau( 267) = (   0.4072071   0.9256292   1.2771435  )
       268        O      tau( 268) = (   0.8399764   0.8937974   1.5751596  )
       269        O      tau( 269) = (   0.9802476   0.7272430   1.4739436  )
       270        O      tau( 270) = (   0.4029974   0.6353892   1.4077172  )
       271        O      tau( 271) = (   0.5236271   0.0940762   1.6637713  )
       272        O      tau( 272) = (   0.2291142   0.8566340   1.6031926  )
       273        O      tau( 273) = (   0.1369597   0.1529802   1.7410824  )
       274        O      tau( 274) = (   0.8956842   0.4684356   1.7728116  )
       275        O      tau( 275) = (   0.0304714   0.3296381   1.4668483  )
       276        O      tau( 276) = (   0.9261533   0.1126670   1.5937994  )
       277        O      tau( 277) = (   0.3196110   0.7473434   1.6269653  )
       278        O      tau( 278) = (   0.2346612   0.4755155   1.3381933  )
       279        O      tau( 279) = (   0.0309321   0.9618656   1.4299785  )
       280        O      tau( 280) = (   0.1026240   0.4047238   1.3770124  )
       281        O      tau( 281) = (   0.0996948   0.0720356   1.4419196  )
       282        O      tau( 282) = (   0.9796419   0.7336502   1.2951357  )
       283        O      tau( 283) = (   0.4798587   0.2721799   1.6719849  )
       284        O      tau( 284) = (   0.1447462   0.5042309   1.7791641  )
       285        O      tau( 285) = (   0.6584207   0.0850578   1.4744274  )
       286        O      tau( 286) = (   0.8447302   0.2856675   1.7867899  )
       287        O      tau( 287) = (   0.9236456   0.3532967   1.8933803  )
       288        O      tau( 288) = (   0.7131244   0.4260542   1.2089447  )
       289        O      tau( 289) = (   0.1815374   0.0351118   1.8104616  )
       290        O      tau( 290) = (   0.0329975   0.6097415   1.2681351  )
       291        O      tau( 291) = (   0.8998275   0.8951096   1.8045433  )
       292        O      tau( 292) = (   0.3016404   0.4593341   1.2337882  )
       293        O      tau( 293) = (   0.2631331   0.5633327   1.7490475  )
       294        O      tau( 294) = (   0.7023044   0.1539457   1.5910141  )
       295        O      tau( 295) = (   0.5450848   0.1349270   1.3303906  )
       296        O      tau( 296) = (   0.1632620   0.2443342   1.6379519  )
       297        O      tau( 297) = (   0.1916640   0.3894955   1.2601897  )
       298        O      tau( 298) = (   0.0615898   0.0043928   1.2718305  )
       299        O      tau( 299) = (   0.3967139   0.3875856   1.8762703  )
       300        O      tau( 300) = (   0.4846187   0.5410669   1.3666698  )
       301        O      tau( 301) = (   0.8186424   0.0168112   1.5820830  )
       302        O      tau( 302) = (   0.5974300   0.5762403   1.7036424  )
       303        O      tau( 303) = (   0.4323575   0.7667648   1.3386386  )
       304        O      tau( 304) = (   0.7719883   0.9374236   1.8028857  )
       305        O      tau( 305) = (   0.7672182   0.1900179   1.6976508  )
       306        O      tau( 306) = (   0.8994379   0.0650389   1.4672678  )
       307        O      tau( 307) = (   0.4462121   0.7426137   1.4731770  )
       308        O      tau( 308) = (   0.9211726   0.3961581   1.6533343  )
       309        O      tau( 309) = (   0.2420202   0.2200105   1.5251544  )
       310        O      tau( 310) = (   0.8842963   0.6436934   1.4589679  )
       311        O      tau( 311) = (   0.6482991   0.6785877   1.2330670  )
       312        O      tau( 312) = (   0.4832983   0.6325017   1.6039613  )
       313        O      tau( 313) = (   0.7361349   0.0571749   1.8732737  )
       314        O      tau( 314) = (   0.6649925   0.8590630   1.7336776  )
       315        O      tau( 315) = (   0.9130296   0.2721061   1.4159943  )
       316        O      tau( 316) = (   0.6511009   0.5989696   1.3506902  )
       317        O      tau( 317) = (   0.8131240   0.0898692   1.2825970  )
       318        O      tau( 318) = (   0.6524595   0.1336951   1.7108949  )
       319        O      tau( 319) = (   0.6784211   0.5695802   1.4690337  )
       320        O      tau( 320) = (   0.9018920   0.2183548   1.6834522  )
       321        O      tau( 321) = (   0.9678130   0.0358255   1.7940055  )
       322        O      tau( 322) = (   0.8368182   0.5391156   1.6776043  )
       323        O      tau( 323) = (   0.7668768   0.6856661   1.8697035  )
       324        O      tau( 324) = (   0.1531671   0.9301796   1.8945654  )
       325        O      tau( 325) = (   0.2178402   0.7542098   1.5177838  )
       326        O      tau( 326) = (   0.3614324   0.0782581   1.4600024  )
       327        O      tau( 327) = (   0.4053368   0.0766386   1.5793453  )
       328        O      tau( 328) = (   0.3320739   0.8564650   1.8828345  )
       329        O      tau( 329) = (   0.0914304   0.8126101   1.4681485  )
       330        O      tau( 330) = (   0.2416337   0.7445048   1.2588964  )
       331        O      tau( 331) = (   0.8232583   0.9617889   1.3373563  )
       332        O      tau( 332) = (   0.0224173   0.1103921   1.3331986  )
       333        O      tau( 333) = (   0.0827261   0.7743688   1.7158336  )
       334        O      tau( 334) = (   0.3058372   0.3697607   1.3216954  )
       335        O      tau( 335) = (   0.6940744   0.4843818   1.3763524  )
       336        O      tau( 336) = (   0.0505520   0.3569640   1.2588409  )
       337        O      tau( 337) = (   0.6956442   0.5556100   1.2255199  )
       338        O      tau( 338) = (   0.9205918   0.8444316   1.2442634  )
       339        Al     tau( 339) = (   0.9474166   0.9984982   1.4171699  )
       340        Al     tau( 340) = (   0.7317137   0.2651324   1.2660316  )
       341        C      tau( 341) = (   0.5691377   0.4617851   2.3261996  )
       342        C      tau( 342) = (   0.4944784   0.4516561   2.3276834  )
       343        C      tau( 343) = (   0.6140474   0.4021687   2.3215733  )
       344        C      tau( 344) = (   0.4669239   0.3822075   2.3245131  )
       345        C      tau( 345) = (   0.5966869   0.5312330   2.3293701  )
       346        C      tau( 346) = (   0.4495738   0.5112736   2.3323043  )
       347        C      tau( 347) = (   0.5857528   0.3335483   2.3184598  )
       348        C      tau( 348) = (   0.5123336   0.3235869   2.3199295  )
       349        C      tau( 349) = (   0.5512823   0.5898546   2.3339483  )
       350        C      tau( 350) = (   0.4778681   0.5798945   2.3354073  )
       351        H      tau( 351) = (   0.6715984   0.4086951   2.3203475  )
       352        H      tau( 352) = (   0.4097061   0.3731626   2.3255817  )
       353        H      tau( 353) = (   0.6539041   0.5402829   2.3283071  )
       354        H      tau( 354) = (   0.3920120   0.5047463   2.3335198  )
       355        H      tau( 355) = (   0.6210717   0.2878911   2.3148952  )
       356        H      tau( 356) = (   0.4903398   0.2701488   2.3175025  )
       357        H      tau( 357) = (   0.5732767   0.6432877   2.3363697  )
       358        H      tau( 358) = (   0.4425484   0.6255570   2.3389721  )

     number of k points=     1  Gaussian smearing, width (Ry)=  0.0100
                       cart. coord. in units 2pi/alat
        k(    1) = (   0.0000000   0.0000000   0.0000000), wk =   2.0000000

     Dense  grid: 15943719 G-vectors     FFT dimensions: ( 216, 216, 675)

     Smooth grid: 13361281 G-vectors     FFT dimensions: ( 216, 216, 625)

     Estimated max dynamical RAM per process >       4.14 GB

     Estimated total dynamical RAM >     331.13 GB

     Check: negative core charge=   -0.000001

     Initial potential from superposition of free atoms

     starting charge    1871.8703, renormalised to    1872.0000

     negative rho (up, down):  4.076E-02 0.000E+00
     Starting wfcs are 1419 randomized atomic wfcs
     Checking if some PAW data can be deallocated... 

     total cpu time spent up to now is      151.1 secs

     per-process dynamical memory:  1754.0 Mb

     Self-consistent Calculation

     iteration #  1     ecut=    80.00 Ry     beta= 0.10
     Davidson diagonalization with overlap
     ethr =  1.00E-02,  avg # of iterations =  3.0

     negative rho (up, down):  4.278E-02 0.000E+00

     total cpu time spent up to now is      646.5 secs

     total energy              =  -11693.36807193 Ry
     estimated scf accuracy    <     115.61775453 Ry

     iteration #  2     ecut=    80.00 Ry     beta= 0.10
     Davidson diagonalization with overlap
     ethr =  6.18E-03,  avg # of iterations =  1.0

     negative rho (up, down):  4.448E-02 0.000E+00

     total cpu time spent up to now is      936.7 secs

     total energy              =  -11688.11276972 Ry
     estimated scf accuracy    <      84.95740764 Ry

     iteration #  3     ecut=    80.00 Ry     beta= 0.10
     Davidson diagonalization with overlap
     ethr =  4.54E-03,  avg # of iterations =  1.0

     negative rho (up, down):  4.631E-02 0.000E+00

     total cpu time spent up to now is     1225.6 secs

     total energy              =  -11681.49748681 Ry
     estimated scf accuracy    <      59.16314742 Ry

     iteration #  4     ecut=    80.00 Ry     beta= 0.10
     Davidson diagonalization with overlap
     ethr =  3.16E-03,  avg # of iterations =  2.0

     negative rho (up, down):  4.740E-02 0.000E+00

     total cpu time spent up to now is     1549.2 secs

     total energy              =  -11682.81698983 Ry
     estimated scf accuracy    <      60.42294903 Ry

     iteration #  5     ecut=    80.00 Ry     beta= 0.10
     Davidson diagonalization with overlap
     ethr =  3.16E-03,  avg # of iterations =  1.0

     negative rho (up, down):  4.850E-02 0.000E+00

     total cpu time spent up to now is     1838.4 secs

     total energy              =  -11682.24040938 Ry
     estimated scf accuracy    <      38.90441356 Ry

     iteration #  6     ecut=    80.00 Ry     beta= 0.10
     Davidson diagonalization with overlap
     ethr =  2.08E-03,  avg # of iterations =  2.0

     negative rho (up, down):  4.939E-02 0.000E+00

     total cpu time spent up to now is     2163.3 secs

     total energy              =  -11682.36286855 Ry
     estimated scf accuracy    <      23.86004592 Ry

     iteration #  7     ecut=    80.00 Ry     beta= 0.10
     Davidson diagonalization with overlap
     ethr =  1.27E-03,  avg # of iterations =  3.0

     negative rho (up, down):  5.017E-02 0.000E+00

     total cpu time spent up to now is     2490.6 secs

     total energy              =  -11682.23633786 Ry
     estimated scf accuracy    <      39.52040166 Ry

     iteration #  8     ecut=    80.00 Ry     beta= 0.10
     Davidson diagonalization with overlap
     ethr =  1.27E-03,  avg # of iterations =  2.0

     negative rho (up, down):  5.078E-02 0.000E+00

     total cpu time spent up to now is     2815.9 secs

     total energy              =  -11682.27328351 Ry
     estimated scf accuracy    <      16.58407907 Ry

     iteration #  9     ecut=    80.00 Ry     beta= 0.10
     Davidson diagonalization with overlap
     ethr =  8.86E-04,  avg # of iterations =  2.0

     negative rho (up, down):  5.131E-02 0.000E+00

     total cpu time spent up to now is     3141.3 secs

     total energy              =  -11682.24952698 Ry
     estimated scf accuracy    <      12.44916961 Ry

     iteration # 10     ecut=    80.00 Ry     beta= 0.10
     Davidson diagonalization with overlap
     ethr =  6.65E-04,  avg # of iterations =  4.0

     negative rho (up, down):  5.188E-02 0.000E+00

     total cpu time spent up to now is     3470.2 secs

     total energy              =  -11682.10344026 Ry
     estimated scf accuracy    <       9.50401676 Ry

     iteration # 11     ecut=    80.00 Ry     beta= 0.10
     Davidson diagonalization with overlap
     ethr =  5.08E-04,  avg # of iterations =  5.0

     negative rho (up, down):  5.222E-02 0.000E+00

     total cpu time spent up to now is     3805.0 secs

     total energy              =  -11682.11896606 Ry
     estimated scf accuracy    <      16.07552011 Ry

     iteration # 12     ecut=    80.00 Ry     beta= 0.10
     Davidson diagonalization with overlap
     ethr =  5.08E-04,  avg # of iterations =  2.0

     negative rho (up, down):  5.251E-02 0.000E+00

     total cpu time spent up to now is     4132.5 secs

     total energy              =  -11682.27435439 Ry
     estimated scf accuracy    <       4.97924113 Ry

     iteration # 13     ecut=    80.00 Ry     beta= 0.10
     Davidson diagonalization with overlap
     ethr =  2.66E-04,  avg # of iterations = 18.0

     negative rho (up, down):  5.302E-02 0.000E+00

     total cpu time spent up to now is     4591.0 secs

     total energy              =  -11682.15084243 Ry
     estimated scf accuracy    <       5.22992960 Ry

     iteration # 14     ecut=    80.00 Ry     beta= 0.10
     Davidson diagonalization with overlap
     ethr =  2.66E-04,  avg # of iterations =  1.0

     negative rho (up, down):  5.342E-02 0.000E+00

     total cpu time spent up to now is     4881.9 secs

     total energy              =  -11682.17672019 Ry
     estimated scf accuracy    <       4.99390529 Ry

     iteration # 15     ecut=    80.00 Ry     beta= 0.10
     Davidson diagonalization with overlap
     ethr =  2.66E-04,  avg # of iterations =  1.0

     negative rho (up, down):  5.364E-02 0.000E+00

     total cpu time spent up to now is     5172.5 secs

     total energy              =  -11682.07365510 Ry
     estimated scf accuracy    <       4.37855929 Ry

     iteration # 16     ecut=    80.00 Ry     beta= 0.10
     Davidson diagonalization with overlap
     ethr =  2.34E-04,  avg # of iterations =  1.0

     negative rho (up, down):  5.400E-02 0.000E+00

     total cpu time spent up to now is     5462.0 secs

     total energy              =  -11682.09952367 Ry
     estimated scf accuracy    <       5.44280116 Ry

     iteration # 17     ecut=    80.00 Ry     beta= 0.10
     Davidson diagonalization with overlap
     ethr =  2.34E-04,  avg # of iterations =  1.0

     negative rho (up, down):  5.442E-02 0.000E+00

     total cpu time spent up to now is     5751.2 secs

     total energy              =  -11682.03250767 Ry
     estimated scf accuracy    <      12.88011805 Ry

     iteration # 18     ecut=    80.00 Ry     beta= 0.10
     Davidson diagonalization with overlap
     ethr =  2.34E-04,  avg # of iterations =  1.0

     negative rho (up, down):  5.466E-02 0.000E+00

     total cpu time spent up to now is     6040.5 secs

     total energy              =  -11682.08611433 Ry
     estimated scf accuracy    <       4.07966171 Ry

     iteration # 19     ecut=    80.00 Ry     beta= 0.10
     Davidson diagonalization with overlap
     ethr =  2.18E-04,  avg # of iterations =  1.0

     negative rho (up, down):  5.472E-02 0.000E+00

     total cpu time spent up to now is     6329.7 secs

     total energy              =  -11682.09673796 Ry
     estimated scf accuracy    <       1.87080850 Ry

     iteration # 20     ecut=    80.00 Ry     beta= 0.10
     Davidson diagonalization with overlap
     ethr =  9.99E-05,  avg # of iterations =  1.0

     negative rho (up, down):  5.525E-02 0.000E+00

     total cpu time spent up to now is     6619.7 secs

     total energy              =  -11682.02480996 Ry
     estimated scf accuracy    <      12.06284085 Ry

     iteration # 21     ecut=    80.00 Ry     beta= 0.10
     Davidson diagonalization with overlap
     ethr =  9.99E-05,  avg # of iterations =  1.0

     negative rho (up, down):  5.554E-02 0.000E+00

     total cpu time spent up to now is     6909.2 secs

     total energy              =  -11682.06036954 Ry
     estimated scf accuracy    <       4.60426664 Ry

     iteration # 22     ecut=    80.00 Ry     beta= 0.10
     Davidson diagonalization with overlap
     ethr =  9.99E-05,  avg # of iterations =  1.0

     negative rho (up, down):  5.537E-02 0.000E+00

     total cpu time spent up to now is     7198.9 secs

     total energy              =  -11682.03362605 Ry
     estimated scf accuracy    <       4.88273185 Ry

     iteration # 23     ecut=    80.00 Ry     beta= 0.10
     Davidson diagonalization with overlap
     ethr =  9.99E-05,  avg # of iterations =  1.0

     negative rho (up, down):  5.540E-02 0.000E+00

     total cpu time spent up to now is     7488.3 secs

     total energy              =  -11682.08054769 Ry
     estimated scf accuracy    <       5.50385768 Ry

     iteration # 24     ecut=    80.00 Ry     beta= 0.10
     Davidson diagonalization with overlap
     ethr =  9.99E-05,  avg # of iterations =  1.0

     negative rho (up, down):  5.588E-02 0.000E+00

     total cpu time spent up to now is     7778.4 secs

     total energy              =  -11682.11020450 Ry
     estimated scf accuracy    <       1.72355605 Ry

     iteration # 25     ecut=    80.00 Ry     beta= 0.10
     Davidson diagonalization with overlap
     ethr =  9.21E-05,  avg # of iterations =  1.0

     negative rho (up, down):  5.589E-02 0.000E+00

     total cpu time spent up to now is     8069.5 secs

     total energy              =  -11682.07516179 Ry
     estimated scf accuracy    <       3.65412056 Ry

     iteration # 26     ecut=    80.00 Ry     beta= 0.10
     Davidson diagonalization with overlap
     ethr =  9.21E-05,  avg # of iterations =  1.0

     negative rho (up, down):  5.607E-02 0.000E+00

     total cpu time spent up to now is     8359.1 secs

     total energy              =  -11682.10110430 Ry
     estimated scf accuracy    <       1.44724030 Ry

     iteration # 27     ecut=    80.00 Ry     beta= 0.10
     Davidson diagonalization with overlap
     ethr =  7.73E-05,  avg # of iterations =  1.0

     negative rho (up, down):  5.621E-02 0.000E+00

     total cpu time spent up to now is     8648.9 secs

     total energy              =  -11682.09787152 Ry
     estimated scf accuracy    <       1.33305571 Ry

     iteration # 28     ecut=    80.00 Ry     beta= 0.10
     Davidson diagonalization with overlap
     ethr =  7.12E-05,  avg # of iterations =  1.0

     negative rho (up, down):  5.636E-02 0.000E+00

     total cpu time spent up to now is     8938.6 secs

     total energy              =  -11682.09670046 Ry
     estimated scf accuracy    <       1.36167326 Ry

     iteration # 29     ecut=    80.00 Ry     beta= 0.10
     Davidson diagonalization with overlap
     ethr =  7.12E-05,  avg # of iterations =  1.0

     negative rho (up, down):  5.670E-02 0.000E+00

     total cpu time spent up to now is     9227.9 secs

     total energy              =  -11682.10002161 Ry
     estimated scf accuracy    <       1.13009794 Ry

     iteration # 30     ecut=    80.00 Ry     beta= 0.10
     Davidson diagonalization with overlap
     ethr =  6.04E-05,  avg # of iterations =  1.0

     negative rho (up, down):  5.680E-02 0.000E+00

     total cpu time spent up to now is     9517.5 secs

     total energy              =  -11682.09239688 Ry
     estimated scf accuracy    <       1.49511106 Ry

     iteration # 31     ecut=    80.00 Ry     beta= 0.10
     Davidson diagonalization with overlap
     ethr =  6.04E-05,  avg # of iterations =  1.0

     negative rho (up, down):  5.693E-02 0.000E+00

     total cpu time spent up to now is     9807.3 secs

     total energy              =  -11682.09185063 Ry
     estimated scf accuracy    <       1.70089542 Ry

     iteration # 32     ecut=    80.00 Ry     beta= 0.10
     Davidson diagonalization with overlap
     ethr =  6.04E-05,  avg # of iterations =  1.0

     negative rho (up, down):  5.701E-02 0.000E+00

     total cpu time spent up to now is    10098.7 secs

     total energy              =  -11682.10226286 Ry
     estimated scf accuracy    <       0.83778233 Ry

     iteration # 33     ecut=    80.00 Ry     beta= 0.10
     Davidson diagonalization with overlap
     ethr =  4.48E-05,  avg # of iterations =  1.0

     negative rho (up, down):  5.762E-02 0.000E+00

     total cpu time spent up to now is    10389.7 secs

     total energy              =  -11682.09441413 Ry
     estimated scf accuracy    <       0.37413078 Ry

     iteration # 34     ecut=    80.00 Ry     beta= 0.10
     Davidson diagonalization with overlap
     ethr =  2.00E-05,  avg # of iterations = 19.0

     negative rho (up, down):  5.783E-02 0.000E+00

     total cpu time spent up to now is    10814.1 secs

     total energy              =  -11682.04111055 Ry
     estimated scf accuracy    <       6.72424925 Ry

     iteration # 35     ecut=    80.00 Ry     beta= 0.10
     Davidson diagonalization with overlap
     ethr =  2.00E-05,  avg # of iterations =  2.0

     negative rho (up, down):  5.753E-02 0.000E+00

     total cpu time spent up to now is    11139.7 secs

     total energy              =  -11682.06124169 Ry
     estimated scf accuracy    <       6.48688795 Ry

     iteration # 36     ecut=    80.00 Ry     beta= 0.10
     Davidson diagonalization with overlap
     ethr =  2.00E-05,  avg # of iterations =  2.0

     negative rho (up, down):  5.747E-02 0.000E+00

     total cpu time spent up to now is    11465.1 secs

     total energy              =  -11682.09701119 Ry
     estimated scf accuracy    <       1.21912222 Ry

     iteration # 37     ecut=    80.00 Ry     beta= 0.10
     Davidson diagonalization with overlap
     ethr =  2.00E-05,  avg # of iterations =  1.0

     negative rho (up, down):  5.741E-02 0.000E+00

     total cpu time spent up to now is    11755.5 secs

     total energy              =  -11682.10122414 Ry
     estimated scf accuracy    <       0.71626630 Ry

     iteration # 38     ecut=    80.00 Ry     beta= 0.10
     Davidson diagonalization with overlap
     ethr =  2.00E-05,  avg # of iterations =  1.0

     negative rho (up, down):  5.750E-02 0.000E+00

     total cpu time spent up to now is    12045.2 secs

     total energy              =  -11682.10533756 Ry
     estimated scf accuracy    <       0.62514422 Ry

     iteration # 39     ecut=    80.00 Ry     beta= 0.10
     Davidson diagonalization with overlap
     ethr =  2.00E-05,  avg # of iterations =  1.0

     negative rho (up, down):  5.771E-02 0.000E+00

     total cpu time spent up to now is    12335.2 secs

     total energy              =  -11682.10818333 Ry
     estimated scf accuracy    <       0.21108318 Ry

     iteration # 40     ecut=    80.00 Ry     beta= 0.10
     Davidson diagonalization with overlap
     ethr =  1.13E-05,  avg # of iterations =  1.0

     negative rho (up, down):  5.771E-02 0.000E+00

     total cpu time spent up to now is    12624.9 secs

     total energy              =  -11682.10555541 Ry
     estimated scf accuracy    <       0.46186785 Ry

     iteration # 41     ecut=    80.00 Ry     beta= 0.10
     Davidson diagonalization with overlap
     ethr =  1.13E-05,  avg # of iterations =  1.0

     negative rho (up, down):  5.779E-02 0.000E+00

     total cpu time spent up to now is    12915.5 secs

     total energy              =  -11682.10842123 Ry
     estimated scf accuracy    <       0.32734083 Ry

     iteration # 42     ecut=    80.00 Ry     beta= 0.10
     Davidson diagonalization with overlap
     ethr =  1.13E-05,  avg # of iterations =  1.0

     negative rho (up, down):  5.777E-02 0.000E+00

     total cpu time spent up to now is    13205.4 secs

     total energy              =  -11682.10874738 Ry
     estimated scf accuracy    <       0.17268748 Ry

     iteration # 43     ecut=    80.00 Ry     beta= 0.10
     Davidson diagonalization with overlap
     ethr =  9.22E-06,  avg # of iterations =  1.0

     negative rho (up, down):  5.797E-02 0.000E+00

     total cpu time spent up to now is    13495.1 secs

     total energy              =  -11682.10969366 Ry
     estimated scf accuracy    <       0.16540053 Ry

     iteration # 44     ecut=    80.00 Ry     beta= 0.10
     Davidson diagonalization with overlap
     ethr =  8.84E-06,  avg # of iterations =  1.0

     negative rho (up, down):  5.809E-02 0.000E+00

     total cpu time spent up to now is    13786.3 secs

     total energy              =  -11682.10778783 Ry
     estimated scf accuracy    <       0.27700094 Ry

     iteration # 45     ecut=    80.00 Ry     beta= 0.10
     Davidson diagonalization with overlap
     ethr =  8.84E-06,  avg # of iterations =  1.0

     negative rho (up, down):  5.801E-02 0.000E+00

     total cpu time spent up to now is    14075.8 secs

     total energy              =  -11682.10419216 Ry
     estimated scf accuracy    <       0.83123947 Ry

     iteration # 46     ecut=    80.00 Ry     beta= 0.10
     Davidson diagonalization with overlap
     ethr =  8.84E-06,  avg # of iterations =  1.0

     negative rho (up, down):  5.805E-02 0.000E+00

     total cpu time spent up to now is    14365.8 secs

     total energy              =  -11682.10702110 Ry
     estimated scf accuracy    <       0.64833289 Ry

     iteration # 47     ecut=    80.00 Ry     beta= 0.10
     Davidson diagonalization with overlap
     ethr =  8.84E-06,  avg # of iterations =  1.0

     negative rho (up, down):  5.804E-02 0.000E+00

     total cpu time spent up to now is    14656.3 secs

     total energy              =  -11682.10897302 Ry
     estimated scf accuracy    <       0.16178417 Ry

     iteration # 48     ecut=    80.00 Ry     beta= 0.10
     Davidson diagonalization with overlap
     ethr =  8.64E-06,  avg # of iterations =  1.0

     negative rho (up, down):  5.803E-02 0.000E+00

     total cpu time spent up to now is    14946.2 secs

     total energy              =  -11682.10637143 Ry
     estimated scf accuracy    <       0.71373670 Ry

     iteration # 49     ecut=    80.00 Ry     beta= 0.10
     Davidson diagonalization with overlap
     ethr =  8.64E-06,  avg # of iterations =  1.0

     negative rho (up, down):  5.810E-02 0.000E+00

     total cpu time spent up to now is    15235.9 secs

     total energy              =  -11682.11072753 Ry
     estimated scf accuracy    <       0.09319157 Ry

     iteration # 50     ecut=    80.00 Ry     beta= 0.10
     Davidson diagonalization with overlap
     ethr =  4.98E-06,  avg # of iterations =  1.0

     negative rho (up, down):  5.815E-02 0.000E+00

     total cpu time spent up to now is    15525.6 secs

     total energy              =  -11682.11085846 Ry
     estimated scf accuracy    <       0.12175251 Ry

     iteration # 51     ecut=    80.00 Ry     beta= 0.10
     Davidson diagonalization with overlap
     ethr =  4.98E-06,  avg # of iterations =  1.0

     negative rho (up, down):  5.817E-02 0.000E+00

     total cpu time spent up to now is    15815.8 secs

     total energy              =  -11682.11141148 Ry
     estimated scf accuracy    <       0.07400670 Ry

     iteration # 52     ecut=    80.00 Ry     beta= 0.10
     Davidson diagonalization with overlap
     ethr =  3.95E-06,  avg # of iterations =  1.0

     negative rho (up, down):  5.817E-02 0.000E+00

     total cpu time spent up to now is    16106.6 secs

     total energy              =  -11682.11147773 Ry
     estimated scf accuracy    <       0.07124259 Ry

     iteration # 53     ecut=    80.00 Ry     beta= 0.10
     Davidson diagonalization with overlap
     ethr =  3.81E-06,  avg # of iterations =  1.0

     negative rho (up, down):  5.824E-02 0.000E+00

     total cpu time spent up to now is    16397.8 secs

     total energy              =  -11682.11215650 Ry
     estimated scf accuracy    <       0.02738714 Ry

     iteration # 54     ecut=    80.00 Ry     beta= 0.10
     Davidson diagonalization with overlap
     ethr =  1.46E-06,  avg # of iterations =  1.0

     negative rho (up, down):  5.830E-02 0.000E+00

     total cpu time spent up to now is    16687.5 secs

     total energy              =  -11682.11201929 Ry
     estimated scf accuracy    <       0.06670870 Ry

     iteration # 55     ecut=    80.00 Ry     beta= 0.10
     Davidson diagonalization with overlap
     ethr =  1.46E-06,  avg # of iterations =  1.0

     negative rho (up, down):  5.832E-02 0.000E+00

     total cpu time spent up to now is    16978.2 secs

     total energy              =  -11682.11207833 Ry
     estimated scf accuracy    <       0.03609286 Ry

     iteration # 56     ecut=    80.00 Ry     beta= 0.10
     Davidson diagonalization with overlap
     ethr =  1.46E-06,  avg # of iterations =  1.0

     negative rho (up, down):  5.831E-02 0.000E+00

     total cpu time spent up to now is    17269.3 secs

     total energy              =  -11682.11125374 Ry
     estimated scf accuracy    <       0.15656300 Ry

     iteration # 57     ecut=    80.00 Ry     beta= 0.10
     Davidson diagonalization with overlap
     ethr =  1.46E-06,  avg # of iterations =  1.0

     negative rho (up, down):  5.834E-02 0.000E+00

     total cpu time spent up to now is    17559.5 secs

     total energy              =  -11682.11196055 Ry
     estimated scf accuracy    <       0.06634928 Ry

     iteration # 58     ecut=    80.00 Ry     beta= 0.10
     Davidson diagonalization with overlap
     ethr =  1.46E-06,  avg # of iterations =  1.0

     negative rho (up, down):  5.835E-02 0.000E+00

     total cpu time spent up to now is    17848.9 secs

     total energy              =  -11682.11178679 Ry
     estimated scf accuracy    <       0.09257387 Ry

     iteration # 59     ecut=    80.00 Ry     beta= 0.10
     Davidson diagonalization with overlap
     ethr =  1.46E-06,  avg # of iterations =  1.0

     negative rho (up, down):  5.847E-02 0.000E+00

     total cpu time spent up to now is    18138.6 secs

     total energy              =  -11682.11226527 Ry
     estimated scf accuracy    <       0.08614319 Ry

     iteration # 60     ecut=    80.00 Ry     beta= 0.10
     Davidson diagonalization with overlap
     ethr =  1.46E-06,  avg # of iterations =  1.0

     negative rho (up, down):  5.841E-02 0.000E+00

     total cpu time spent up to now is    18428.7 secs

     total energy              =  -11682.11181416 Ry
     estimated scf accuracy    <       0.08861621 Ry

     iteration # 61     ecut=    80.00 Ry     beta= 0.10
     Davidson diagonalization with overlap
     ethr =  1.46E-06,  avg # of iterations =  1.0

     negative rho (up, down):  5.843E-02 0.000E+00

     total cpu time spent up to now is    18719.5 secs

     total energy              =  -11682.11243655 Ry
     estimated scf accuracy    <       0.07815519 Ry

     iteration # 62     ecut=    80.00 Ry     beta= 0.10
     Davidson diagonalization with overlap
     ethr =  1.46E-06,  avg # of iterations =  1.0

     negative rho (up, down):  5.841E-02 0.000E+00

     total cpu time spent up to now is    19009.2 secs

     total energy              =  -11682.11247762 Ry
     estimated scf accuracy    <       0.04669637 Ry

     iteration # 63     ecut=    80.00 Ry     beta= 0.10
     Davidson diagonalization with overlap
     ethr =  1.46E-06,  avg # of iterations =  1.0

     negative rho (up, down):  5.845E-02 0.000E+00

     total cpu time spent up to now is    19299.9 secs

     total energy              =  -11682.11289629 Ry
     estimated scf accuracy    <       0.02003204 Ry

     iteration # 64     ecut=    80.00 Ry     beta= 0.10
     Davidson diagonalization with overlap
     ethr =  1.07E-06,  avg # of iterations =  1.0

     negative rho (up, down):  5.848E-02 0.000E+00

     total cpu time spent up to now is    19590.4 secs

     total energy              =  -11682.11300155 Ry
     estimated scf accuracy    <       0.01808242 Ry

     iteration # 65     ecut=    80.00 Ry     beta= 0.10
     Davidson diagonalization with overlap
     ethr =  9.66E-07,  avg # of iterations =  1.0

     negative rho (up, down):  5.851E-02 0.000E+00

     total cpu time spent up to now is    19879.7 secs

     total energy              =  -11682.11312008 Ry
     estimated scf accuracy    <       0.00954722 Ry

     iteration # 66     ecut=    80.00 Ry     beta= 0.10
     Davidson diagonalization with overlap
     ethr =  5.10E-07,  avg # of iterations =  1.0

     negative rho (up, down):  5.851E-02 0.000E+00

     total cpu time spent up to now is    20169.7 secs

     total energy              =  -11682.11295100 Ry
     estimated scf accuracy    <       0.02971954 Ry

     iteration # 67     ecut=    80.00 Ry     beta= 0.10
     Davidson diagonalization with overlap
     ethr =  5.10E-07,  avg # of iterations =  1.0

     negative rho (up, down):  5.853E-02 0.000E+00

     total cpu time spent up to now is    20459.5 secs

     total energy              =  -11682.11301304 Ry
     estimated scf accuracy    <       0.02190720 Ry

     iteration # 68     ecut=    80.00 Ry     beta= 0.10
     Davidson diagonalization with overlap
     ethr =  5.10E-07,  avg # of iterations =  1.0

     negative rho (up, down):  5.857E-02 0.000E+00

     total cpu time spent up to now is    20749.6 secs

     total energy              =  -11682.11309672 Ry
     estimated scf accuracy    <       0.03378603 Ry

     iteration # 69     ecut=    80.00 Ry     beta= 0.10
     Davidson diagonalization with overlap
     ethr =  5.10E-07,  avg # of iterations =  1.0

     negative rho (up, down):  5.864E-02 0.000E+00

     total cpu time spent up to now is    21040.4 secs

     total energy              =  -11682.11325975 Ry
     estimated scf accuracy    <       0.03338124 Ry

     iteration # 70     ecut=    80.00 Ry     beta= 0.10
     Davidson diagonalization with overlap
     ethr =  5.10E-07,  avg # of iterations =  1.0

     negative rho (up, down):  5.859E-02 0.000E+00

     total cpu time spent up to now is    21330.4 secs

     total energy              =  -11682.11308201 Ry
     estimated scf accuracy    <       0.02142846 Ry

     iteration # 71     ecut=    80.00 Ry     beta= 0.10
     Davidson diagonalization with overlap
     ethr =  5.10E-07,  avg # of iterations =  1.0

     negative rho (up, down):  5.859E-02 0.000E+00

     total cpu time spent up to now is    21619.9 secs

     total energy              =  -11682.11289083 Ry
     estimated scf accuracy    <       0.07242040 Ry

     iteration # 72     ecut=    80.00 Ry     beta= 0.10
     Davidson diagonalization with overlap
     ethr =  5.10E-07,  avg # of iterations =  1.0

     negative rho (up, down):  5.858E-02 0.000E+00

     total cpu time spent up to now is    21909.3 secs

     total energy              =  -11682.11298155 Ry
     estimated scf accuracy    <       0.04981739 Ry

     iteration # 73     ecut=    80.00 Ry     beta= 0.10
     Davidson diagonalization with overlap
     ethr =  5.10E-07,  avg # of iterations =  1.0

     negative rho (up, down):  5.862E-02 0.000E+00

     total cpu time spent up to now is    22199.9 secs

     total energy              =  -11682.11321969 Ry
     estimated scf accuracy    <       0.02937219 Ry

     iteration # 74     ecut=    80.00 Ry     beta= 0.10
     Davidson diagonalization with overlap
     ethr =  5.10E-07,  avg # of iterations =  1.0

     negative rho (up, down):  5.864E-02 0.000E+00

     total cpu time spent up to now is    22490.1 secs

     total energy              =  -11682.11340438 Ry
     estimated scf accuracy    <       0.01484418 Ry

     iteration # 75     ecut=    80.00 Ry     beta= 0.10
     Davidson diagonalization with overlap
     ethr =  5.10E-07,  avg # of iterations =  1.0

     negative rho (up, down):  5.866E-02 0.000E+00

     total cpu time spent up to now is    22779.9 secs

     total energy              =  -11682.11350110 Ry
     estimated scf accuracy    <       0.00637572 Ry

     iteration # 76     ecut=    80.00 Ry     beta= 0.10
     Davidson diagonalization with overlap
     ethr =  3.41E-07,  avg # of iterations =  1.0

     negative rho (up, down):  5.866E-02 0.000E+00

     total cpu time spent up to now is    23069.7 secs

     total energy              =  -11682.11348611 Ry
     estimated scf accuracy    <       0.01066704 Ry

     iteration # 77     ecut=    80.00 Ry     beta= 0.10
     Davidson diagonalization with overlap
     ethr =  3.41E-07,  avg # of iterations =  1.0

     negative rho (up, down):  5.866E-02 0.000E+00

     total cpu time spent up to now is    23359.8 secs

     total energy              =  -11682.11351204 Ry
     estimated scf accuracy    <       0.00674495 Ry

     iteration # 78     ecut=    80.00 Ry     beta= 0.10
     Davidson diagonalization with overlap
     ethr =  3.41E-07,  avg # of iterations =  1.0

     negative rho (up, down):  5.869E-02 0.000E+00

     total cpu time spent up to now is    23650.2 secs

     total energy              =  -11682.11357593 Ry
     estimated scf accuracy    <       0.00821581 Ry

     iteration # 79     ecut=    80.00 Ry     beta= 0.10
     Davidson diagonalization with overlap
     ethr =  3.41E-07,  avg # of iterations =  1.0

     negative rho (up, down):  5.872E-02 0.000E+00

     total cpu time spent up to now is    23939.1 secs

     total energy              =  -11682.11363968 Ry
     estimated scf accuracy    <       0.00696537 Ry

     iteration # 80     ecut=    80.00 Ry     beta= 0.10
     Davidson diagonalization with overlap
     ethr =  3.41E-07,  avg # of iterations =  1.0

     negative rho (up, down):  5.872E-02 0.000E+00

     total cpu time spent up to now is    24228.4 secs

     total energy              =  -11682.11361660 Ry
     estimated scf accuracy    <       0.00485518 Ry

     iteration # 81     ecut=    80.00 Ry     beta= 0.10
     Davidson diagonalization with overlap
     ethr =  2.59E-07,  avg # of iterations =  1.0

     negative rho (up, down):  5.872E-02 0.000E+00

     total cpu time spent up to now is    24517.9 secs

     total energy              =  -11682.11351998 Ry
     estimated scf accuracy    <       0.02095589 Ry

     iteration # 82     ecut=    80.00 Ry     beta= 0.10
     Davidson diagonalization with overlap
     ethr =  2.59E-07,  avg # of iterations =  1.0

     negative rho (up, down):  5.873E-02 0.000E+00

     total cpu time spent up to now is    24806.7 secs

     total energy              =  -11682.11352211 Ry
     estimated scf accuracy    <       0.02207918 Ry

     iteration # 83     ecut=    80.00 Ry     beta= 0.10
     Davidson diagonalization with overlap
     ethr =  2.59E-07,  avg # of iterations =  1.0

     negative rho (up, down):  5.874E-02 0.000E+00

     total cpu time spent up to now is    25096.8 secs

     total energy              =  -11682.11351512 Ry
     estimated scf accuracy    <       0.02057891 Ry

     iteration # 84     ecut=    80.00 Ry     beta= 0.10
     Davidson diagonalization with overlap
     ethr =  2.59E-07,  avg # of iterations =  1.0

     negative rho (up, down):  5.875E-02 0.000E+00

     total cpu time spent up to now is    25386.2 secs

     total energy              =  -11682.11365775 Ry
     estimated scf accuracy    <       0.00807996 Ry

     iteration # 85     ecut=    80.00 Ry     beta= 0.10
     Davidson diagonalization with overlap
     ethr =  2.59E-07,  avg # of iterations =  1.0

     negative rho (up, down):  5.876E-02 0.000E+00

     total cpu time spent up to now is    25676.0 secs

     total energy              =  -11682.11370462 Ry
     estimated scf accuracy    <       0.00475776 Ry

     iteration # 86     ecut=    80.00 Ry     beta= 0.10
     Davidson diagonalization with overlap
     ethr =  2.54E-07,  avg # of iterations =  1.0

     negative rho (up, down):  5.877E-02 0.000E+00

     total cpu time spent up to now is    25966.2 secs

     total energy              =  -11682.11370944 Ry
     estimated scf accuracy    <       0.00687730 Ry

     iteration # 87     ecut=    80.00 Ry     beta= 0.10
     Davidson diagonalization with overlap
     ethr =  2.54E-07,  avg # of iterations =  1.0

     negative rho (up, down):  5.876E-02 0.000E+00

     total cpu time spent up to now is    26256.0 secs

     total energy              =  -11682.11370886 Ry
     estimated scf accuracy    <       0.00393595 Ry

     iteration # 88     ecut=    80.00 Ry     beta= 0.10
     Davidson diagonalization with overlap
     ethr =  2.10E-07,  avg # of iterations =  1.0

     negative rho (up, down):  5.878E-02 0.000E+00

     total cpu time spent up to now is    26545.9 secs

     total energy              =  -11682.11375425 Ry
     estimated scf accuracy    <       0.00400941 Ry

     iteration # 89     ecut=    80.00 Ry     beta= 0.10
     Davidson diagonalization with overlap
     ethr =  2.10E-07,  avg # of iterations =  1.0

     negative rho (up, down):  5.879E-02 0.000E+00

     total cpu time spent up to now is    26836.2 secs

     total energy              =  -11682.11378545 Ry
     estimated scf accuracy    <       0.00226827 Ry

     iteration # 90     ecut=    80.00 Ry     beta= 0.10
     Davidson diagonalization with overlap
     ethr =  1.21E-07,  avg # of iterations =  1.0

     negative rho (up, down):  5.880E-02 0.000E+00

     total cpu time spent up to now is    27126.6 secs

     total energy              =  -11682.11379027 Ry
     estimated scf accuracy    <       0.00136393 Ry

     iteration # 91     ecut=    80.00 Ry     beta= 0.10
     Davidson diagonalization with overlap
     ethr =  7.29E-08,  avg # of iterations =  1.0

     negative rho (up, down):  5.881E-02 0.000E+00

     total cpu time spent up to now is    27416.4 secs

     total energy              =  -11682.11377266 Ry
     estimated scf accuracy    <       0.00558538 Ry

     iteration # 92     ecut=    80.00 Ry     beta= 0.10
     Davidson diagonalization with overlap
     ethr =  7.29E-08,  avg # of iterations =  1.0

     negative rho (up, down):  5.883E-02 0.000E+00

     total cpu time spent up to now is    27706.4 secs

     total energy              =  -11682.11379127 Ry
     estimated scf accuracy    <       0.00769279 Ry

     iteration # 93     ecut=    80.00 Ry     beta= 0.10
     Davidson diagonalization with overlap
     ethr =  7.29E-08,  avg # of iterations =  1.0

     negative rho (up, down):  5.882E-02 0.000E+00

     total cpu time spent up to now is    27996.7 secs

     total energy              =  -11682.11377500 Ry
     estimated scf accuracy    <       0.00534151 Ry

     iteration # 94     ecut=    80.00 Ry     beta= 0.10
     Davidson diagonalization with overlap
     ethr =  7.29E-08,  avg # of iterations =  1.0

     negative rho (up, down):  5.883E-02 0.000E+00

     total cpu time spent up to now is    28286.2 secs

     total energy              =  -11682.11380470 Ry
     estimated scf accuracy    <       0.00423370 Ry

     iteration # 95     ecut=    80.00 Ry     beta= 0.10
     Davidson diagonalization with overlap
     ethr =  7.29E-08,  avg # of iterations =  1.0

     negative rho (up, down):  5.884E-02 0.000E+00

     total cpu time spent up to now is    28576.5 secs

     total energy              =  -11682.11382300 Ry
     estimated scf accuracy    <       0.00301102 Ry

     iteration # 96     ecut=    80.00 Ry     beta= 0.10
     Davidson diagonalization with overlap
     ethr =  7.29E-08,  avg # of iterations =  1.0

     negative rho (up, down):  5.885E-02 0.000E+00

     total cpu time spent up to now is    28868.7 secs

     total energy              =  -11682.11382594 Ry
     estimated scf accuracy    <       0.00460583 Ry

     iteration # 97     ecut=    80.00 Ry     beta= 0.10
     Davidson diagonalization with overlap
     ethr =  7.29E-08,  avg # of iterations =  1.0

     negative rho (up, down):  5.884E-02 0.000E+00

     total cpu time spent up to now is    29158.5 secs

     total energy              =  -11682.11381740 Ry
     estimated scf accuracy    <       0.00271524 Ry

     iteration # 98     ecut=    80.00 Ry     beta= 0.10
     Davidson diagonalization with overlap
     ethr =  7.29E-08,  avg # of iterations =  1.0

     negative rho (up, down):  5.885E-02 0.000E+00

     total cpu time spent up to now is    29448.5 secs

     total energy              =  -11682.11383587 Ry
     estimated scf accuracy    <       0.00455723 Ry

     iteration # 99     ecut=    80.00 Ry     beta= 0.10
     Davidson diagonalization with overlap
     ethr =  7.29E-08,  avg # of iterations =  1.0

     negative rho (up, down):  5.886E-02 0.000E+00

     total cpu time spent up to now is    29738.9 secs

     total energy              =  -11682.11386177 Ry
     estimated scf accuracy    <       0.00181421 Ry

     iteration #100     ecut=    80.00 Ry     beta= 0.10
     Davidson diagonalization with overlap
     ethr =  7.29E-08,  avg # of iterations =  1.0

     negative rho (up, down):  5.886E-02 0.000E+00

     total cpu time spent up to now is    30028.4 secs

     total energy              =  -11682.11387434 Ry
     estimated scf accuracy    <       0.00069006 Ry

     iteration #101     ecut=    80.00 Ry     beta= 0.10
     Davidson diagonalization with overlap
     ethr =  3.69E-08,  avg # of iterations =  1.0

     negative rho (up, down):  5.887E-02 0.000E+00

     total cpu time spent up to now is    30318.4 secs

     total energy              =  -11682.11387535 Ry
     estimated scf accuracy    <       0.00159471 Ry

     iteration #102     ecut=    80.00 Ry     beta= 0.10
     Davidson diagonalization with overlap
     ethr =  3.69E-08,  avg # of iterations =  1.0

     negative rho (up, down):  5.889E-02 0.000E+00

     total cpu time spent up to now is    30608.3 secs

     total energy              =  -11682.11389099 Ry
     estimated scf accuracy    <       0.00195944 Ry

     iteration #103     ecut=    80.00 Ry     beta= 0.10
     Davidson diagonalization with overlap
     ethr =  3.69E-08,  avg # of iterations =  1.0

     negative rho (up, down):  5.888E-02 0.000E+00

     total cpu time spent up to now is    30898.3 secs

     total energy              =  -11682.11388128 Ry
     estimated scf accuracy    <       0.00142468 Ry

     iteration #104     ecut=    80.00 Ry     beta= 0.10
     Davidson diagonalization with overlap
     ethr =  3.69E-08,  avg # of iterations =  1.0

     negative rho (up, down):  5.889E-02 0.000E+00

     total cpu time spent up to now is    31196.5 secs

     total energy              =  -11682.11388738 Ry
     estimated scf accuracy    <       0.00178280 Ry

     iteration #105     ecut=    80.00 Ry     beta= 0.10
     Davidson diagonalization with overlap
     ethr =  3.69E-08,  avg # of iterations =  1.0

     negative rho (up, down):  5.889E-02 0.000E+00

     total cpu time spent up to now is    31486.3 secs

     total energy              =  -11682.11389511 Ry
     estimated scf accuracy    <       0.00148205 Ry

     iteration #106     ecut=    80.00 Ry     beta= 0.10
     Davidson diagonalization with overlap
     ethr =  3.69E-08,  avg # of iterations =  1.0

     negative rho (up, down):  5.891E-02 0.000E+00

     total cpu time spent up to now is    31775.5 secs

     total energy              =  -11682.11390016 Ry
     estimated scf accuracy    <       0.00231125 Ry

     iteration #107     ecut=    80.00 Ry     beta= 0.10
     Davidson diagonalization with overlap
     ethr =  3.69E-08,  avg # of iterations =  1.0

     negative rho (up, down):  5.890E-02 0.000E+00

     total cpu time spent up to now is    32066.5 secs

     total energy              =  -11682.11389188 Ry
     estimated scf accuracy    <       0.00164236 Ry

     iteration #108     ecut=    80.00 Ry     beta= 0.10
     Davidson diagonalization with overlap
     ethr =  3.69E-08,  avg # of iterations =  1.0

     negative rho (up, down):  5.891E-02 0.000E+00

     total cpu time spent up to now is    32355.6 secs

     total energy              =  -11682.11388481 Ry
     estimated scf accuracy    <       0.00508688 Ry

     iteration #109     ecut=    80.00 Ry     beta= 0.10
     Davidson diagonalization with overlap
     ethr =  3.69E-08,  avg # of iterations =  1.0

     negative rho (up, down):  5.891E-02 0.000E+00

     total cpu time spent up to now is    32645.2 secs

     total energy              =  -11682.11390451 Ry
     estimated scf accuracy    <       0.00185765 Ry

     iteration #110     ecut=    80.00 Ry     beta= 0.10
     Davidson diagonalization with overlap
     ethr =  3.69E-08,  avg # of iterations =  1.0

     negative rho (up, down):  5.891E-02 0.000E+00

     total cpu time spent up to now is    32935.1 secs

     total energy              =  -11682.11391804 Ry
     estimated scf accuracy    <       0.00060188 Ry

     iteration #111     ecut=    80.00 Ry     beta= 0.10
     Davidson diagonalization with overlap
     ethr =  3.22E-08,  avg # of iterations =  1.0

     negative rho (up, down):  5.892E-02 0.000E+00

     total cpu time spent up to now is    33233.5 secs

     total energy              =  -11682.11392099 Ry
     estimated scf accuracy    <       0.00093758 Ry

     iteration #112     ecut=    80.00 Ry     beta= 0.10
     Davidson diagonalization with overlap
     ethr =  3.22E-08,  avg # of iterations =  1.0

     negative rho (up, down):  5.893E-02 0.000E+00

     total cpu time spent up to now is    33523.3 secs

     total energy              =  -11682.11393057 Ry
     estimated scf accuracy    <       0.00073474 Ry

     iteration #113     ecut=    80.00 Ry     beta= 0.10
     Davidson diagonalization with overlap
     ethr =  3.22E-08,  avg # of iterations =  1.0

     negative rho (up, down):  5.893E-02 0.000E+00

     total cpu time spent up to now is    33813.2 secs

     total energy              =  -11682.11392839 Ry
     estimated scf accuracy    <       0.00043463 Ry

     iteration #114     ecut=    80.00 Ry     beta= 0.10
     Davidson diagonalization with overlap
     ethr =  2.32E-08,  avg # of iterations =  1.0

     negative rho (up, down):  5.893E-02 0.000E+00

     total cpu time spent up to now is    34102.9 secs

     total energy              =  -11682.11393073 Ry
     estimated scf accuracy    <       0.00071844 Ry

     iteration #115     ecut=    80.00 Ry     beta= 0.10
     Davidson diagonalization with overlap
     ethr =  2.32E-08,  avg # of iterations =  1.0

     negative rho (up, down):  5.894E-02 0.000E+00

     total cpu time spent up to now is    34392.8 secs

     total energy              =  -11682.11393583 Ry
     estimated scf accuracy    <       0.00054424 Ry

     iteration #116     ecut=    80.00 Ry     beta= 0.10
     Davidson diagonalization with overlap
     ethr =  2.32E-08,  avg # of iterations =  1.0

     negative rho (up, down):  5.895E-02 0.000E+00

     total cpu time spent up to now is    34682.9 secs

     total energy              =  -11682.11393996 Ry
     estimated scf accuracy    <       0.00084791 Ry

     iteration #117     ecut=    80.00 Ry     beta= 0.10
     Davidson diagonalization with overlap
     ethr =  2.32E-08,  avg # of iterations =  1.0

     negative rho (up, down):  5.895E-02 0.000E+00

     total cpu time spent up to now is    34973.2 secs

     total energy              =  -11682.11394264 Ry
     estimated scf accuracy    <       0.00064386 Ry

     iteration #118     ecut=    80.00 Ry     beta= 0.10
     Davidson diagonalization with overlap
     ethr =  2.32E-08,  avg # of iterations =  1.0

     negative rho (up, down):  5.895E-02 0.000E+00

     total cpu time spent up to now is    35263.8 secs

     total energy              =  -11682.11392990 Ry
     estimated scf accuracy    <       0.00281701 Ry

     iteration #119     ecut=    80.00 Ry     beta= 0.10
     Davidson diagonalization with overlap
     ethr =  2.32E-08,  avg # of iterations =  1.0

     negative rho (up, down):  5.895E-02 0.000E+00

     total cpu time spent up to now is    35563.6 secs

     total energy              =  -11682.11393441 Ry
     estimated scf accuracy    <       0.00116165 Ry

     iteration #120     ecut=    80.00 Ry     beta= 0.10
     Davidson diagonalization with overlap
     ethr =  2.32E-08,  avg # of iterations =  1.0

     negative rho (up, down):  5.895E-02 0.000E+00

     total cpu time spent up to now is    35852.9 secs

     total energy              =  -11682.11394266 Ry
     estimated scf accuracy    <       0.00064828 Ry

     iteration #121     ecut=    80.00 Ry     beta= 0.10
     Davidson diagonalization with overlap
     ethr =  2.32E-08,  avg # of iterations =  1.0

     negative rho (up, down):  5.896E-02 0.000E+00

     total cpu time spent up to now is    36143.1 secs

     total energy              =  -11682.11394494 Ry
     estimated scf accuracy    <       0.00093725 Ry

     iteration #122     ecut=    80.00 Ry     beta= 0.10
     Davidson diagonalization with overlap
     ethr =  2.32E-08,  avg # of iterations =  1.0

     negative rho (up, down):  5.896E-02 0.000E+00

     total cpu time spent up to now is    36432.9 secs

     total energy              =  -11682.11395106 Ry
     estimated scf accuracy    <       0.00061499 Ry

     iteration #123     ecut=    80.00 Ry     beta= 0.10
     Davidson diagonalization with overlap
     ethr =  2.32E-08,  avg # of iterations =  1.0

     negative rho (up, down):  5.896E-02 0.000E+00

     total cpu time spent up to now is    36722.8 secs

     total energy              =  -11682.11395202 Ry
     estimated scf accuracy    <       0.00025583 Ry

     iteration #124     ecut=    80.00 Ry     beta= 0.10
     Davidson diagonalization with overlap
     ethr =  1.37E-08,  avg # of iterations =  1.0

     negative rho (up, down):  5.896E-02 0.000E+00

     total cpu time spent up to now is    37012.3 secs

     total energy              =  -11682.11395299 Ry
     estimated scf accuracy    <       0.00037989 Ry

     iteration #125     ecut=    80.00 Ry     beta= 0.10
     Davidson diagonalization with overlap
     ethr =  1.37E-08,  avg # of iterations =  1.0

     negative rho (up, down):  5.897E-02 0.000E+00

     total cpu time spent up to now is    37302.6 secs

     total energy              =  -11682.11395651 Ry
     estimated scf accuracy    <       0.00021610 Ry

     iteration #126     ecut=    80.00 Ry     beta= 0.10
     Davidson diagonalization with overlap
     ethr =  1.15E-08,  avg # of iterations =  1.0

     negative rho (up, down):  5.898E-02 0.000E+00

     total cpu time spent up to now is    37592.7 secs

     total energy              =  -11682.11395914 Ry
     estimated scf accuracy    <       0.00025777 Ry

     iteration #127     ecut=    80.00 Ry     beta= 0.10
     Davidson diagonalization with overlap
     ethr =  1.15E-08,  avg # of iterations =  1.0

     negative rho (up, down):  5.898E-02 0.000E+00

     total cpu time spent up to now is    37882.9 secs

     total energy              =  -11682.11396270 Ry
     estimated scf accuracy    <       0.00019844 Ry

     iteration #128     ecut=    80.00 Ry     beta= 0.10
     Davidson diagonalization with overlap
     ethr =  1.06E-08,  avg # of iterations =  1.0

     negative rho (up, down):  5.898E-02 0.000E+00

     total cpu time spent up to now is    38173.6 secs

     total energy              =  -11682.11395869 Ry
     estimated scf accuracy    <       0.00077732 Ry

     iteration #129     ecut=    80.00 Ry     beta= 0.10
     Davidson diagonalization with overlap
     ethr =  1.06E-08,  avg # of iterations =  1.0

     negative rho (up, down):  5.898E-02 0.000E+00

     total cpu time spent up to now is    38463.7 secs

     total energy              =  -11682.11395648 Ry
     estimated scf accuracy    <       0.00046668 Ry

     iteration #130     ecut=    80.00 Ry     beta= 0.10
     Davidson diagonalization with overlap
     ethr =  1.06E-08,  avg # of iterations =  1.0

     negative rho (up, down):  5.898E-02 0.000E+00

     total cpu time spent up to now is    38753.6 secs

     total energy              =  -11682.11395835 Ry
     estimated scf accuracy    <       0.00058418 Ry

     iteration #131     ecut=    80.00 Ry     beta= 0.10
     Davidson diagonalization with overlap
     ethr =  1.06E-08,  avg # of iterations =  1.0

     negative rho (up, down):  5.899E-02 0.000E+00

     total cpu time spent up to now is    39044.2 secs

     total energy              =  -11682.11395947 Ry
     estimated scf accuracy    <       0.00085446 Ry

     iteration #132     ecut=    80.00 Ry     beta= 0.10
     Davidson diagonalization with overlap
     ethr =  1.06E-08,  avg # of iterations =  1.0

     negative rho (up, down):  5.899E-02 0.000E+00

     total cpu time spent up to now is    39335.5 secs

     total energy              =  -11682.11396280 Ry
     estimated scf accuracy    <       0.00056496 Ry

     iteration #133     ecut=    80.00 Ry     beta= 0.10
     Davidson diagonalization with overlap
     ethr =  1.06E-08,  avg # of iterations =  1.0

     negative rho (up, down):  5.899E-02 0.000E+00

     total cpu time spent up to now is    39625.1 secs

     total energy              =  -11682.11396482 Ry
     estimated scf accuracy    <       0.00019865 Ry

     iteration #134     ecut=    80.00 Ry     beta= 0.10
     Davidson diagonalization with overlap
     ethr =  1.06E-08,  avg # of iterations =  1.0

     negative rho (up, down):  5.899E-02 0.000E+00

     total cpu time spent up to now is    39915.7 secs

     total energy              =  -11682.11396470 Ry
     estimated scf accuracy    <       0.00029155 Ry

     iteration #135     ecut=    80.00 Ry     beta= 0.10
     Davidson diagonalization with overlap
     ethr =  1.06E-08,  avg # of iterations =  1.0

     negative rho (up, down):  5.899E-02 0.000E+00

     total cpu time spent up to now is    40205.9 secs

     total energy              =  -11682.11396705 Ry
     estimated scf accuracy    <       0.00012719 Ry

     iteration #136     ecut=    80.00 Ry     beta= 0.10
     Davidson diagonalization with overlap
     ethr =  6.79E-09,  avg # of iterations =  1.0

     negative rho (up, down):  5.900E-02 0.000E+00

     total cpu time spent up to now is    40495.9 secs

     total energy              =  -11682.11396843 Ry
     estimated scf accuracy    <       0.00011089 Ry

     iteration #137     ecut=    80.00 Ry     beta= 0.10
     Davidson diagonalization with overlap
     ethr =  5.92E-09,  avg # of iterations =  1.0

     negative rho (up, down):  5.900E-02 0.000E+00

     total cpu time spent up to now is    40786.2 secs

     total energy              =  -11682.11397070 Ry
     estimated scf accuracy    <       0.00006039 Ry

     iteration #138     ecut=    80.00 Ry     beta= 0.10
     Davidson diagonalization with overlap
     ethr =  3.23E-09,  avg # of iterations =  1.0

     negative rho (up, down):  5.900E-02 0.000E+00

     total cpu time spent up to now is    41076.2 secs

     total energy              =  -11682.11396994 Ry
     estimated scf accuracy    <       0.00016119 Ry

     iteration #139     ecut=    80.00 Ry     beta= 0.10
     Davidson diagonalization with overlap
     ethr =  3.23E-09,  avg # of iterations =  1.0

     negative rho (up, down):  5.900E-02 0.000E+00

     total cpu time spent up to now is    41365.5 secs

     total energy              =  -11682.11396900 Ry
     estimated scf accuracy    <       0.00015551 Ry

     iteration #140     ecut=    80.00 Ry     beta= 0.10
     Davidson diagonalization with overlap
     ethr =  3.23E-09,  avg # of iterations =  1.0

     negative rho (up, down):  5.901E-02 0.000E+00

     total cpu time spent up to now is    41656.1 secs

     total energy              =  -11682.11396914 Ry
     estimated scf accuracy    <       0.00035255 Ry

     iteration #141     ecut=    80.00 Ry     beta= 0.10
     Davidson diagonalization with overlap
     ethr =  3.23E-09,  avg # of iterations =  1.0

     negative rho (up, down):  5.901E-02 0.000E+00

     total cpu time spent up to now is    41945.6 secs

     total energy              =  -11682.11397014 Ry
     estimated scf accuracy    <       0.00036742 Ry

     iteration #142     ecut=    80.00 Ry     beta= 0.10
     Davidson diagonalization with overlap
     ethr =  3.23E-09,  avg # of iterations =  1.0

     negative rho (up, down):  5.901E-02 0.000E+00

     total cpu time spent up to now is    42236.2 secs

     total energy              =  -11682.11397069 Ry
     estimated scf accuracy    <       0.00031773 Ry

     iteration #143     ecut=    80.00 Ry     beta= 0.10
     Davidson diagonalization with overlap
     ethr =  3.23E-09,  avg # of iterations =  1.0

     negative rho (up, down):  5.901E-02 0.000E+00

     total cpu time spent up to now is    42525.6 secs

     total energy              =  -11682.11397221 Ry
     estimated scf accuracy    <       0.00013469 Ry

     iteration #144     ecut=    80.00 Ry     beta= 0.10
     Davidson diagonalization with overlap
     ethr =  3.23E-09,  avg # of iterations =  1.0

     negative rho (up, down):  5.901E-02 0.000E+00

     total cpu time spent up to now is    42815.5 secs

     total energy              =  -11682.11397133 Ry
     estimated scf accuracy    <       0.00021341 Ry

     iteration #145     ecut=    80.00 Ry     beta= 0.10
     Davidson diagonalization with overlap
     ethr =  3.23E-09,  avg # of iterations =  1.0

     negative rho (up, down):  5.901E-02 0.000E+00

     total cpu time spent up to now is    43106.8 secs

     total energy              =  -11682.11397261 Ry
     estimated scf accuracy    <       0.00011352 Ry

     iteration #146     ecut=    80.00 Ry     beta= 0.10
     Davidson diagonalization with overlap
     ethr =  3.23E-09,  avg # of iterations =  1.0

     negative rho (up, down):  5.901E-02 0.000E+00

     total cpu time spent up to now is    43398.6 secs

     total energy              =  -11682.11397334 Ry
     estimated scf accuracy    <       0.00009727 Ry

     iteration #147     ecut=    80.00 Ry     beta= 0.10
     Davidson diagonalization with overlap
     ethr =  3.23E-09,  avg # of iterations =  1.0

     negative rho (up, down):  5.902E-02 0.000E+00

     total cpu time spent up to now is    43688.9 secs

     total energy              =  -11682.11397477 Ry
     estimated scf accuracy    <       0.00003169 Ry

     iteration #148     ecut=    80.00 Ry     beta= 0.10
     Davidson diagonalization with overlap
     ethr =  1.69E-09,  avg # of iterations =  1.0

     negative rho (up, down):  5.902E-02 0.000E+00

     total cpu time spent up to now is    43978.6 secs

     total energy              =  -11682.11397475 Ry
     estimated scf accuracy    <       0.00004667 Ry

     iteration #149     ecut=    80.00 Ry     beta= 0.10
     Davidson diagonalization with overlap
     ethr =  1.69E-09,  avg # of iterations =  1.0

     negative rho (up, down):  5.902E-02 0.000E+00

     total cpu time spent up to now is    44268.7 secs

     total energy              =  -11682.11397491 Ry
     estimated scf accuracy    <       0.00004978 Ry

     iteration #150     ecut=    80.00 Ry     beta= 0.10
     Davidson diagonalization with overlap
     ethr =  1.69E-09,  avg # of iterations =  1.0

     negative rho (up, down):  5.902E-02 0.000E+00

     total cpu time spent up to now is    44577.9 secs

     total energy              =  -11682.11397499 Ry
     estimated scf accuracy    <       0.00011396 Ry

     iteration #151     ecut=    80.00 Ry     beta= 0.10
     Davidson diagonalization with overlap
     ethr =  1.69E-09,  avg # of iterations =  1.0

     negative rho (up, down):  5.902E-02 0.000E+00

     total cpu time spent up to now is    44868.1 secs

     total energy              =  -11682.11397544 Ry
     estimated scf accuracy    <       0.00010963 Ry

     iteration #152     ecut=    80.00 Ry     beta= 0.10
     Davidson diagonalization with overlap
     ethr =  1.69E-09,  avg # of iterations =  1.0

     negative rho (up, down):  5.902E-02 0.000E+00

     total cpu time spent up to now is    45157.6 secs

     total energy              =  -11682.11397536 Ry
     estimated scf accuracy    <       0.00012600 Ry

     iteration #153     ecut=    80.00 Ry     beta= 0.10
     Davidson diagonalization with overlap
     ethr =  1.69E-09,  avg # of iterations =  1.0

     negative rho (up, down):  5.903E-02 0.000E+00

     total cpu time spent up to now is    45448.0 secs

     total energy              =  -11682.11397627 Ry
     estimated scf accuracy    <       0.00007012 Ry

     iteration #154     ecut=    80.00 Ry     beta= 0.10
     Davidson diagonalization with overlap
     ethr =  1.69E-09,  avg # of iterations =  1.0

     negative rho (up, down):  5.903E-02 0.000E+00

     total cpu time spent up to now is    45737.2 secs

     total energy              =  -11682.11397575 Ry
     estimated scf accuracy    <       0.00010107 Ry

     iteration #155     ecut=    80.00 Ry     beta= 0.10
     Davidson diagonalization with overlap
     ethr =  1.69E-09,  avg # of iterations =  1.0

     negative rho (up, down):  5.903E-02 0.000E+00

     total cpu time spent up to now is    46027.4 secs

     total energy              =  -11682.11397597 Ry
     estimated scf accuracy    <       0.00009377 Ry

     iteration #156     ecut=    80.00 Ry     beta= 0.10
     Davidson diagonalization with overlap
     ethr =  1.69E-09,  avg # of iterations =  1.0

     negative rho (up, down):  5.903E-02 0.000E+00

     total cpu time spent up to now is    46317.7 secs

     total energy              =  -11682.11397597 Ry
     estimated scf accuracy    <       0.00010129 Ry

     iteration #157     ecut=    80.00 Ry     beta= 0.10
     Davidson diagonalization with overlap
     ethr =  1.69E-09,  avg # of iterations =  1.0

     negative rho (up, down):  5.903E-02 0.000E+00

     total cpu time spent up to now is    46607.6 secs

     total energy              =  -11682.11397712 Ry
     estimated scf accuracy    <       0.00003152 Ry

     iteration #158     ecut=    80.00 Ry     beta= 0.10
     Davidson diagonalization with overlap
     ethr =  1.68E-09,  avg # of iterations =  1.0

     negative rho (up, down):  5.903E-02 0.000E+00

     total cpu time spent up to now is    46897.7 secs

     total energy              =  -11682.11397718 Ry
     estimated scf accuracy    <       0.00003039 Ry

     iteration #159     ecut=    80.00 Ry     beta= 0.10
     Davidson diagonalization with overlap
     ethr =  1.62E-09,  avg # of iterations =  1.0

     negative rho (up, down):  5.903E-02 0.000E+00

     total cpu time spent up to now is    47187.5 secs

     total energy              =  -11682.11397751 Ry
     estimated scf accuracy    <       0.00002077 Ry

     iteration #160     ecut=    80.00 Ry     beta= 0.10
     Davidson diagonalization with overlap
     ethr =  1.11E-09,  avg # of iterations =  1.0

     negative rho (up, down):  5.903E-02 0.000E+00

     total cpu time spent up to now is    47477.6 secs

     total energy              =  -11682.11397760 Ry
     estimated scf accuracy    <       0.00003584 Ry

     iteration #161     ecut=    80.00 Ry     beta= 0.10
     Davidson diagonalization with overlap
     ethr =  1.11E-09,  avg # of iterations =  1.0

     negative rho (up, down):  5.903E-02 0.000E+00

     total cpu time spent up to now is    47767.1 secs

     total energy              =  -11682.11397776 Ry
     estimated scf accuracy    <       0.00003289 Ry

     iteration #162     ecut=    80.00 Ry     beta= 0.10
     Davidson diagonalization with overlap
     ethr =  1.11E-09,  avg # of iterations =  1.0

     negative rho (up, down):  5.903E-02 0.000E+00

     total cpu time spent up to now is    48057.4 secs

     total energy              =  -11682.11397774 Ry
     estimated scf accuracy    <       0.00004546 Ry

     iteration #163     ecut=    80.00 Ry     beta= 0.10
     Davidson diagonalization with overlap
     ethr =  1.11E-09,  avg # of iterations =  1.0

     negative rho (up, down):  5.904E-02 0.000E+00

     total cpu time spent up to now is    48347.1 secs

     total energy              =  -11682.11397827 Ry
     estimated scf accuracy    <       0.00002724 Ry

     iteration #164     ecut=    80.00 Ry     beta= 0.10
     Davidson diagonalization with overlap
     ethr =  1.11E-09,  avg # of iterations =  1.0

     negative rho (up, down):  5.904E-02 0.000E+00

     total cpu time spent up to now is    48637.2 secs

     total energy              =  -11682.11397821 Ry
     estimated scf accuracy    <       0.00003257 Ry

     iteration #165     ecut=    80.00 Ry     beta= 0.10
     Davidson diagonalization with overlap
     ethr =  1.11E-09,  avg # of iterations =  1.0

     negative rho (up, down):  5.904E-02 0.000E+00

     total cpu time spent up to now is    48927.3 secs

     total energy              =  -11682.11397818 Ry
     estimated scf accuracy    <       0.00005391 Ry

     iteration #166     ecut=    80.00 Ry     beta= 0.10
     Davidson diagonalization with overlap
     ethr =  1.11E-09,  avg # of iterations =  1.0

     negative rho (up, down):  5.904E-02 0.000E+00

     total cpu time spent up to now is    49218.6 secs

     total energy              =  -11682.11397786 Ry
     estimated scf accuracy    <       0.00006608 Ry

     iteration #167     ecut=    80.00 Ry     beta= 0.10
     Davidson diagonalization with overlap
     ethr =  1.11E-09,  avg # of iterations =  1.0

     negative rho (up, down):  5.904E-02 0.000E+00

     total cpu time spent up to now is    49508.2 secs

     total energy              =  -11682.11397840 Ry
     estimated scf accuracy    <       0.00003365 Ry

     iteration #168     ecut=    80.00 Ry     beta= 0.10
     Davidson diagonalization with overlap
     ethr =  1.11E-09,  avg # of iterations =  1.0

     negative rho (up, down):  5.904E-02 0.000E+00

     total cpu time spent up to now is    49798.2 secs

     total energy              =  -11682.11397850 Ry
     estimated scf accuracy    <       0.00002791 Ry

     iteration #169     ecut=    80.00 Ry     beta= 0.10
     Davidson diagonalization with overlap
     ethr =  1.11E-09,  avg # of iterations =  1.0

     negative rho (up, down):  5.904E-02 0.000E+00

     total cpu time spent up to now is    50088.6 secs

     total energy              =  -11682.11397880 Ry
     estimated scf accuracy    <       0.00001567 Ry

     iteration #170     ecut=    80.00 Ry     beta= 0.10
     Davidson diagonalization with overlap
     ethr =  8.37E-10,  avg # of iterations =  1.0

     negative rho (up, down):  5.904E-02 0.000E+00

     total cpu time spent up to now is    50379.3 secs

     total energy              =  -11682.11397883 Ry
     estimated scf accuracy    <       0.00002002 Ry

     iteration #171     ecut=    80.00 Ry     beta= 0.10
     Davidson diagonalization with overlap
     ethr =  8.37E-10,  avg # of iterations =  1.0

     negative rho (up, down):  5.904E-02 0.000E+00

     total cpu time spent up to now is    50669.5 secs

     total energy              =  -11682.11397891 Ry
     estimated scf accuracy    <       0.00001624 Ry

     iteration #172     ecut=    80.00 Ry     beta= 0.10
     Davidson diagonalization with overlap
     ethr =  8.37E-10,  avg # of iterations =  1.0

     negative rho (up, down):  5.904E-02 0.000E+00

     total cpu time spent up to now is    50960.1 secs

     total energy              =  -11682.11397894 Ry
     estimated scf accuracy    <       0.00002032 Ry

     iteration #173     ecut=    80.00 Ry     beta= 0.10
     Davidson diagonalization with overlap
     ethr =  8.37E-10,  avg # of iterations =  1.0

     negative rho (up, down):  5.904E-02 0.000E+00

     total cpu time spent up to now is    51249.9 secs

     total energy              =  -11682.11397921 Ry
     estimated scf accuracy    <       0.00000959 Ry

     iteration #174     ecut=    80.00 Ry     beta= 0.10
     Davidson diagonalization with overlap
     ethr =  5.12E-10,  avg # of iterations =  1.0

     negative rho (up, down):  5.904E-02 0.000E+00

     total cpu time spent up to now is    51539.9 secs

     total energy              =  -11682.11397928 Ry
     estimated scf accuracy    <       0.00000899 Ry

     iteration #175     ecut=    80.00 Ry     beta= 0.10
     Davidson diagonalization with overlap
     ethr =  4.80E-10,  avg # of iterations =  1.0

     negative rho (up, down):  5.904E-02 0.000E+00

     total cpu time spent up to now is    51828.6 secs

     total energy              =  -11682.11397932 Ry
     estimated scf accuracy    <       0.00002031 Ry

     iteration #176     ecut=    80.00 Ry     beta= 0.10
     Davidson diagonalization with overlap
     ethr =  4.80E-10,  avg # of iterations =  1.0

     negative rho (up, down):  5.904E-02 0.000E+00

     total cpu time spent up to now is    52120.0 secs

     total energy              =  -11682.11397917 Ry
     estimated scf accuracy    <       0.00002493 Ry

     iteration #177     ecut=    80.00 Ry     beta= 0.10
     Davidson diagonalization with overlap
     ethr =  4.80E-10,  avg # of iterations =  1.0

     negative rho (up, down):  5.904E-02 0.000E+00

     total cpu time spent up to now is    52410.6 secs

     total energy              =  -11682.11397922 Ry
     estimated scf accuracy    <       0.00002371 Ry

     iteration #178     ecut=    80.00 Ry     beta= 0.10
     Davidson diagonalization with overlap
     ethr =  4.80E-10,  avg # of iterations =  1.0

     negative rho (up, down):  5.904E-02 0.000E+00

     total cpu time spent up to now is    52700.6 secs

     total energy              =  -11682.11397927 Ry
     estimated scf accuracy    <       0.00002286 Ry

     iteration #179     ecut=    80.00 Ry     beta= 0.10
     Davidson diagonalization with overlap
     ethr =  4.80E-10,  avg # of iterations =  1.0

     negative rho (up, down):  5.905E-02 0.000E+00

     total cpu time spent up to now is    52990.7 secs

     total energy              =  -11682.11397951 Ry
     estimated scf accuracy    <       0.00001490 Ry

     iteration #180     ecut=    80.00 Ry     beta= 0.10
     Davidson diagonalization with overlap
     ethr =  4.80E-10,  avg # of iterations =  1.0

     negative rho (up, down):  5.905E-02 0.000E+00

     total cpu time spent up to now is    53280.7 secs

     total energy              =  -11682.11397949 Ry
     estimated scf accuracy    <       0.00001629 Ry

     iteration #181     ecut=    80.00 Ry     beta= 0.10
     Davidson diagonalization with overlap
     ethr =  4.80E-10,  avg # of iterations =  1.0

     negative rho (up, down):  5.905E-02 0.000E+00

     total cpu time spent up to now is    53570.1 secs

     total energy              =  -11682.11397952 Ry
     estimated scf accuracy    <       0.00001306 Ry

     iteration #182     ecut=    80.00 Ry     beta= 0.10
     Davidson diagonalization with overlap
     ethr =  4.80E-10,  avg # of iterations =  1.0

     negative rho (up, down):  5.905E-02 0.000E+00

     total cpu time spent up to now is    53860.3 secs

     total energy              =  -11682.11397955 Ry
     estimated scf accuracy    <       0.00001451 Ry

     iteration #183     ecut=    80.00 Ry     beta= 0.10
     Davidson diagonalization with overlap
     ethr =  4.80E-10,  avg # of iterations =  1.0

     negative rho (up, down):  5.905E-02 0.000E+00

     total cpu time spent up to now is    54149.3 secs

     total energy              =  -11682.11397970 Ry
     estimated scf accuracy    <       0.00000526 Ry

     iteration #184     ecut=    80.00 Ry     beta= 0.10
     Davidson diagonalization with overlap
     ethr =  2.81E-10,  avg # of iterations =  1.0

     negative rho (up, down):  5.905E-02 0.000E+00

     total cpu time spent up to now is    54438.8 secs

     total energy              =  -11682.11397976 Ry
     estimated scf accuracy    <       0.00000312 Ry

     iteration #185     ecut=    80.00 Ry     beta= 0.10
     Davidson diagonalization with overlap
     ethr =  1.67E-10,  avg # of iterations =  1.0

     negative rho (up, down):  5.905E-02 0.000E+00

     total cpu time spent up to now is    54728.8 secs

     total energy              =  -11682.11397981 Ry
     estimated scf accuracy    <       0.00000609 Ry

     iteration #186     ecut=    80.00 Ry     beta= 0.10
     Davidson diagonalization with overlap
     ethr =  1.67E-10,  avg # of iterations =  1.0

     negative rho (up, down):  5.905E-02 0.000E+00

     total cpu time spent up to now is    55020.5 secs

     total energy              =  -11682.11397980 Ry
     estimated scf accuracy    <       0.00000719 Ry

     iteration #187     ecut=    80.00 Ry     beta= 0.10
     Davidson diagonalization with overlap
     ethr =  1.67E-10,  avg # of iterations =  1.0

     negative rho (up, down):  5.905E-02 0.000E+00

     total cpu time spent up to now is    55310.2 secs

     total energy              =  -11682.11397974 Ry
     estimated scf accuracy    <       0.00001057 Ry

     iteration #188     ecut=    80.00 Ry     beta= 0.10
     Davidson diagonalization with overlap
     ethr =  1.67E-10,  avg # of iterations =  1.0

     negative rho (up, down):  5.905E-02 0.000E+00

     total cpu time spent up to now is    55600.5 secs

     total energy              =  -11682.11397977 Ry
     estimated scf accuracy    <       0.00001351 Ry

     iteration #189     ecut=    80.00 Ry     beta= 0.10
     Davidson diagonalization with overlap
     ethr =  1.67E-10,  avg # of iterations =  1.0

     negative rho (up, down):  5.905E-02 0.000E+00

     total cpu time spent up to now is    55890.4 secs

     total energy              =  -11682.11397989 Ry
     estimated scf accuracy    <       0.00001098 Ry

     iteration #190     ecut=    80.00 Ry     beta= 0.10
     Davidson diagonalization with overlap
     ethr =  1.67E-10,  avg # of iterations =  1.0

     negative rho (up, down):  5.905E-02 0.000E+00

     total cpu time spent up to now is    56180.2 secs

     total energy              =  -11682.11397988 Ry
     estimated scf accuracy    <       0.00000965 Ry

     iteration #191     ecut=    80.00 Ry     beta= 0.10
     Davidson diagonalization with overlap
     ethr =  1.67E-10,  avg # of iterations =  1.0

     negative rho (up, down):  5.905E-02 0.000E+00

     total cpu time spent up to now is    56469.6 secs

     total energy              =  -11682.11397986 Ry
     estimated scf accuracy    <       0.00000941 Ry

     iteration #192     ecut=    80.00 Ry     beta= 0.10
     Davidson diagonalization with overlap
     ethr =  1.67E-10,  avg # of iterations =  1.0

     negative rho (up, down):  5.905E-02 0.000E+00

     total cpu time spent up to now is    56759.8 secs

     total energy              =  -11682.11397987 Ry
     estimated scf accuracy    <       0.00001375 Ry

     iteration #193     ecut=    80.00 Ry     beta= 0.10
     Davidson diagonalization with overlap
     ethr =  1.67E-10,  avg # of iterations =  1.0

     negative rho (up, down):  5.905E-02 0.000E+00

     total cpu time spent up to now is    57049.7 secs

     total energy              =  -11682.11397995 Ry
     estimated scf accuracy    <       0.00000526 Ry

     iteration #194     ecut=    80.00 Ry     beta= 0.10
     Davidson diagonalization with overlap
     ethr =  1.67E-10,  avg # of iterations =  1.0

     negative rho (up, down):  5.905E-02 0.000E+00

     total cpu time spent up to now is    57340.0 secs

     total energy              =  -11682.11398000 Ry
     estimated scf accuracy    <       0.00000198 Ry

     iteration #195     ecut=    80.00 Ry     beta= 0.10
     Davidson diagonalization with overlap
     ethr =  1.06E-10,  avg # of iterations =  1.0

     negative rho (up, down):  5.905E-02 0.000E+00

     total cpu time spent up to now is    57629.0 secs

     total energy              =  -11682.11398003 Ry
     estimated scf accuracy    <       0.00000232 Ry

     iteration #196     ecut=    80.00 Ry     beta= 0.10
     Davidson diagonalization with overlap
     ethr =  1.06E-10,  avg # of iterations =  1.0

     negative rho (up, down):  5.905E-02 0.000E+00

     total cpu time spent up to now is    57918.5 secs

     total energy              =  -11682.11398005 Ry
     estimated scf accuracy    <       0.00000213 Ry

     iteration #197     ecut=    80.00 Ry     beta= 0.10
     Davidson diagonalization with overlap
     ethr =  1.06E-10,  avg # of iterations =  1.0

     negative rho (up, down):  5.905E-02 0.000E+00

     total cpu time spent up to now is    58209.0 secs

     total energy              =  -11682.11398003 Ry
     estimated scf accuracy    <       0.00000338 Ry

     iteration #198     ecut=    80.00 Ry     beta= 0.10
     Davidson diagonalization with overlap
     ethr =  1.06E-10,  avg # of iterations =  1.0

     negative rho (up, down):  5.905E-02 0.000E+00

     total cpu time spent up to now is    58498.6 secs

     total energy              =  -11682.11398004 Ry
     estimated scf accuracy    <       0.00000546 Ry

     iteration #199     ecut=    80.00 Ry     beta= 0.10
     Davidson diagonalization with overlap
     ethr =  1.06E-10,  avg # of iterations =  1.0

     negative rho (up, down):  5.905E-02 0.000E+00

     total cpu time spent up to now is    58788.6 secs

     total energy              =  -11682.11398008 Ry
     estimated scf accuracy    <       0.00000473 Ry

     iteration #200     ecut=    80.00 Ry     beta= 0.10
     Davidson diagonalization with overlap
     ethr =  1.06E-10,  avg # of iterations =  1.0

     negative rho (up, down):  5.905E-02 0.000E+00

     total cpu time spent up to now is    59077.4 secs

     total energy              =  -11682.11398009 Ry
     estimated scf accuracy    <       0.00000378 Ry

     iteration #201     ecut=    80.00 Ry     beta= 0.10
     Davidson diagonalization with overlap
     ethr =  1.06E-10,  avg # of iterations =  1.0

     negative rho (up, down):  5.905E-02 0.000E+00

     total cpu time spent up to now is    59367.0 secs

     total energy              =  -11682.11398006 Ry
     estimated scf accuracy    <       0.00000490 Ry

     iteration #202     ecut=    80.00 Ry     beta= 0.10
     Davidson diagonalization with overlap
     ethr =  1.06E-10,  avg # of iterations =  1.0

     negative rho (up, down):  5.905E-02 0.000E+00

     total cpu time spent up to now is    59657.9 secs

     total energy              =  -11682.11398005 Ry
     estimated scf accuracy    <       0.00001180 Ry

     iteration #203     ecut=    80.00 Ry     beta= 0.10
     Davidson diagonalization with overlap
     ethr =  1.06E-10,  avg # of iterations =  1.0

     negative rho (up, down):  5.905E-02 0.000E+00

     total cpu time spent up to now is    59946.9 secs

     total energy              =  -11682.11398008 Ry
     estimated scf accuracy    <       0.00000547 Ry

     iteration #204     ecut=    80.00 Ry     beta= 0.10
     Davidson diagonalization with overlap
     ethr =  1.06E-10,  avg # of iterations =  1.0

     negative rho (up, down):  5.905E-02 0.000E+00

     total cpu time spent up to now is    60238.1 secs

     total energy              =  -11682.11398012 Ry
     estimated scf accuracy    <       0.00000190 Ry

     iteration #205     ecut=    80.00 Ry     beta= 0.10
     Davidson diagonalization with overlap
     ethr =  1.02E-10,  avg # of iterations =  1.0

     negative rho (up, down):  5.906E-02 0.000E+00

     total cpu time spent up to now is    60528.1 secs

     total energy              =  -11682.11398014 Ry
     estimated scf accuracy    <       0.00000169 Ry

     iteration #206     ecut=    80.00 Ry     beta= 0.10
     Davidson diagonalization with overlap
     ethr =  9.03E-11,  avg # of iterations =  1.0

     negative rho (up, down):  5.906E-02 0.000E+00

     total cpu time spent up to now is    60818.2 secs

     total energy              =  -11682.11398016 Ry
     estimated scf accuracy    <       0.00000096 Ry

     iteration #207     ecut=    80.00 Ry     beta= 0.10
     Davidson diagonalization with overlap
     ethr =  5.14E-11,  avg # of iterations =  1.0

     negative rho (up, down):  5.906E-02 0.000E+00

     total cpu time spent up to now is    61107.7 secs

     total energy              =  -11682.11398015 Ry
     estimated scf accuracy    <       0.00000110 Ry

     iteration #208     ecut=    80.00 Ry     beta= 0.10
     Davidson diagonalization with overlap
     ethr =  5.14E-11,  avg # of iterations =  1.0

     negative rho (up, down):  5.906E-02 0.000E+00

     total cpu time spent up to now is    61397.7 secs

     total energy              =  -11682.11398016 Ry
     estimated scf accuracy    <       0.00000182 Ry

     iteration #209     ecut=    80.00 Ry     beta= 0.10
     Davidson diagonalization with overlap
     ethr =  5.14E-11,  avg # of iterations =  1.0

     negative rho (up, down):  5.906E-02 0.000E+00

     total cpu time spent up to now is    61687.8 secs

     total energy              =  -11682.11398018 Ry
     estimated scf accuracy    <       0.00000152 Ry

     iteration #210     ecut=    80.00 Ry     beta= 0.10
     Davidson diagonalization with overlap
     ethr =  5.14E-11,  avg # of iterations =  1.0

     negative rho (up, down):  5.906E-02 0.000E+00

     total cpu time spent up to now is    61978.3 secs

     total energy              =  -11682.11398018 Ry
     estimated scf accuracy    <       0.00000119 Ry

     iteration #211     ecut=    80.00 Ry     beta= 0.10
     Davidson diagonalization with overlap
     ethr =  5.14E-11,  avg # of iterations =  1.0

     negative rho (up, down):  5.906E-02 0.000E+00

     total cpu time spent up to now is    62267.8 secs

     total energy              =  -11682.11398018 Ry
     estimated scf accuracy    <       0.00000190 Ry

     iteration #212     ecut=    80.00 Ry     beta= 0.10
     Davidson diagonalization with overlap
     ethr =  5.14E-11,  avg # of iterations =  1.0

     negative rho (up, down):  5.906E-02 0.000E+00

     total cpu time spent up to now is    62558.6 secs

     total energy              =  -11682.11398017 Ry
     estimated scf accuracy    <       0.00000672 Ry

     iteration #213     ecut=    80.00 Ry     beta= 0.10
     Davidson diagonalization with overlap
     ethr =  5.14E-11,  avg # of iterations =  1.0

     negative rho (up, down):  5.906E-02 0.000E+00

     total cpu time spent up to now is    62848.2 secs

     total energy              =  -11682.11398017 Ry
     estimated scf accuracy    <       0.00000334 Ry

     iteration #214     ecut=    80.00 Ry     beta= 0.10
     Davidson diagonalization with overlap
     ethr =  5.14E-11,  avg # of iterations =  1.0

     negative rho (up, down):  5.906E-02 0.000E+00

     total cpu time spent up to now is    63138.5 secs

     total energy              =  -11682.11398019 Ry
     estimated scf accuracy    <       0.00000168 Ry

     iteration #215     ecut=    80.00 Ry     beta= 0.10
     Davidson diagonalization with overlap
     ethr =  5.14E-11,  avg # of iterations =  1.0

     negative rho (up, down):  5.906E-02 0.000E+00

     total cpu time spent up to now is    63428.1 secs

     total energy              =  -11682.11398020 Ry
     estimated scf accuracy    <       0.00000166 Ry

     iteration #216     ecut=    80.00 Ry     beta= 0.10
     Davidson diagonalization with overlap
     ethr =  5.14E-11,  avg # of iterations =  1.0

     negative rho (up, down):  5.906E-02 0.000E+00

     total cpu time spent up to now is    63718.2 secs

     total energy              =  -11682.11398021 Ry
     estimated scf accuracy    <       0.00000071 Ry

     iteration #217     ecut=    80.00 Ry     beta= 0.10
     Davidson diagonalization with overlap
     ethr =  3.81E-11,  avg # of iterations =  1.0

     negative rho (up, down):  5.906E-02 0.000E+00

     total cpu time spent up to now is    64008.2 secs

     total energy              =  -11682.11398021 Ry
     estimated scf accuracy    <       0.00000058 Ry

     iteration #218     ecut=    80.00 Ry     beta= 0.10
     Davidson diagonalization with overlap
     ethr =  3.08E-11,  avg # of iterations =  1.0

     negative rho (up, down):  5.906E-02 0.000E+00

     total cpu time spent up to now is    64299.1 secs

     total energy              =  -11682.11398021 Ry
     estimated scf accuracy    <       0.00000089 Ry

     iteration #219     ecut=    80.00 Ry     beta= 0.10
     Davidson diagonalization with overlap
     ethr =  3.08E-11,  avg # of iterations =  1.0

     negative rho (up, down):  5.906E-02 0.000E+00

     total cpu time spent up to now is    64589.8 secs

     total energy              =  -11682.11398022 Ry
     estimated scf accuracy    <       0.00000061 Ry

     iteration #220     ecut=    80.00 Ry     beta= 0.10
     Davidson diagonalization with overlap
     ethr =  3.08E-11,  avg # of iterations =  1.0

     negative rho (up, down):  5.906E-02 0.000E+00

     total cpu time spent up to now is    64880.2 secs

     total energy              =  -11682.11398022 Ry
     estimated scf accuracy    <       0.00000041 Ry

     iteration #221     ecut=    80.00 Ry     beta= 0.10
     Davidson diagonalization with overlap
     ethr =  2.17E-11,  avg # of iterations =  1.0

     negative rho (up, down):  5.906E-02 0.000E+00

     total cpu time spent up to now is    65170.3 secs

     total energy              =  -11682.11398022 Ry
     estimated scf accuracy    <       0.00000061 Ry

     iteration #222     ecut=    80.00 Ry     beta= 0.10
     Davidson diagonalization with overlap
     ethr =  2.17E-11,  avg # of iterations =  1.0

     negative rho (up, down):  5.906E-02 0.000E+00

     total cpu time spent up to now is    65459.6 secs

     total energy              =  -11682.11398022 Ry
     estimated scf accuracy    <       0.00000244 Ry

     iteration #223     ecut=    80.00 Ry     beta= 0.10
     Davidson diagonalization with overlap
     ethr =  2.17E-11,  avg # of iterations =  1.0

     negative rho (up, down):  5.906E-02 0.000E+00

     total cpu time spent up to now is    65750.1 secs

     total energy              =  -11682.11398022 Ry
     estimated scf accuracy    <       0.00000118 Ry

     iteration #224     ecut=    80.00 Ry     beta= 0.10
     Davidson diagonalization with overlap
     ethr =  2.17E-11,  avg # of iterations =  1.0

     negative rho (up, down):  5.906E-02 0.000E+00

     total cpu time spent up to now is    66039.8 secs

     total energy              =  -11682.11398022 Ry
     estimated scf accuracy    <       0.00000104 Ry

     iteration #225     ecut=    80.00 Ry     beta= 0.10
     Davidson diagonalization with overlap
     ethr =  2.17E-11,  avg # of iterations =  1.0

     negative rho (up, down):  5.906E-02 0.000E+00

     total cpu time spent up to now is    66329.8 secs

     total energy              =  -11682.11398022 Ry
     estimated scf accuracy    <       0.00000136 Ry

     iteration #226     ecut=    80.00 Ry     beta= 0.10
     Davidson diagonalization with overlap
     ethr =  2.17E-11,  avg # of iterations =  1.0

     negative rho (up, down):  5.906E-02 0.000E+00

     total cpu time spent up to now is    66619.9 secs

     total energy              =  -11682.11398023 Ry
     estimated scf accuracy    <       0.00000060 Ry

     iteration #227     ecut=    80.00 Ry     beta= 0.10
     Davidson diagonalization with overlap
     ethr =  2.17E-11,  avg # of iterations =  1.0

     negative rho (up, down):  5.906E-02 0.000E+00

     total cpu time spent up to now is    66910.0 secs

     total energy              =  -11682.11398023 Ry
     estimated scf accuracy    <       0.00000048 Ry

     iteration #228     ecut=    80.00 Ry     beta= 0.10
     Davidson diagonalization with overlap
     ethr =  2.17E-11,  avg # of iterations =  1.0

     negative rho (up, down):  5.906E-02 0.000E+00

     total cpu time spent up to now is    67199.5 secs

     total energy              =  -11682.11398023 Ry
     estimated scf accuracy    <       0.00000079 Ry

     iteration #229     ecut=    80.00 Ry     beta= 0.10
     Davidson diagonalization with overlap
     ethr =  2.17E-11,  avg # of iterations =  1.0

     negative rho (up, down):  5.906E-02 0.000E+00

     total cpu time spent up to now is    67489.6 secs

     total energy              =  -11682.11398023 Ry
     estimated scf accuracy    <       0.00000046 Ry

     iteration #230     ecut=    80.00 Ry     beta= 0.10
     Davidson diagonalization with overlap
     ethr =  2.17E-11,  avg # of iterations =  1.0

     negative rho (up, down):  5.906E-02 0.000E+00

     total cpu time spent up to now is    67779.6 secs

     total energy              =  -11682.11398024 Ry
     estimated scf accuracy    <       0.00000022 Ry

     iteration #231     ecut=    80.00 Ry     beta= 0.10
     Davidson diagonalization with overlap
     ethr =  1.16E-11,  avg # of iterations =  1.0

     negative rho (up, down):  5.906E-02 0.000E+00

     total cpu time spent up to now is    68070.1 secs

     total energy              =  -11682.11398024 Ry
     estimated scf accuracy    <       0.00000021 Ry

     iteration #232     ecut=    80.00 Ry     beta= 0.10
     Davidson diagonalization with overlap
     ethr =  1.10E-11,  avg # of iterations =  1.0

     negative rho (up, down):  5.906E-02 0.000E+00

     total cpu time spent up to now is    68358.8 secs

     total energy              =  -11682.11398024 Ry
     estimated scf accuracy    <       0.00000065 Ry

     iteration #233     ecut=    80.00 Ry     beta= 0.10
     Davidson diagonalization with overlap
     ethr =  1.10E-11,  avg # of iterations =  1.0

     negative rho (up, down):  5.906E-02 0.000E+00

     total cpu time spent up to now is    68649.4 secs

     total energy              =  -11682.11398024 Ry
     estimated scf accuracy    <       0.00000032 Ry

     iteration #234     ecut=    80.00 Ry     beta= 0.10
     Davidson diagonalization with overlap
     ethr =  1.10E-11,  avg # of iterations =  1.0

     negative rho (up, down):  5.906E-02 0.000E+00

     total cpu time spent up to now is    68940.9 secs

     total energy              =  -11682.11398024 Ry
     estimated scf accuracy    <       0.00000045 Ry

     iteration #235     ecut=    80.00 Ry     beta= 0.10
     Davidson diagonalization with overlap
     ethr =  1.10E-11,  avg # of iterations =  1.0

     negative rho (up, down):  5.906E-02 0.000E+00

     total cpu time spent up to now is    69231.1 secs

     total energy              =  -11682.11398024 Ry
     estimated scf accuracy    <       0.00000076 Ry

     iteration #236     ecut=    80.00 Ry     beta= 0.10
     Davidson diagonalization with overlap
     ethr =  1.10E-11,  avg # of iterations =  1.0

     negative rho (up, down):  5.906E-02 0.000E+00

     total cpu time spent up to now is    69522.1 secs

     total energy              =  -11682.11398024 Ry
     estimated scf accuracy    <       0.00000041 Ry

     iteration #237     ecut=    80.00 Ry     beta= 0.10
     Davidson diagonalization with overlap
     ethr =  1.10E-11,  avg # of iterations =  1.0

     negative rho (up, down):  5.906E-02 0.000E+00

     total cpu time spent up to now is    69813.8 secs

     total energy              =  -11682.11398024 Ry
     estimated scf accuracy    <       0.00000037 Ry

     iteration #238     ecut=    80.00 Ry     beta= 0.10
     Davidson diagonalization with overlap
     ethr =  1.10E-11,  avg # of iterations =  1.0

     negative rho (up, down):  5.906E-02 0.000E+00

     total cpu time spent up to now is    70103.2 secs

     total energy              =  -11682.11398024 Ry
     estimated scf accuracy    <       0.00000070 Ry

     iteration #239     ecut=    80.00 Ry     beta= 0.10
     Davidson diagonalization with overlap
     ethr =  1.10E-11,  avg # of iterations =  1.0

     negative rho (up, down):  5.906E-02 0.000E+00

     total cpu time spent up to now is    70393.6 secs

     total energy              =  -11682.11398024 Ry
     estimated scf accuracy    <       0.00000041 Ry

     iteration #240     ecut=    80.00 Ry     beta= 0.10
     Davidson diagonalization with overlap
     ethr =  1.10E-11,  avg # of iterations =  1.0

     negative rho (up, down):  5.906E-02 0.000E+00

     total cpu time spent up to now is    70682.7 secs

     total energy              =  -11682.11398024 Ry
     estimated scf accuracy    <       0.00000020 Ry

     iteration #241     ecut=    80.00 Ry     beta= 0.10
     Davidson diagonalization with overlap
     ethr =  1.06E-11,  avg # of iterations =  1.0

     negative rho (up, down):  5.906E-02 0.000E+00

     total cpu time spent up to now is    70973.8 secs

     total energy              =  -11682.11398024 Ry
     estimated scf accuracy    <       0.00000012 Ry

     iteration #242     ecut=    80.00 Ry     beta= 0.10
     Davidson diagonalization with overlap
     ethr =  6.39E-12,  avg # of iterations =  1.0

     negative rho (up, down):  5.906E-02 0.000E+00

     total cpu time spent up to now is    71263.4 secs

     total energy              =  -11682.11398024 Ry
     estimated scf accuracy    <       0.00000022 Ry

     iteration #243     ecut=    80.00 Ry     beta= 0.10
     Davidson diagonalization with overlap
     ethr =  6.39E-12,  avg # of iterations =  1.0

     negative rho (up, down):  5.906E-02 0.000E+00

     total cpu time spent up to now is    71553.6 secs

     total energy              =  -11682.11398024 Ry
     estimated scf accuracy    <       0.00000010 Ry

     iteration #244     ecut=    80.00 Ry     beta= 0.10
     Davidson diagonalization with overlap
     ethr =  5.37E-12,  avg # of iterations =  1.0

     negative rho (up, down):  5.906E-02 0.000E+00

     total cpu time spent up to now is    71843.4 secs

     total energy              =  -11682.11398024 Ry
     estimated scf accuracy    <       0.00000016 Ry

     iteration #245     ecut=    80.00 Ry     beta= 0.10
     Davidson diagonalization with overlap
     ethr =  5.37E-12,  avg # of iterations =  1.0

     negative rho (up, down):  5.906E-02 0.000E+00

     total cpu time spent up to now is    72133.4 secs

     total energy              =  -11682.11398024 Ry
     estimated scf accuracy    <       0.00000030 Ry

     iteration #246     ecut=    80.00 Ry     beta= 0.10
     Davidson diagonalization with overlap
     ethr =  5.37E-12,  avg # of iterations =  1.0

     negative rho (up, down):  5.906E-02 0.000E+00

     total cpu time spent up to now is    72423.5 secs

     total energy              =  -11682.11398024 Ry
     estimated scf accuracy    <       0.00000020 Ry

     iteration #247     ecut=    80.00 Ry     beta= 0.10
     Davidson diagonalization with overlap
     ethr =  5.37E-12,  avg # of iterations =  1.0

     negative rho (up, down):  5.906E-02 0.000E+00

     total cpu time spent up to now is    72714.2 secs

     total energy              =  -11682.11398024 Ry
     estimated scf accuracy    <       0.00000021 Ry

     iteration #248     ecut=    80.00 Ry     beta= 0.10
     Davidson diagonalization with overlap
     ethr =  5.37E-12,  avg # of iterations =  1.0

     negative rho (up, down):  5.906E-02 0.000E+00

     total cpu time spent up to now is    73003.8 secs

     total energy              =  -11682.11398024 Ry
     estimated scf accuracy    <       0.00000037 Ry

     iteration #249     ecut=    80.00 Ry     beta= 0.10
     Davidson diagonalization with overlap
     ethr =  5.37E-12,  avg # of iterations =  1.0

     negative rho (up, down):  5.906E-02 0.000E+00

     total cpu time spent up to now is    73293.8 secs

     total energy              =  -11682.11398024 Ry
     estimated scf accuracy    <       0.00000026 Ry

     iteration #250     ecut=    80.00 Ry     beta= 0.10
     Davidson diagonalization with overlap
     ethr =  5.37E-12,  avg # of iterations =  1.0

     negative rho (up, down):  5.906E-02 0.000E+00

     total cpu time spent up to now is    73584.4 secs

     total energy              =  -11682.11398024 Ry
     estimated scf accuracy    <       0.00000021 Ry

     iteration #251     ecut=    80.00 Ry     beta= 0.10
     Davidson diagonalization with overlap
     ethr =  5.37E-12,  avg # of iterations =  1.0

     negative rho (up, down):  5.906E-02 0.000E+00

     total cpu time spent up to now is    73874.7 secs

     total energy              =  -11682.11398024 Ry
     estimated scf accuracy    <       0.00000012 Ry

     iteration #252     ecut=    80.00 Ry     beta= 0.10
     Davidson diagonalization with overlap
     ethr =  5.37E-12,  avg # of iterations =  1.0

     negative rho (up, down):  5.906E-02 0.000E+00

     total cpu time spent up to now is    74163.7 secs

     total energy              =  -11682.11398024 Ry
     estimated scf accuracy    <       0.00000018 Ry

     iteration #253     ecut=    80.00 Ry     beta= 0.10
     Davidson diagonalization with overlap
     ethr =  5.37E-12,  avg # of iterations =  1.0

     negative rho (up, down):  5.906E-02 0.000E+00

     total cpu time spent up to now is    74452.7 secs

     total energy              =  -11682.11398024 Ry
     estimated scf accuracy    <       0.00000005 Ry

     iteration #254     ecut=    80.00 Ry     beta= 0.10
     Davidson diagonalization with overlap
     ethr =  2.73E-12,  avg # of iterations =  1.0

     negative rho (up, down):  5.906E-02 0.000E+00

     total cpu time spent up to now is    74742.8 secs

     total energy              =  -11682.11398024 Ry
     estimated scf accuracy    <       0.00000006 Ry

     iteration #255     ecut=    80.00 Ry     beta= 0.10
     Davidson diagonalization with overlap
     ethr =  2.73E-12,  avg # of iterations =  1.0

     negative rho (up, down):  5.906E-02 0.000E+00

     total cpu time spent up to now is    75033.1 secs

     total energy              =  -11682.11398024 Ry
     estimated scf accuracy    <       0.00000010 Ry

     iteration #256     ecut=    80.00 Ry     beta= 0.10
     Davidson diagonalization with overlap
     ethr =  2.73E-12,  avg # of iterations =  1.0

     negative rho (up, down):  5.906E-02 0.000E+00

     total cpu time spent up to now is    75322.9 secs

     total energy              =  -11682.11398024 Ry
     estimated scf accuracy    <       0.00000008 Ry

     iteration #257     ecut=    80.00 Ry     beta= 0.10
     Davidson diagonalization with overlap
     ethr =  2.73E-12,  avg # of iterations =  1.0

     negative rho (up, down):  5.906E-02 0.000E+00

     total cpu time spent up to now is    75613.4 secs

     total energy              =  -11682.11398024 Ry
     estimated scf accuracy    <       0.00000008 Ry

     iteration #258     ecut=    80.00 Ry     beta= 0.10
     Davidson diagonalization with overlap
     ethr =  2.73E-12,  avg # of iterations =  1.0

     negative rho (up, down):  5.906E-02 0.000E+00

     total cpu time spent up to now is    75903.1 secs

     total energy              =  -11682.11398024 Ry
     estimated scf accuracy    <       0.00000012 Ry

     iteration #259     ecut=    80.00 Ry     beta= 0.10
     Davidson diagonalization with overlap
     ethr =  2.73E-12,  avg # of iterations =  1.0

     negative rho (up, down):  5.906E-02 0.000E+00

     total cpu time spent up to now is    76192.8 secs

     total energy              =  -11682.11398024 Ry
     estimated scf accuracy    <       0.00000012 Ry

     iteration #260     ecut=    80.00 Ry     beta= 0.10
     Davidson diagonalization with overlap
     ethr =  2.73E-12,  avg # of iterations =  1.0

     negative rho (up, down):  5.906E-02 0.000E+00

     total cpu time spent up to now is    76482.1 secs

     total energy              =  -11682.11398024 Ry
     estimated scf accuracy    <       0.00000019 Ry

     iteration #261     ecut=    80.00 Ry     beta= 0.10
     Davidson diagonalization with overlap
     ethr =  2.73E-12,  avg # of iterations =  1.0

     negative rho (up, down):  5.906E-02 0.000E+00

     total cpu time spent up to now is    76773.4 secs

     total energy              =  -11682.11398024 Ry
     estimated scf accuracy    <       0.00000013 Ry

     iteration #262     ecut=    80.00 Ry     beta= 0.10
     Davidson diagonalization with overlap
     ethr =  2.73E-12,  avg # of iterations =  1.0

     negative rho (up, down):  5.906E-02 0.000E+00

     total cpu time spent up to now is    77063.4 secs

     total energy              =  -11682.11398024 Ry
     estimated scf accuracy    <       0.00000020 Ry

     iteration #263     ecut=    80.00 Ry     beta= 0.10
     Davidson diagonalization with overlap
     ethr =  2.73E-12,  avg # of iterations =  1.0

     negative rho (up, down):  5.906E-02 0.000E+00

     total cpu time spent up to now is    77353.6 secs

     total energy              =  -11682.11398024 Ry
     estimated scf accuracy    <       0.00000004 Ry

     iteration #264     ecut=    80.00 Ry     beta= 0.10
     Davidson diagonalization with overlap
     ethr =  2.12E-12,  avg # of iterations =  1.0

     negative rho (up, down):  5.906E-02 0.000E+00

     total cpu time spent up to now is    77644.4 secs

     total energy              =  -11682.11398024 Ry
     estimated scf accuracy    <       0.00000003 Ry

     iteration #265     ecut=    80.00 Ry     beta= 0.10
     Davidson diagonalization with overlap
     ethr =  1.85E-12,  avg # of iterations =  1.0

     negative rho (up, down):  5.906E-02 0.000E+00

     total cpu time spent up to now is    77934.8 secs

     total energy              =  -11682.11398024 Ry
     estimated scf accuracy    <       0.00000005 Ry

     iteration #266     ecut=    80.00 Ry     beta= 0.10
     Davidson diagonalization with overlap
     ethr =  1.85E-12,  avg # of iterations =  1.0

     negative rho (up, down):  5.906E-02 0.000E+00

     total cpu time spent up to now is    78225.4 secs

     total energy              =  -11682.11398024 Ry
     estimated scf accuracy    <       0.00000003 Ry

     iteration #267     ecut=    80.00 Ry     beta= 0.10
     Davidson diagonalization with overlap
     ethr =  1.63E-12,  avg # of iterations =  1.0

     negative rho (up, down):  5.906E-02 0.000E+00

     total cpu time spent up to now is    78515.0 secs

     total energy              =  -11682.11398024 Ry
     estimated scf accuracy    <       0.00000003 Ry

     iteration #268     ecut=    80.00 Ry     beta= 0.10
     Davidson diagonalization with overlap
     ethr =  1.46E-12,  avg # of iterations =  1.0

     negative rho (up, down):  5.906E-02 0.000E+00

     total cpu time spent up to now is    78804.1 secs

     total energy              =  -11682.11398024 Ry
     estimated scf accuracy    <       0.00000003 Ry

     iteration #269     ecut=    80.00 Ry     beta= 0.10
     Davidson diagonalization with overlap
     ethr =  1.46E-12,  avg # of iterations =  1.0

     negative rho (up, down):  5.906E-02 0.000E+00

     total cpu time spent up to now is    79093.4 secs

     total energy              =  -11682.11398023 Ry
     estimated scf accuracy    <       0.00000004 Ry

     iteration #270     ecut=    80.00 Ry     beta= 0.10
     Davidson diagonalization with overlap
     ethr =  1.46E-12,  avg # of iterations =  1.0

     negative rho (up, down):  5.906E-02 0.000E+00

     total cpu time spent up to now is    79382.5 secs

     total energy              =  -11682.11398024 Ry
     estimated scf accuracy    <       0.00000009 Ry

     iteration #271     ecut=    80.00 Ry     beta= 0.10
     Davidson diagonalization with overlap
     ethr =  1.46E-12,  avg # of iterations =  1.0

     negative rho (up, down):  5.906E-02 0.000E+00

     total cpu time spent up to now is    79673.0 secs

     total energy              =  -11682.11398024 Ry
     estimated scf accuracy    <       0.00000009 Ry

     iteration #272     ecut=    80.00 Ry     beta= 0.10
     Davidson diagonalization with overlap
     ethr =  1.46E-12,  avg # of iterations =  1.0

     negative rho (up, down):  5.906E-02 0.000E+00

     total cpu time spent up to now is    79962.4 secs

     total energy              =  -11682.11398024 Ry
     estimated scf accuracy    <       0.00000014 Ry

     iteration #273     ecut=    80.00 Ry     beta= 0.10
     Davidson diagonalization with overlap
     ethr =  1.46E-12,  avg # of iterations =  1.0

     negative rho (up, down):  5.906E-02 0.000E+00

     total cpu time spent up to now is    80251.6 secs

     total energy              =  -11682.11398024 Ry
     estimated scf accuracy    <       0.00000003 Ry

     iteration #274     ecut=    80.00 Ry     beta= 0.10
     Davidson diagonalization with overlap
     ethr =  1.46E-12,  avg # of iterations =  1.0

     negative rho (up, down):  5.906E-02 0.000E+00

     total cpu time spent up to now is    80540.2 secs

     total energy              =  -11682.11398024 Ry
     estimated scf accuracy    <       0.00000003 Ry

     iteration #275     ecut=    80.00 Ry     beta= 0.10
     Davidson diagonalization with overlap
     ethr =  1.36E-12,  avg # of iterations =  1.0

     negative rho (up, down):  5.906E-02 0.000E+00

     total cpu time spent up to now is    80830.3 secs

     total energy              =  -11682.11398023 Ry
     estimated scf accuracy    <       0.00000003 Ry

     iteration #276     ecut=    80.00 Ry     beta= 0.10
     Davidson diagonalization with overlap
     ethr =  1.36E-12,  avg # of iterations =  1.0

     negative rho (up, down):  5.906E-02 0.000E+00

     total cpu time spent up to now is    81119.9 secs

     total energy              =  -11682.11398024 Ry
     estimated scf accuracy    <       0.00000002 Ry

     iteration #277     ecut=    80.00 Ry     beta= 0.10
     Davidson diagonalization with overlap
     ethr =  1.03E-12,  avg # of iterations =  1.0

     negative rho (up, down):  5.906E-02 0.000E+00

     total cpu time spent up to now is    81409.3 secs

     total energy              =  -11682.11398023 Ry
     estimated scf accuracy    <       0.00000001 Ry

     iteration #278     ecut=    80.00 Ry     beta= 0.10
     Davidson diagonalization with overlap
     ethr =  7.42E-13,  avg # of iterations =  1.0

     negative rho (up, down):  5.906E-02 0.000E+00

     total cpu time spent up to now is    81699.1 secs

     End of self-consistent calculation

          k = 0.0000 0.0000 0.0000 (****** PWs)   bands (ev):

   -57.9644 -56.1969 -55.8613 -55.8300 -55.6363 -55.5861 -55.0296 -55.0170
   -54.7574 -54.5039 -53.8741 -29.8910 -29.8736 -29.8358 -28.1477 -28.1050
   -28.0639 -27.7946 -27.7870 -27.7667 -27.7481 -27.7471 -27.7252 -27.5699
   -27.5537 -27.5416 -27.5042 -27.4881 -27.4595 -27.1290 -27.0004 -26.9703
   -26.9403 -26.9087 -26.9055 -26.8883 -26.7497 -26.6983 -26.6577 -26.4802
   -26.4415 -26.3864 -26.2586 -26.1226 -25.8748 -25.8253 -25.7968 -25.7787
   -25.7662 -25.7567 -25.6111 -25.5831 -25.5614 -25.5567 -25.4518 -25.3629
   -25.2967 -25.2380 -25.1887 -25.1309 -25.1073 -25.0553 -25.0307 -25.0126
   -25.0031 -24.9922 -24.9486 -24.9064 -24.8955 -24.8851 -24.8503 -24.8492
   -24.8015 -24.7856 -24.7574 -24.7341 -24.7073 -24.6678 -24.6464 -24.6252
   -24.6081 -24.6056 -24.5708 -24.5497 -24.5353 -24.5109 -24.4893 -24.4533
   -24.4400 -24.4056 -24.4018 -24.3793 -24.3633 -24.3350 -24.3267 -24.3025
   -24.2938 -24.2676 -24.2573 -24.2445 -24.2155 -24.2097 -24.1845 -24.1741
   -24.1508 -24.1239 -24.1047 -24.0972 -24.0807 -24.0613 -24.0495 -24.0199
   -23.9910 -23.9761 -23.9628 -23.9420 -23.9275 -23.8996 -23.8708 -23.8669
   -23.8132 -23.7925 -23.7886 -23.7738 -23.7563 -23.7409 -23.7325 -23.7211
   -23.7040 -23.6993 -23.6923 -23.6838 -23.6745 -23.6664 -23.6350 -23.6221
   -23.6080 -23.6024 -23.5872 -23.5638 -23.5554 -23.5436 -23.5243 -23.5129
   -23.5028 -23.4882 -23.4729 -23.4441 -23.4144 -23.4041 -23.3884 -23.3862
   -23.3588 -23.3456 -23.3425 -23.3088 -23.3010 -23.2880 -23.2781 -23.2598
   -23.2480 -23.2218 -23.2139 -23.1935 -23.1842 -23.1550 -23.1457 -23.1254
   -23.1231 -23.0997 -23.0904 -23.0813 -23.0603 -23.0509 -23.0489 -23.0361
   -23.0181 -23.0110 -22.9942 -22.9577 -22.9301 -22.9114 -22.9042 -22.8889
   -22.8787 -22.8579 -22.8436 -22.8315 -22.8287 -22.8002 -22.7915 -22.7752
   -22.7661 -22.7501 -22.7121 -22.7030 -22.6996 -22.6971 -22.6631 -22.6586
   -22.6381 -22.5637 -22.5246 -22.5184 -22.4726 -22.4523 -22.3967 -22.3927
   -22.3881 -22.3837 -22.3787 -22.3267 -22.2636 -22.2435 -22.2365 -22.2179
   -22.2065 -22.1730 -22.1108 -22.0285 -21.9839 -21.9760 -21.9355 -21.8363
   -21.6496 -21.5794 -21.5755 -21.5597 -21.5053 -21.4506 -21.4251 -21.3918
   -21.3227 -21.3052 -20.6591 -20.5951 -20.5614 -20.5551 -20.5520 -20.5233
   -20.5219 -20.4720 -20.4683 -20.3592 -20.3279 -20.1611 -20.0771 -20.0695
   -20.0120 -19.8260 -19.7330 -19.7305 -19.7282 -19.7169 -19.7101 -19.7079
   -19.7076 -19.6776 -19.6737 -19.6623 -19.6009 -18.8639 -18.5187 -17.6418
   -16.8731 -16.0916 -15.3436 -15.2107 -15.1445 -15.0750 -14.9671 -14.8892
   -14.8541 -14.7820 -14.7467 -14.7026 -14.6540 -14.5876 -14.5787 -14.5282
   -14.5037 -14.4182 -14.3382 -14.2867 -14.2067 -14.1780 -14.1255 -14.0979
   -14.0283 -14.0050 -13.9605 -13.9557 -13.9178 -13.9013 -13.8780 -13.8116
   -13.7939 -13.7489 -13.7402 -13.6861 -13.6577 -13.6033 -13.5336 -13.5205
   -13.4504 -13.4420 -13.4390 -13.4188 -13.3711 -13.3200 -13.2952 -13.2836
   -13.2154 -13.2083 -13.1883 -13.1510 -13.1271 -13.0856 -13.0785 -13.0493
   -13.0052 -12.9888 -12.9588 -12.9253 -12.9011 -12.8820 -12.8473 -12.8239
   -12.7989 -12.7697 -12.7313 -12.7216 -12.6639 -12.6440 -12.6250 -12.5484
   -12.5377 -12.5161 -12.4802 -12.4400 -12.4111 -12.3716 -12.3581 -12.3240
   -12.3141 -12.2962 -12.2892 -12.2257 -12.2083 -12.1643 -12.1428 -12.1228
   -12.0802 -12.0379 -12.0195 -11.9963 -11.9756 -11.9446 -11.9133 -11.8849
   -11.8630 -11.8498 -11.8244 -11.8051 -11.7805 -11.7462 -11.7372 -11.7005
   -11.6982 -11.6899 -11.6432 -11.6322 -11.5974 -11.5944 -11.5788 -11.5642
   -11.5408 -11.5335 -11.5147 -11.4923 -11.4785 -11.4630 -11.4593 -11.4421
   -11.4225 -11.4103 -11.3828 -11.3738 -11.3685 -11.3298 -11.3105 -11.2928
   -11.2707 -11.2635 -11.2457 -11.2116 -11.1932 -11.1688 -11.1629 -11.1415
   -11.1370 -11.1178 -11.1168 -11.0956 -11.0822 -11.0663 -11.0616 -11.0351
   -10.9874 -10.9846 -10.9583 -10.9472 -10.9247 -10.8985 -10.8892 -10.8777
   -10.8735 -10.8507 -10.8489 -10.8228 -10.8206 -10.8172 -10.8095 -10.7772
   -10.7741 -10.7386 -10.7167 -10.7070 -10.6892 -10.6883 -10.6584 -10.6503
   -10.6122 -10.5786 -10.5600 -10.5447 -10.5399 -10.5323 -10.5157 -10.4859
   -10.4708 -10.4576 -10.4268 -10.3866 -10.3766 -10.3299 -10.3065 -10.2927
   -10.2780 -10.2303 -10.2083 -10.2031 -10.1804 -10.1612 -10.1082 -10.0724
   -10.0701 -10.0446 -10.0263  -9.9892  -9.9569  -9.9085  -9.8946  -9.8724
    -9.8574  -9.8338  -9.8070  -9.7933  -9.7821  -9.7618  -9.7392  -9.7148
    -9.6638  -9.6454  -9.5878  -9.5834  -9.5661  -9.5429  -9.5261  -9.5108
    -9.4938  -9.4803  -9.4640  -9.4483  -9.4161  -9.3945  -9.3695  -9.3621
    -9.3360  -9.3315  -9.3220  -9.3092  -9.2997  -9.2950  -9.2874  -9.2680
    -9.2418  -9.2264  -9.2200  -9.1853  -9.1770  -9.1667  -9.1447  -9.1366
    -9.1186  -9.1046  -9.0753  -9.0554  -9.0404  -9.0145  -9.0133  -8.9729
    -8.9638  -8.9390  -8.9076  -8.9063  -8.8786  -8.8633  -8.8534  -8.8450
    -8.8364  -8.8221  -8.8032  -8.7824  -8.7689  -8.7600  -8.7370  -8.7303
    -8.7189  -8.7075  -8.6978  -8.6823  -8.6628  -8.6603  -8.6560  -8.6412
    -8.6358  -8.6189  -8.5908  -8.5851  -8.5680  -8.5671  -8.5490  -8.5407
    -8.5325  -8.5316  -8.5152  -8.5140  -8.5082  -8.4977  -8.4878  -8.4746
    -8.4622  -8.4532  -8.4423  -8.4312  -8.4142  -8.3936  -8.3888  -8.3819
    -8.3714  -8.3644  -8.3585  -8.3427  -8.3298  -8.3246  -8.3104  -8.3022
    -8.2946  -8.2828  -8.2672  -8.2609  -8.2454  -8.2323  -8.2203  -8.2168
    -8.2124  -8.2004  -8.1913  -8.1746  -8.1703  -8.1618  -8.1441  -8.1389
    -8.1378  -8.1263  -8.1060  -8.0874  -8.0798  -8.0699  -8.0601  -8.0468
    -8.0340  -8.0332  -8.0257  -8.0175  -8.0027  -7.9946  -7.9862  -7.9774
    -7.9574  -7.9531  -7.9468  -7.9405  -7.9373  -7.9142  -7.9099  -7.9068
    -7.8829  -7.8791  -7.8663  -7.8564  -7.8487  -7.8368  -7.8322  -7.8204
    -7.8188  -7.8034  -7.7989  -7.7893  -7.7745  -7.7706  -7.7605  -7.7473
    -7.7436  -7.7375  -7.7310  -7.7169  -7.7129  -7.6999  -7.6916  -7.6767
    -7.6722  -7.6692  -7.6509  -7.6433  -7.6376  -7.6241  -7.6196  -7.6114
    -7.5968  -7.5939  -7.5823  -7.5731  -7.5695  -7.5514  -7.5484  -7.5358
    -7.5320  -7.5109  -7.5040  -7.4998  -7.4900  -7.4800  -7.4649  -7.4633
    -7.4480  -7.4431  -7.4384  -7.4225  -7.4151  -7.4038  -7.3986  -7.3836
    -7.3744  -7.3704  -7.3623  -7.3552  -7.3505  -7.3249  -7.3113  -7.2968
    -7.2894  -7.2873  -7.2829  -7.2718  -7.2582  -7.2527  -7.2448  -7.2288
    -7.2223  -7.2092  -7.2005  -7.1869  -7.1837  -7.1804  -7.1733  -7.1609
    -7.1521  -7.1383  -7.1297  -7.1163  -7.1101  -7.0917  -7.0819  -7.0757
    -7.0615  -7.0592  -7.0465  -7.0365  -7.0260  -7.0179  -7.0070  -7.0016
    -6.9910  -6.9871  -6.9788  -6.9627  -6.9562  -6.9516  -6.9340  -6.9214
    -6.9042  -6.8951  -6.8853  -6.8727  -6.8627  -6.8521  -6.8419  -6.8390
    -6.8256  -6.8219  -6.8068  -6.7872  -6.7809  -6.7730  -6.7655  -6.7533
    -6.7418  -6.7308  -6.7220  -6.7143  -6.7078  -6.6950  -6.6830  -6.6788
    -6.6713  -6.6586  -6.6495  -6.6353  -6.6245  -6.6177  -6.6050  -6.5957
    -6.5870  -6.5854  -6.5810  -6.5654  -6.5545  -6.5513  -6.5314  -6.5132
    -6.5020  -6.4893  -6.4831  -6.4787  -6.4661  -6.4506  -6.4454  -6.4430
    -6.4325  -6.4296  -6.4175  -6.4060  -6.4044  -6.3997  -6.3859  -6.3764
    -6.3712  -6.3519  -6.3481  -6.3436  -6.3270  -6.3173  -6.3036  -6.2943
    -6.2802  -6.2771  -6.2640  -6.2518  -6.2437  -6.2373  -6.2236  -6.2173
    -6.2103  -6.1909  -6.1786  -6.1724  -6.1639  -6.1400  -6.1382  -6.1062
    -6.0956  -6.0817  -6.0736  -6.0597  -6.0547  -6.0335  -6.0306  -6.0088
    -5.9931  -5.9851  -5.9712  -5.9530  -5.9480  -5.9397  -5.9366  -5.9226
    -5.9137  -5.9051  -5.8828  -5.8763  -5.8639  -5.8445  -5.8392  -5.8364
    -5.8253  -5.8096  -5.7934  -5.7799  -5.7733  -5.7649  -5.7434  -5.7244
    -5.7239  -5.7171  -5.7146  -5.6983  -5.6838  -5.6803  -5.6737  -5.6519
    -5.6471  -5.6240  -5.6022  -5.5963  -5.5831  -5.5767  -5.5711  -5.5647
    -5.5395  -5.5139  -5.4937  -5.4766  -5.4652  -5.4543  -5.4444  -5.4351
    -5.4054  -5.3926  -5.3874  -5.3720  -5.3420  -5.3379  -5.3343  -5.3314
    -5.3248  -5.3107  -5.2791  -5.2656  -5.2506  -5.2348  -5.2165  -5.2040
    -5.1698  -5.1500  -5.1394  -5.1137  -5.0804  -5.0647  -5.0507  -5.0291
    -5.0040  -4.9663  -4.8795  -4.8547  -4.8430  -4.8398  -4.8258  -4.8102
    -4.7641  -4.7245  -4.7122  -4.7077  -4.6838  -4.6617  -4.6075  -4.6016
    -4.5831  -4.5054  -4.4816  -4.4578  -4.4513  -4.4472  -4.4388  -4.4249
    -4.3410  -4.2524  -4.2084  -4.2008  -4.1420  -4.1058  -4.0493  -4.0362
    -4.0277  -4.0142  -4.0113  -3.9720  -3.9586  -3.9336  -3.9212  -3.9120
    -3.9015  -3.8934  -3.8838  -3.8495  -3.8481  -3.8415  -3.8296  -3.8241
    -3.8170  -3.8096  -3.8011  -3.7974  -3.7963  -3.7952  -3.7872  -3.7836
    -3.7794  -3.7763  -3.7615  -3.7461  -3.7393  -3.7337  -3.7242  -3.7203
    -3.7103  -3.7084  -3.6790  -3.6646  -3.6480  -3.6294  -3.6281  -3.6147
    -3.5314  -3.4480  -3.3927  -3.3491  -3.3130  -3.2867  -3.1862  -3.1091
    -2.7526  -2.6231  -2.2102  -1.9816  -1.5524  -0.6113  -0.5912  -0.4665
    -0.4206  -0.4108  -0.2693  -0.2542  -0.1756  -0.1059  -0.0275   0.0054
     0.0442   0.1570   0.2484   0.3818   0.3871   0.4683   0.5385   0.6299
     0.6782   0.7086   0.7411   0.7741   0.8322   0.8803   0.9387   0.9829
     1.0156   1.0259   1.0599   1.0987   1.1386   1.1504   1.2049   1.2131
     1.2481   1.2793   1.3115   1.3473   1.3642   1.3779   1.3888   1.4008
     1.4257   1.4413   1.4606   1.4700   1.4934   1.5250   1.5617   1.6137
     1.6236   1.6509   1.6898   1.7074   1.7250   1.7317   1.7414   1.7483
     1.7563   1.7882   1.7961   1.8044   1.8308   1.8443   1.8625   1.8793
     1.9021   1.9182   1.9386   1.9637   1.9722   1.9851   2.0038   2.0443
     2.0535   2.0588   2.0720   2.0856   2.1019   2.1125   2.1336   2.1388
     2.1518   2.1545   2.1602   2.1712   2.1786   2.1896   2.1911   2.1972
     2.2101   2.2257   2.2281   2.2448   2.2565   2.2639   2.2747   2.2943
     2.3005   2.3086   2.3253   2.3359   2.3430   2.3544   2.3731   2.3892
     2.3980   2.4154   2.4341   2.4418   2.4584   2.4684   2.4725   2.4800
     2.5000   2.5072   2.5134   2.5314   2.5376   2.5550   2.5564   2.5637
     2.5720   2.5738   2.5833   2.5899   2.5932   2.5984   2.6135   2.6225
     2.6339   2.6413   2.6467   2.6627   2.6746   2.6806   2.6825   2.6970
     2.7003   2.7067   2.7152   2.7249   2.7363   2.7467   2.7657   2.7685
     2.7793   2.7878   2.7981   2.8035   2.8123   2.8180   2.8317   2.8394
     2.8426   2.8617   2.8646   2.8675   2.8810   2.8874   2.9089   2.9142
     2.9214   2.9325   2.9523

     the Fermi energy is    -3.6835 ev

!    total energy              =  -11682.11398021 Ry
     estimated scf accuracy    <          9.6E-09 Ry
     smearing contrib. (-TS)   =      -0.11150058 Ry
     internal energy E=F+TS    =  -11682.00247963 Ry

     The total energy is F=E-TS. E is the sum of the following terms:
     one-electron contribution = -364140.43408822 Ry
     hartree contribution      =  182533.46249946 Ry
     xc contribution           =   -2470.90483774 Ry
     ewald contribution        =  174755.57735006 Ry
     one-center paw contrib.   =   -2359.70340320 Ry

     convergence has been achieved in 278 iterations

     negative rho (up, down):  5.906E-02 0.000E+00

     Forces acting on atoms (cartesian axes, Ry/au):

     atom    1 type  1   force =     0.01198100    0.01353518    0.05501567
     atom    2 type  1   force =     0.02853861    0.02467361   -0.00109225
     atom    3 type  1   force =     0.00763939    0.00107291   -0.00351999
     atom    4 type  1   force =    -0.01247021   -0.01523937   -0.01032017
     atom    5 type  1   force =     0.01476978   -0.02239084   -0.02718624
     atom    6 type  1   force =     0.00355254   -0.00143022    0.00431061
     atom    7 type  1   force =    -0.00862615    0.01217964    0.01101335
     atom    8 type  1   force =    -0.01211952   -0.03101750    0.00327265
     atom    9 type  1   force =    -0.00149536    0.00643109    0.01345352
     atom   10 type  1   force =     0.01832113   -0.00164442    0.01731653
     atom   11 type  1   force =    -0.01122413   -0.00525093   -0.01234481
     atom   12 type  2   force =     0.00698647    0.12279183   -0.04038217
     atom   13 type  2   force =     0.13728766    0.10196539   -0.00159493
     atom   14 type  2   force =     0.08061591    0.03200250   -0.06293836
     atom   15 type  2   force =     0.14579784   -0.03945945   -0.15261831
     atom   16 type  2   force =     0.02152072    0.03840750    0.04013864
     atom   17 type  2   force =     0.15430524    0.01483382    0.25416587
     atom   18 type  2   force =    -0.01245472   -0.04668925   -0.04953967
     atom   19 type  2   force =    -0.01081508    0.03869704   -0.10074544
     atom   20 type  2   force =    -0.02589005   -0.01331747   -0.04190956
     atom   21 type  2   force =    -0.05465698    0.13499343   -0.03949235
     atom   22 type  2   force =     0.03597872   -0.13336652    0.09289360
     atom   23 type  2   force =    -0.03936941   -0.06829576   -0.05874519
     atom   24 type  2   force =     0.03244840    0.02645478    0.01000563
     atom   25 type  2   force =     0.06546815    0.00664725    0.07191683
     atom   26 type  2   force =    -0.01666201   -0.00977290   -0.01119627
     atom   27 type  2   force =     0.04173353    0.11811993   -0.07358866
     atom   28 type  2   force =    -0.00195029   -0.05838201   -0.01148927
     atom   29 type  2   force =    -0.03144286   -0.05047406    0.08145663
     atom   30 type  2   force =     0.03239402   -0.03170332   -0.03948194
     atom   31 type  2   force =     0.03576630    0.02204818    0.00211340
     atom   32 type  2   force =    -0.00990820   -0.06579127    0.08799847
     atom   33 type  2   force =    -0.05569445    0.01797913   -0.05571266
     atom   34 type  2   force =     0.06102809   -0.02690954   -0.02235416
     atom   35 type  3   force =    -0.01335621   -0.07804946    0.00313460
     atom   36 type  3   force =    -0.16405625    0.08785191   -0.04849027
     atom   37 type  3   force =    -0.06764085    0.03584351   -0.01402106
     atom   38 type  3   force =    -0.05432072   -0.00011860   -0.00938535
     atom   39 type  3   force =     0.07421960    0.00716070    0.01033648
     atom   40 type  3   force =     0.08649000    0.02279671   -0.04330920
     atom   41 type  3   force =    -0.10883884   -0.09033731   -0.13250043
     atom   42 type  3   force =     0.01241658   -0.06068229    0.06449062
     atom   43 type  3   force =     0.01841889   -0.02241539   -0.04845383
     atom   44 type  3   force =     0.06109552    0.10568553    0.04109824
     atom   45 type  3   force =    -0.03149013   -0.00108228   -0.03172322
     atom   46 type  3   force =    -0.03575210    0.12338529    0.06016192
     atom   47 type  3   force =    -0.05604607    0.00765243   -0.14714250
     atom   48 type  3   force =    -0.02870019   -0.12199648   -0.13769142
     atom   49 type  3   force =     0.06196252    0.18255248    0.05223870
     atom   50 type  3   force =     0.04359052   -0.02229450   -0.09791045
     atom   51 type  3   force =    -0.01922525    0.04789525    0.07044510
     atom   52 type  3   force =    -0.12136627   -0.10633153    0.11990994
     atom   53 type  3   force =    -0.12306573   -0.10968394   -0.05547006
     atom   54 type  3   force =    -0.03673887   -0.02303129    0.10127316
     atom   55 type  3   force =    -0.15026125    0.03124429    0.03092270
     atom   56 type  3   force =    -0.02238569    0.01140260    0.12216684
     atom   57 type  3   force =     0.00706963   -0.09509907   -0.04898395
     atom   58 type  3   force =     0.05997289   -0.00806240    0.04794918
     atom   59 type  3   force =    -0.03553205   -0.01080773    0.03845537
     atom   60 type  3   force =     0.07908392   -0.07457389   -0.00367159
     atom   61 type  3   force =     0.01536212    0.19124150    0.03549955
     atom   62 type  3   force =    -0.01921932   -0.01656953   -0.00628349
     atom   63 type  3   force =     0.01630409    0.01195615   -0.00650989
     atom   64 type  3   force =     0.00313914    0.05910746    0.08256176
     atom   65 type  3   force =    -0.00867629    0.02327406    0.02061114
     atom   66 type  3   force =    -0.01586979    0.00339390   -0.01876979
     atom   67 type  3   force =     0.03107211    0.00049902    0.10247793
     atom   68 type  3   force =    -0.06537248   -0.03466390    0.07996177
     atom   69 type  3   force =     0.04510028    0.03714800    0.03195034
     atom   70 type  3   force =    -0.05032630   -0.06708422   -0.05576886
     atom   71 type  3   force =     0.04870177   -0.03739351    0.05210315
     atom   72 type  3   force =     0.01419410    0.11142814    0.19918629
     atom   73 type  3   force =    -0.07875360    0.05112215   -0.07638590
     atom   74 type  3   force =     0.00521709   -0.06456124   -0.04794850
     atom   75 type  3   force =    -0.06329018    0.00869138   -0.00238955
     atom   76 type  3   force =     0.04449298   -0.10610837   -0.06062748
     atom   77 type  3   force =    -0.03076530    0.07731831    0.03339164
     atom   78 type  3   force =    -0.09868727   -0.02071458   -0.06899199
     atom   79 type  3   force =    -0.00395604   -0.04283690    0.03502101
     atom   80 type  3   force =    -0.03319370    0.03897139   -0.00482053
     atom   81 type  3   force =     0.03036607    0.01869119   -0.03952304
     atom   82 type  3   force =    -0.04205834    0.01725142   -0.05468564
     atom   83 type  3   force =    -0.05157335    0.09495504    0.02394416
     atom   84 type  3   force =    -0.02501729    0.04017659   -0.04088618
     atom   85 type  3   force =    -0.01144661   -0.09869657    0.07694747
     atom   86 type  3   force =    -0.02766671   -0.07909757   -0.10470933
     atom   87 type  3   force =     0.02205202   -0.00716360   -0.06790496
     atom   88 type  3   force =    -0.00063427    0.05376635   -0.11886186
     atom   89 type  3   force =    -0.04828609   -0.02074918    0.06501203
     atom   90 type  3   force =     0.05340447   -0.04794728   -0.04617095
     atom   91 type  3   force =     0.06649029    0.04065732   -0.01541497
     atom   92 type  3   force =    -0.00909166   -0.00577371   -0.02093110
     atom   93 type  3   force =    -0.08709499   -0.10492244   -0.00534619
     atom   94 type  3   force =     0.07174543    0.08984391    0.05016867
     atom   95 type  3   force =    -0.01097651   -0.01091904   -0.06986118
     atom   96 type  3   force =    -0.09372024   -0.01181336    0.15325092
     atom   97 type  3   force =    -0.02816577   -0.04656758   -0.00180025
     atom   98 type  3   force =     0.10415208    0.01101593    0.09541066
     atom   99 type  3   force =    -0.05542753   -0.00674160    0.03642160
     atom  100 type  3   force =     0.02261982   -0.07810873    0.07965757
     atom  101 type  3   force =    -0.06018266    0.02729242   -0.01095068
     atom  102 type  3   force =     0.03094018    0.01777042    0.03149880
     atom  103 type  3   force =     0.04704964    0.03123784    0.09734601
     atom  104 type  3   force =    -0.08263982   -0.07700815   -0.00511587
     atom  105 type  3   force =     0.02907925    0.05418630   -0.00676653
     atom  106 type  3   force =     0.03803634    0.11411760   -0.01561511
     atom  107 type  3   force =    -0.02754630   -0.00337187    0.02771101
     atom  108 type  3   force =     0.04691084   -0.00952255    0.04592896
     atom  109 type  3   force =     0.11019677    0.01934691   -0.03942737
     atom  110 type  3   force =     0.13936197    0.00799780   -0.06099634
     atom  111 type  3   force =    -0.02029655   -0.01791732    0.01753494
     atom  112 type  3   force =    -0.06709554    0.09523988   -0.01082913
     atom  113 type  3   force =     0.02126248   -0.01983289   -0.05635503
     atom  114 type  3   force =    -0.03892985    0.02178322    0.08107604
     atom  115 type  3   force =     0.01341478   -0.02837389    0.07645558
     atom  116 type  3   force =     0.08470551    0.00791849   -0.04839813
     atom  117 type  3   force =    -0.06872640    0.00340694    0.03767751
     atom  118 type  3   force =    -0.11862331    0.11192878    0.02562711
     atom  119 type  3   force =     0.07046798   -0.00676173    0.03239737
     atom  120 type  3   force =     0.00917008    0.02810781    0.10528160
     atom  121 type  3   force =     0.12979560    0.07610166    0.01604683
     atom  122 type  4   force =     0.03976517    0.01289369    0.02882382
     atom  123 type  4   force =    -0.06144597   -0.03968585   -0.00988349
     atom  124 type  4   force =     0.00370033    0.02426365   -0.04600724
     atom  125 type  4   force =     0.01814043   -0.00574696   -0.00425024
     atom  126 type  4   force =    -0.13129376   -0.14925002   -0.01133935
     atom  127 type  4   force =    -0.09949296   -0.12886086   -0.07369587
     atom  128 type  4   force =     0.01054293   -0.04946045    0.05962326
     atom  129 type  4   force =     0.00894072   -0.06168720   -0.01135027
     atom  130 type  4   force =     0.00877209   -0.02162157    0.00903572
     atom  131 type  4   force =     0.00669811   -0.01823887   -0.01320127
     atom  132 type  4   force =     0.04935019   -0.03837320   -0.01674806
     atom  133 type  4   force =    -0.03659253   -0.05920635    0.03631435
     atom  134 type  4   force =    -0.09350922    0.00759306   -0.04005785
     atom  135 type  4   force =     0.02242682   -0.02686373    0.12463345
     atom  136 type  4   force =     0.01772635   -0.01008665   -0.01821847
     atom  137 type  4   force =     0.05396518    0.04128798   -0.03410105
     atom  138 type  4   force =     0.01583981    0.00195824   -0.01526135
     atom  139 type  4   force =    -0.00677776    0.02799711   -0.02066744
     atom  140 type  4   force =     0.02153660   -0.06867004    0.02204077
     atom  141 type  4   force =     0.05838638   -0.01207512    0.00219254
     atom  142 type  4   force =    -0.10496243   -0.05312680    0.04676429
     atom  143 type  4   force =    -0.14997550   -0.03704894   -0.09747719
     atom  144 type  4   force =    -0.00564587   -0.01755983    0.02997278
     atom  145 type  4   force =    -0.03997107    0.03685685    0.01630131
     atom  146 type  4   force =    -0.02208241    0.01699289   -0.02254631
     atom  147 type  4   force =    -0.13172762   -0.04977418    0.03205910
     atom  148 type  4   force =     0.01365572   -0.02073148   -0.01292367
     atom  149 type  4   force =     0.06869533    0.03544098    0.01730050
     atom  150 type  4   force =    -0.06341106   -0.05299108   -0.01993845
     atom  151 type  4   force =     0.05089890    0.03685171    0.02467146
     atom  152 type  4   force =    -0.05805041    0.02458505    0.01506547
     atom  153 type  4   force =     0.07628191    0.01867911    0.07642848
     atom  154 type  4   force =    -0.09656972    0.00591780    0.00651500
     atom  155 type  4   force =    -0.01260031   -0.01424661   -0.00921710
     atom  156 type  4   force =    -0.05021385    0.04126220   -0.02244408
     atom  157 type  4   force =     0.04242975   -0.01099872   -0.00371372
     atom  158 type  4   force =     0.01344071    0.01216365   -0.02432283
     atom  159 type  4   force =     0.06699721    0.00743176   -0.05908331
     atom  160 type  4   force =     0.03950187   -0.08934749    0.01405951
     atom  161 type  4   force =     0.00297937   -0.02880622    0.07146392
     atom  162 type  4   force =     0.05273618    0.09472301    0.01561148
     atom  163 type  4   force =    -0.01531815    0.05831536   -0.01548767
     atom  164 type  4   force =     0.02449113    0.02901452    0.06696042
     atom  165 type  4   force =    -0.07486791    0.01045661    0.04946343
     atom  166 type  4   force =    -0.00162701   -0.10199405    0.00493711
     atom  167 type  4   force =    -0.03906653   -0.03992114   -0.01508487
     atom  168 type  4   force =     0.01699172   -0.18444733    0.05856610
     atom  169 type  4   force =     0.05244811    0.04499520   -0.09519595
     atom  170 type  4   force =     0.02790076   -0.04780008   -0.03580755
     atom  171 type  4   force =     0.01258450   -0.01692097    0.00345012
     atom  172 type  4   force =    -0.06998689    0.01241193   -0.04377477
     atom  173 type  4   force =    -0.03893838    0.00693949   -0.02536094
     atom  174 type  4   force =     0.05687298    0.08580241    0.01803015
     atom  175 type  4   force =     0.01312119    0.04182724    0.00305211
     atom  176 type  4   force =     0.03765735   -0.00553701    0.02460708
     atom  177 type  4   force =     0.06401041   -0.00440765   -0.00812256
     atom  178 type  4   force =    -0.00369613    0.03657218    0.04558833
     atom  179 type  4   force =    -0.01202324    0.02845700    0.00320245
     atom  180 type  4   force =    -0.05735850    0.00565038   -0.00721704
     atom  181 type  4   force =     0.00000906   -0.00047888    0.09600934
     atom  182 type  4   force =    -0.02448972   -0.06137300    0.05019573
     atom  183 type  4   force =    -0.03323412    0.10705525   -0.05875251
     atom  184 type  4   force =     0.01827451   -0.01125356    0.05177951
     atom  185 type  4   force =     0.04929851   -0.03490279   -0.01730348
     atom  186 type  4   force =    -0.01141583   -0.01726455    0.00175050
     atom  187 type  4   force =    -0.02773565   -0.01189310    0.05056816
     atom  188 type  4   force =    -0.02035202   -0.01785152   -0.04713532
     atom  189 type  4   force =    -0.01979323    0.03513275   -0.00051361
     atom  190 type  4   force =     0.05861037   -0.03610051    0.00664791
     atom  191 type  4   force =    -0.01873745   -0.00325893   -0.00603236
     atom  192 type  4   force =    -0.03513960    0.02414201   -0.03097089
     atom  193 type  4   force =     0.03629665   -0.06474710    0.02223234
     atom  194 type  4   force =    -0.04960868    0.00128673   -0.00628633
     atom  195 type  4   force =    -0.01052219   -0.00509168    0.01791752
     atom  196 type  4   force =     0.00237687   -0.02552044   -0.06105980
     atom  197 type  4   force =     0.00922723    0.01573088   -0.00007188
     atom  198 type  4   force =    -0.03841730    0.04139424   -0.01356903
     atom  199 type  4   force =     0.00810413   -0.02591120    0.00623969
     atom  200 type  4   force =    -0.00958699   -0.03602007    0.05785526
     atom  201 type  4   force =    -0.01076945   -0.04755145   -0.02852082
     atom  202 type  4   force =     0.01615472    0.01501538    0.04160257
     atom  203 type  4   force =    -0.05687819   -0.05914946   -0.10306881
     atom  204 type  4   force =    -0.00237873    0.01816105    0.06245977
     atom  205 type  4   force =     0.01019117    0.07386977   -0.01369949
     atom  206 type  4   force =    -0.04071367   -0.03146250   -0.04465851
     atom  207 type  4   force =    -0.00488833   -0.03031374    0.03558347
     atom  208 type  4   force =    -0.00080603    0.01181855   -0.01008166
     atom  209 type  4   force =    -0.04451400    0.03159451   -0.05075202
     atom  210 type  4   force =    -0.01133552    0.01307720   -0.05116313
     atom  211 type  4   force =    -0.00062292   -0.03492577   -0.05663941
     atom  212 type  4   force =     0.04274822   -0.03967220   -0.03305006
     atom  213 type  4   force =     0.04284919   -0.14884336   -0.08358814
     atom  214 type  4   force =     0.05176466    0.06494040   -0.05767269
     atom  215 type  4   force =    -0.02656353   -0.02946004    0.00518085
     atom  216 type  4   force =    -0.02213772    0.07578189    0.04093355
     atom  217 type  4   force =    -0.02419356    0.03766328   -0.04189484
     atom  218 type  4   force =     0.01491418    0.02517083   -0.00784998
     atom  219 type  4   force =    -0.04397644   -0.04018576   -0.00916189
     atom  220 type  4   force =     0.01259160   -0.04147596    0.02295877
     atom  221 type  4   force =    -0.00424331    0.03039231    0.06497053
     atom  222 type  4   force =     0.10398652   -0.01660345    0.00583892
     atom  223 type  4   force =     0.02172430    0.08580960   -0.05086506
     atom  224 type  4   force =     0.03969165    0.02490838   -0.01333377
     atom  225 type  4   force =     0.06109684    0.04951174   -0.00337341
     atom  226 type  4   force =     0.02009370   -0.02509451    0.02087491
     atom  227 type  4   force =    -0.02259911    0.05201614    0.04186637
     atom  228 type  4   force =     0.00320734   -0.01706547   -0.02721205
     atom  229 type  4   force =     0.01366331    0.00008587    0.05424112
     atom  230 type  4   force =     0.05292941    0.04901864   -0.00149163
     atom  231 type  4   force =     0.04265727   -0.02080410    0.07110658
     atom  232 type  4   force =     0.04277013   -0.06428559   -0.00875531
     atom  233 type  4   force =     0.03887812    0.05822143    0.02895427
     atom  234 type  4   force =    -0.03296900   -0.05973836   -0.11442101
     atom  235 type  4   force =    -0.01906457    0.15892721   -0.01443234
     atom  236 type  4   force =     0.08813722   -0.01636453   -0.04581764
     atom  237 type  4   force =     0.00625487    0.00679894    0.01217160
     atom  238 type  4   force =    -0.01092224   -0.01290947    0.04266471
     atom  239 type  4   force =     0.01921436   -0.03612031    0.00734327
     atom  240 type  4   force =     0.07763530    0.03085039    0.02822872
     atom  241 type  4   force =     0.03118338   -0.01969472   -0.00488263
     atom  242 type  4   force =    -0.20327592   -0.02957538    0.07900038
     atom  243 type  4   force =     0.02977664    0.00104035    0.02049806
     atom  244 type  4   force =    -0.05115116   -0.00162128   -0.04531876
     atom  245 type  4   force =    -0.01908686   -0.02919142   -0.09473457
     atom  246 type  4   force =     0.02442919   -0.00900059   -0.03121330
     atom  247 type  4   force =    -0.00637787   -0.01713246   -0.06719471
     atom  248 type  4   force =    -0.01646043    0.03033132    0.05897820
     atom  249 type  4   force =     0.03808809    0.02612198   -0.06220865
     atom  250 type  4   force =    -0.08196770   -0.01668522    0.00423900
     atom  251 type  4   force =    -0.00781695   -0.00392436   -0.01946364
     atom  252 type  4   force =    -0.07126856    0.01913746   -0.05260997
     atom  253 type  4   force =     0.00126890   -0.04523175   -0.11025478
     atom  254 type  4   force =    -0.09099527    0.01338032   -0.01472655
     atom  255 type  4   force =     0.01625795   -0.01882603    0.02043118
     atom  256 type  4   force =     0.03189235   -0.00808358    0.03525563
     atom  257 type  4   force =     0.02692616   -0.02500207    0.03380105
     atom  258 type  4   force =     0.00066910    0.01268634   -0.02907825
     atom  259 type  4   force =     0.04799762    0.01502964   -0.00891398
     atom  260 type  4   force =    -0.04568748   -0.01156193   -0.06086963
     atom  261 type  4   force =     0.04144258    0.02802960   -0.03953744
     atom  262 type  4   force =    -0.05615943   -0.01106459    0.04581109
     atom  263 type  4   force =     0.09699530   -0.02662062    0.01786653
     atom  264 type  4   force =    -0.04572733    0.04260108   -0.02250274
     atom  265 type  4   force =     0.02485318    0.01502158   -0.03962725
     atom  266 type  4   force =     0.02701572    0.02036780   -0.04799548
     atom  267 type  4   force =     0.07755584   -0.00409779   -0.04297702
     atom  268 type  4   force =     0.02718195   -0.04395924   -0.03137934
     atom  269 type  4   force =    -0.01662976   -0.06669206    0.00511574
     atom  270 type  4   force =    -0.07175184   -0.01324236   -0.02962262
     atom  271 type  4   force =     0.06974061    0.01183142    0.00881475
     atom  272 type  4   force =     0.02762543    0.05488007   -0.01274636
     atom  273 type  4   force =     0.00245229   -0.00629163    0.04779594
     atom  274 type  4   force =    -0.02437800    0.00271273    0.02713516
     atom  275 type  4   force =    -0.01183748   -0.02058963    0.01823336
     atom  276 type  4   force =     0.04365525    0.07915132    0.06969425
     atom  277 type  4   force =     0.02664969   -0.01174523   -0.07652873
     atom  278 type  4   force =    -0.02157080    0.06313130    0.04438635
     atom  279 type  4   force =    -0.01201919   -0.02157877    0.00406331
     atom  280 type  4   force =    -0.02692883    0.05674678    0.00967426
     atom  281 type  4   force =     0.04153261    0.03153630    0.04331733
     atom  282 type  4   force =     0.03672341   -0.05134577    0.01537383
     atom  283 type  4   force =     0.00389606   -0.06528538   -0.03206027
     atom  284 type  4   force =     0.07198818   -0.05381079   -0.03042227
     atom  285 type  4   force =     0.01851879   -0.01658348    0.01463308
     atom  286 type  4   force =    -0.11872925   -0.02982931   -0.06908084
     atom  287 type  4   force =    -0.01654354   -0.00208405    0.04459975
     atom  288 type  4   force =     0.06711615   -0.00377707   -0.05577750
     atom  289 type  4   force =     0.02107282    0.09145620   -0.02683942
     atom  290 type  4   force =     0.10187314   -0.05822755   -0.11027292
     atom  291 type  4   force =    -0.03006475    0.01413688   -0.01585861
     atom  292 type  4   force =    -0.01943812   -0.01127457    0.01436489
     atom  293 type  4   force =    -0.00662292   -0.02631236   -0.04965690
     atom  294 type  4   force =     0.08013451   -0.02996862    0.16798824
     atom  295 type  4   force =    -0.05385402    0.06400473    0.06799506
     atom  296 type  4   force =    -0.05994912    0.01918495    0.03738631
     atom  297 type  4   force =    -0.01776509    0.01404130   -0.02416850
     atom  298 type  4   force =     0.01309920    0.01326548    0.01795421
     atom  299 type  4   force =    -0.06706036   -0.14550399   -0.02634894
     atom  300 type  4   force =    -0.01170437   -0.05288610   -0.03406154
     atom  301 type  4   force =    -0.07376866    0.03968163    0.02584918
     atom  302 type  4   force =     0.00569428    0.12646195    0.11055865
     atom  303 type  4   force =    -0.01420790   -0.02291568   -0.03984765
     atom  304 type  4   force =    -0.03905064   -0.00146896    0.01094389
     atom  305 type  4   force =    -0.03632897   -0.01650549    0.00711035
     atom  306 type  4   force =     0.00810892    0.01577360   -0.05866968
     atom  307 type  4   force =     0.02343559    0.02017085    0.04237960
     atom  308 type  4   force =     0.00969571    0.00087346   -0.05120613
     atom  309 type  4   force =     0.00196839   -0.02058225    0.01395724
     atom  310 type  4   force =     0.09236445   -0.00427010    0.11082401
     atom  311 type  4   force =    -0.03270922   -0.01335312    0.01158943
     atom  312 type  4   force =    -0.02337114    0.02161957    0.01461850
     atom  313 type  4   force =     0.01407716   -0.08675381    0.01961132
     atom  314 type  4   force =    -0.04578937    0.01308960   -0.02389718
     atom  315 type  4   force =    -0.01722625   -0.00383132   -0.02786113
     atom  316 type  4   force =    -0.00558334   -0.00388455    0.01814810
     atom  317 type  4   force =    -0.00180751    0.06899382    0.03996491
     atom  318 type  4   force =     0.04029892    0.00254387   -0.01744278
     atom  319 type  4   force =    -0.02971492   -0.01473234   -0.06109090
     atom  320 type  4   force =     0.04255586   -0.01851363   -0.02668409
     atom  321 type  4   force =    -0.02598260    0.12843444    0.03769519
     atom  322 type  4   force =     0.02386653    0.01087301   -0.06532067
     atom  323 type  4   force =     0.03601354   -0.03570770    0.05008515
     atom  324 type  4   force =     0.05250430    0.00494974   -0.02309426
     atom  325 type  4   force =     0.03441876   -0.02324496   -0.02829839
     atom  326 type  4   force =    -0.00823302    0.11664200    0.05602195
     atom  327 type  4   force =     0.04745975    0.04959794   -0.03973731
     atom  328 type  4   force =     0.02064537    0.00096576   -0.02000615
     atom  329 type  4   force =     0.10558594    0.01069466    0.01855815
     atom  330 type  4   force =     0.02371752   -0.03662229   -0.05450744
     atom  331 type  4   force =     0.03237827    0.04218460   -0.00806249
     atom  332 type  4   force =     0.02197372    0.05071176   -0.01244785
     atom  333 type  4   force =    -0.05388479   -0.05593652    0.02745754
     atom  334 type  4   force =     0.02378814    0.04553932   -0.02791556
     atom  335 type  4   force =     0.06793994    0.02175746   -0.02189523
     atom  336 type  4   force =    -0.03938265   -0.03108899   -0.04385398
     atom  337 type  4   force =    -0.00467738   -0.00476156   -0.02316721
     atom  338 type  4   force =    -0.05727263    0.04318608   -0.01897057
     atom  339 type  5   force =    -0.02046471    0.02373424    0.03465227
     atom  340 type  5   force =     0.00644446   -0.02890423    0.02813866
     atom  341 type  6   force =     0.02360103    0.00311856   -0.00075298
     atom  342 type  6   force =    -0.02347235   -0.00302084    0.00048583
     atom  343 type  6   force =     0.00484941   -0.03726485   -0.00207012
     atom  344 type  6   force =     0.00542354   -0.03737550   -0.00188941
     atom  345 type  6   force =    -0.00517741    0.03740712    0.00261132
     atom  346 type  6   force =    -0.00492274    0.03720636    0.00255080
     atom  347 type  6   force =     0.02453371    0.01784367    0.00078227
     atom  348 type  6   force =    -0.02836211    0.01084701    0.00188411
     atom  349 type  6   force =     0.02847805   -0.01096645   -0.00109007
     atom  350 type  6   force =    -0.02493424   -0.01782267   -0.00013289
     atom  351 type  7   force =     0.00278303    0.00565318   -0.00021069
     atom  352 type  7   force =    -0.00409680    0.00482140    0.00004484
     atom  353 type  7   force =     0.00413097   -0.00487875   -0.00070547
     atom  354 type  7   force =    -0.00255565   -0.00560910   -0.00062203
     atom  355 type  7   force =     0.00369636   -0.00299738   -0.00077041
     atom  356 type  7   force =    -0.00268916   -0.00385866   -0.00053704
     atom  357 type  7   force =     0.00273907    0.00408735   -0.00009456
     atom  358 type  7   force =    -0.00371047    0.00301894   -0.00011750

     Total force =     1.685891     Total SCF correction =     0.000154


     Computing stress (Cartesian axis) and pressure


     negative rho (up, down):  5.906E-02 0.000E+00
          total   stress  (Ry/bohr**3)                   (kbar)     P=        7.99
   0.00005254   0.00000152  -0.00000302            7.73        0.22       -0.44
   0.00000152   0.00006119   0.00000346            0.22        9.00        0.51
  -0.00000302   0.00000346   0.00004918           -0.44        0.51        7.23


     Writing all to output data dir ./outputs/pwscf.save/ :
     XML data file, charge density, pseudopotentials, collected wavefunctions
 
     init_run     :    147.70s CPU    150.70s WALL (       1 calls)
     electrons    :  79870.87s CPU  81550.80s WALL (       1 calls)
     forces       :     94.11s CPU     98.49s WALL (       1 calls)
     stress       :    355.47s CPU    361.16s WALL (       1 calls)

     Called by init_run:
     wfcinit      :    131.02s CPU    132.75s WALL (       1 calls)
     potinit      :      1.19s CPU      1.28s WALL (       1 calls)
     hinit0       :      1.45s CPU      1.50s WALL (       1 calls)

     Called by electrons:
     c_bands      :  66959.69s CPU  68053.63s WALL (     278 calls)
     sum_band     :  11602.54s CPU  11931.80s WALL (     278 calls)
     v_of_rho     :    126.33s CPU    131.47s WALL (     279 calls)
     newd         :    938.06s CPU   1184.98s WALL (     279 calls)
     PAW_pot      :    157.40s CPU    158.37s WALL (     279 calls)
     mix_rho      :     70.27s CPU     72.11s WALL (     278 calls)

     Called by c_bands:
     init_us_2    :    612.01s CPU    621.88s WALL (     558 calls)
     cegterg      :  66128.59s CPU  67205.12s WALL (     278 calls)

     Called by *egterg:
     cdiaghg      :    940.51s CPU    948.32s WALL (     609 calls)
     h_psi        :  36555.72s CPU  37034.86s WALL (     610 calls)
     s_psi        :  10951.85s CPU  11055.44s WALL (     610 calls)
     g_psi        :    104.28s CPU    105.85s WALL (     331 calls)

     Called by h_psi:
     h_psi:calbec :  10988.92s CPU  11075.36s WALL (     610 calls)
     vloc_psi     :  14533.40s CPU  14690.26s WALL (     610 calls)
                                        0.00s GPU  (     610 calls)
     add_vuspsi   :  10961.97s CPU  11078.96s WALL (     610 calls)

     General routines
     calbec       :  16767.96s CPU  16889.53s WALL (     905 calls)
     fft          :    124.69s CPU    130.66s WALL (    3650 calls)
     ffts         :     11.15s CPU     11.68s WALL (     557 calls)
     fftw         :  14080.46s CPU  14210.27s WALL ( 1569034 calls)
     interpolate  :     15.33s CPU     16.04s WALL (     279 calls)
 
     Parallel routines
 
     PWSCF        :     22h21m CPU     22h50m WALL

 
   This run was terminated on:   9:14:20   7Mar2026            

=------------------------------------------------------------------------------=
   JOB DONE.
=------------------------------------------------------------------------------=
