
     Program PWSCF v.7.5 starts on 14Mar2026 at  3:59:51 

     This program is part of the open-source Quantum ESPRESSO suite
     for quantum simulation of materials; please cite
         "P. Giannozzi et al., J. Phys.:Condens. Matter 21 395502 (2009);
         "P. Giannozzi et al., J. Phys.:Condens. Matter 29 465901 (2017);
         "P. Giannozzi et al., J. Chem. Phys. 152 154105 (2020);
          URL http://www.quantum-espresso.org", 
     in publications or presentations arising from this work. More details at
     http://www.quantum-espresso.org/quote

     Parallel version (MPI), running on    80 processors

     MPI processes distributed on     4 nodes
     75007 MiB available memory on the printing compute node when the environment starts
 
     Reading input from NaphthaleneOnGlassSite3Snapshot26.in
Warning: card &CELL ignored
Warning: card &FCP ignored
Warning: card &RISM ignored

     Current dimensions of program PWSCF are:
     Max number of different atomic species (ntypx) = 10
     Max number of k-points (npk) =  40000
     Max angular momentum in pseudopotentials (lmaxx) =  4
     file Na.paw.z_9.ld1.psl.v1.0.0-low.upf: wavefunction(s)  2P renormalized
     file O.pbe-n-kjpaw_psl.0.1.UPF: wavefunction(s)  2P renormalized
     file Al.pbe-n-kjpaw_psl.1.0.0.UPF: wavefunction(s)  3S 3P renormalized
     file C.pbe-n-kjpaw_psl.1.0.0.UPF: wavefunction(s)  2S 2P renormalized
 
     R & G space division:  proc/nbgrp/npool/nimage =      80
     Subspace diagonalization in iterative solution of the eigenvalue problem:
     one sub-group per band group will be used
     custom distributed-memory algorithm (size of sub-group:  8*  8 procs)

 
     Parallelization info
     --------------------
     sticks:   dense  smooth     PW     G-vecs:    dense   smooth      PW
     Min         450     400    100               199276   167008   20874
     Max         451     401    101               199303   167021   20885
     Sum       36073   32057   8021             15943719 13361281 1670237
 
     Using Slab Decomposition
 


     bravais-lattice index     =            0
     lattice parameter (alat)  =      35.4885  a.u.
     unit-cell volume          =  138228.4306 (a.u.)^3
     number of atoms/cell      =          358
     number of atomic types    =            7
     number of electrons       =      1872.00
     number of Kohn-Sham states=         1123
     kinetic-energy cutoff     =      80.0000  Ry
     charge density cutoff     =     360.0000  Ry
     scf convergence threshold =      1.0E-08
     mixing beta               =       0.1000
     number of iterations used =            8  plain     mixing
     Exchange-correlation= PBE
                           (   1   4   3   4   0   0   0)

     celldm(1)=  35.488539  celldm(2)=   0.000000  celldm(3)=   0.000000
     celldm(4)=   0.000000  celldm(5)=   0.000000  celldm(6)=   0.000000

     crystal axes: (cart. coord. in units of alat)
               a(1) = (   1.000000   0.000000   0.000000 )  
               a(2) = (   0.000000   1.000000   0.000000 )  
               a(3) = (   0.000000   0.000000   3.092666 )  

     reciprocal axes: (cart. coord. in units 2 pi/alat)
               b(1) = (  1.000000  0.000000  0.000000 )  
               b(2) = (  0.000000  1.000000  0.000000 )  
               b(3) = (  0.000000  0.000000  0.323346 )  


     PseudoPot. # 1 for Na read from file:
     /home/sabeel/VOCC_Simulation/pseudopotentials/SSSP_Precision/Na.paw.z_9.ld1.psl.v1.0.0-low.upf
     MD5 check sum: 32bccecb13d7399e6c7dae6fe6685ff0
     Pseudo is Projector augmented-wave + core cor, Zval =  9.0
     Generated using &quot;atomic&quot; code by A. Dal Corso  v.6.3MaX
     Shape of augmentation charge: PSQ
     Using radial grid of 1121 points,  4 beta functions with: 
                l(1) =   0
                l(2) =   0
                l(3) =   1
                l(4) =   1
     Q(r) pseudized with 0 coefficients 


     PseudoPot. # 2 for B  read from file:
     /home/sabeel/VOCC_Simulation/pseudopotentials/SSSP_Precision/B_pbe_v1.01.uspp.F.UPF
     MD5 check sum: d081ebb89d0c768e112975f650467a00
     Pseudo is Ultrasoft + core correction, Zval =  3.0
     Generated by new atomic code, or converted to UPF format
     Using radial grid of  781 points,  4 beta functions with: 
                l(1) =   0
                l(2) =   0
                l(3) =   1
                l(4) =   1
     Q(r) pseudized with  8 coefficients,  rinner =    1.100   1.100   1.100


     PseudoPot. # 3 for Si read from file:
     /home/sabeel/VOCC_Simulation/pseudopotentials/SSSP_Precision/Si.pbe-n-rrkjus_psl.1.0.0.UPF
     MD5 check sum: 0b0bb1205258b0d07b9f9672cf965d36
     Pseudo is Ultrasoft + core correction, Zval =  4.0
     Generated using "atomic" code by A. Dal Corso  v.5.1
     Using radial grid of 1141 points,  6 beta functions with: 
                l(1) =   0
                l(2) =   0
                l(3) =   1
                l(4) =   1
                l(5) =   2
                l(6) =   2
     Q(r) pseudized with 0 coefficients 


     PseudoPot. # 4 for O  read from file:
     /home/sabeel/VOCC_Simulation/pseudopotentials/SSSP_Precision/O.pbe-n-kjpaw_psl.0.1.UPF
     MD5 check sum: 0234752ac141de4415c5fc33072bef88
     Pseudo is Projector augmented-wave + core cor, Zval =  6.0
     Generated using "atomic" code by A. Dal Corso  v.5.0.99 svn rev. 10869
     Shape of augmentation charge: BESSEL
     Using radial grid of 1095 points,  4 beta functions with: 
                l(1) =   0
                l(2) =   0
                l(3) =   1
                l(4) =   1
     Q(r) pseudized with 0 coefficients 


     PseudoPot. # 5 for Al read from file:
     /home/sabeel/VOCC_Simulation/pseudopotentials/SSSP_Precision/Al.pbe-n-kjpaw_psl.1.0.0.UPF
     MD5 check sum: cfc449ca30b5f3223ec38ddd88ac046d
     Pseudo is Projector augmented-wave + core cor, Zval =  3.0
     Generated using "atomic" code by A. Dal Corso  v.5.1
     Shape of augmentation charge: PSQ
     Using radial grid of 1135 points,  6 beta functions with: 
                l(1) =   0
                l(2) =   0
                l(3) =   1
                l(4) =   1
                l(5) =   2
                l(6) =   2
     Q(r) pseudized with 0 coefficients 


     PseudoPot. # 6 for C  read from file:
     /home/sabeel/VOCC_Simulation/pseudopotentials/SSSP_Precision/C.pbe-n-kjpaw_psl.1.0.0.UPF
     MD5 check sum: 5d2aebdfa2cae82b50a7e79e9516da0f
     Pseudo is Projector augmented-wave + core cor, Zval =  4.0
     Generated using "atomic" code by A. Dal Corso  v.5.1
     Shape of augmentation charge: PSQ
     Using radial grid of 1073 points,  4 beta functions with: 
                l(1) =   0
                l(2) =   0
                l(3) =   1
                l(4) =   1
     Q(r) pseudized with 0 coefficients 


     PseudoPot. # 7 for H  read from file:
     /home/sabeel/VOCC_Simulation/pseudopotentials/SSSP_Precision/H_ONCV_PBE-1.0.oncvpsp.upf
     MD5 check sum: 1790becc920ee074925cf490c71280fe
     Pseudo is Norm-conserving, Zval =  1.0
     Generated using ONCVPSP code by D. R. Hamann
     Using radial grid of 1166 points,  2 beta functions with: 
                l(1) =   0
                l(2) =   0

     atomic species   valence    mass     pseudopotential
     Na                9.00    22.98977     Na( 1.00)
     B                 3.00    10.81000     B ( 1.00)
     Si                4.00    28.08500     Si( 1.00)
     O                 6.00    15.99900     O ( 1.00)
     Al                3.00    26.98154     Al( 1.00)
     C                 4.00    12.01100     C ( 1.00)
     H                 1.00     1.00800     H ( 1.00)

     No symmetry found



   Cartesian axes

     site n.     atom                  positions (alat units)
         1        Na     tau(   1) = (   0.2476327   0.1287261   1.4401902  )
         2        Na     tau(   2) = (   0.2347070   0.3964799   1.8357059  )
         3        Na     tau(   3) = (   0.2580766   0.4457236   1.6551511  )
         4        Na     tau(   4) = (   0.0484944   0.0277893   1.6277847  )
         5        Na     tau(   5) = (   0.2352313   0.0813062   1.2863150  )
         6        Na     tau(   6) = (   0.0747243   0.2371463   1.1982473  )
         7        Na     tau(   7) = (   0.1133306   0.7698962   1.8611434  )
         8        Na     tau(   8) = (   0.9037110   0.1954209   1.2700780  )
         9        Na     tau(   9) = (   0.5181841   0.1014052   1.4940734  )
        10        Na     tau(  10) = (   0.3803624   0.0140251   1.8302637  )
        11        Na     tau(  11) = (   0.3545179   0.4989222   1.3772145  )
        12        B      tau(  12) = (   0.9565860   0.6559989   1.4661680  )
        13        B      tau(  13) = (   0.3779039   0.3190213   1.8506233  )
        14        B      tau(  14) = (   0.6357433   0.7757670   1.3375748  )
        15        B      tau(  15) = (   0.9958362   0.0827877   1.8476266  )
        16        B      tau(  16) = (   0.6987179   0.5586979   1.3943070  )
        17        B      tau(  17) = (   0.0903279   0.5997535   1.2200041  )
        18        B      tau(  18) = (   0.9460845   0.5017876   1.4754679  )
        19        B      tau(  19) = (   0.0032347   0.0527127   1.2839437  )
        20        B      tau(  20) = (   0.1241012   0.5940167   1.6016841  )
        21        B      tau(  21) = (   0.4174729   0.9198072   1.5541475  )
        22        B      tau(  22) = (   0.4638227   0.9107282   1.2322731  )
        23        B      tau(  23) = (   0.5096053   0.7092947   1.5000083  )
        24        B      tau(  24) = (   0.4035376   0.9367665   1.6900270  )
        25        B      tau(  25) = (   0.7132674   0.8560217   1.2558196  )
        26        B      tau(  26) = (   0.2579773   0.4217781   1.2874388  )
        27        B      tau(  27) = (   0.1862793   0.2338812   1.3576537  )
        28        B      tau(  28) = (   0.2134919   0.3664862   1.5073156  )
        29        B      tau(  29) = (   0.3546252   0.0462610   1.5293894  )
        30        B      tau(  30) = (   0.8082206   0.9504483   1.6218439  )
        31        B      tau(  31) = (   0.4915043   0.5408159   1.2913026  )
        32        B      tau(  32) = (   0.2471486   0.9450605   1.4099193  )
        33        B      tau(  33) = (   0.7089246   0.1566090   1.6669558  )
        34        B      tau(  34) = (   0.4858908   0.1745693   1.3498737  )
        35        Si     tau(  35) = (   0.5740761   0.3686341   1.4981594  )
        36        Si     tau(  36) = (   0.9600416   0.6521543   1.2713743  )
        37        Si     tau(  37) = (   0.8029666   0.9237355   1.4090604  )
        38        Si     tau(  38) = (   0.6589027   0.0111466   1.4303706  )
        39        Si     tau(  39) = (   0.7148031   0.8518694   1.6658713  )
        40        Si     tau(  40) = (   0.4062844   0.4370669   1.7000479  )
        41        Si     tau(  41) = (   0.8652299   0.0194200   1.2866760  )
        42        Si     tau(  42) = (   0.8792462   0.4724358   1.3313926  )
        43        Si     tau(  43) = (   0.9761010   0.8191325   1.3004490  )
        44        Si     tau(  44) = (   0.0927580   0.6000365   1.4532062  )
        45        Si     tau(  45) = (   0.8492038   0.6801733   1.8429896  )
        46        Si     tau(  46) = (   0.7648638   0.9759642   1.8781504  )
        47        Si     tau(  47) = (   0.8282769   0.9005504   1.7531841  )
        48        Si     tau(  48) = (   0.2400871   0.2615564   1.6009290  )
        49        Si     tau(  49) = (   0.0782160   0.8578516   1.7113893  )
        50        Si     tau(  50) = (   0.1793983   0.5421597   1.3229395  )
        51        Si     tau(  51) = (   0.3045589   0.3154693   1.3856788  )
        52        Si     tau(  52) = (   0.1868342   0.9496617   1.8144358  )
        53        Si     tau(  53) = (   0.5597482   0.9942014   1.8563540  )
        54        Si     tau(  54) = (   0.3283405   0.8654915   1.7979255  )
        55        Si     tau(  55) = (   0.3944303   0.1342286   1.2558232  )
        56        Si     tau(  56) = (   0.5556116   0.4029995   1.7688172  )
        57        Si     tau(  57) = (   0.8886951   0.0519111   1.5515978  )
        58        Si     tau(  58) = (   0.9177874   0.8266438   1.8602018  )
        59        Si     tau(  59) = (   0.5141592   0.7513592   1.7304853  )
        60        Si     tau(  60) = (   0.6200680   0.7296116   1.5975635  )
        61        Si     tau(  61) = (   0.4531771   0.2653855   1.4551164  )
        62        Si     tau(  62) = (   0.9530092   0.1910999   1.6203079  )
        63        Si     tau(  63) = (   0.9806318   0.2594417   1.4695044  )
        64        Si     tau(  64) = (   0.1810221   0.5658568   1.7318917  )
        65        Si     tau(  65) = (   0.2276537   0.6624309   1.2309086  )
        66        Si     tau(  66) = (   0.7086066   0.3068958   1.4624957  )
        67        Si     tau(  67) = (   0.7573617   0.5008676   1.2102682  )
        68        Si     tau(  68) = (   0.0630774   0.5052222   1.8068999  )
        69        Si     tau(  69) = (   0.9531780   0.4208941   1.7332624  )
        70        Si     tau(  70) = (   0.8429520   0.6341042   1.3864806  )
        71        Si     tau(  71) = (   0.8255070   0.2513717   1.7092992  )
        72        Si     tau(  72) = (   0.4660404   0.3166643   1.5999861  )
        73        Si     tau(  73) = (   0.3218087   0.1696541   1.7095271  )
        74        Si     tau(  74) = (   0.6054871   0.0864265   1.2929813  )
        75        Si     tau(  75) = (   0.4402609   0.0821865   1.6559030  )
        76        Si     tau(  76) = (   0.3770531   0.0317907   1.3941734  )
        77        Si     tau(  77) = (   0.5059912   0.8072476   1.3243503  )
        78        Si     tau(  78) = (   0.6069382   0.5044701   1.6609957  )
        79        Si     tau(  79) = (   0.6370349   0.4244534   1.3741369  )
        80        Si     tau(  80) = (   0.6855674   0.7078304   1.8645318  )
        81        Si     tau(  81) = (   0.0765130   0.9298841   1.2314627  )
        82        Si     tau(  82) = (   0.9863684   0.4054382   1.2235204  )
        83        Si     tau(  83) = (   0.4950631   0.2585395   1.7548401  )
        84        Si     tau(  84) = (   0.5719431   0.1160579   1.7357262  )
        85        Si     tau(  85) = (   0.3566442   0.7389475   1.7027041  )
        86        Si     tau(  86) = (   0.5887626   0.6478135   1.7482870  )
        87        Si     tau(  87) = (   0.3778403   0.4701707   1.1981005  )
        88        Si     tau(  88) = (   0.7705746   0.7745811   1.3546535  )
        89        Si     tau(  89) = (   0.6353056   0.3899359   1.2194797  )
        90        Si     tau(  90) = (   0.3199297   0.6027545   1.8036004  )
        91        Si     tau(  91) = (   0.6901246   0.5787282   1.5496775  )
        92        Si     tau(  92) = (   0.1108815   0.9857043   1.4484254  )
        93        Si     tau(  93) = (   0.0087222   0.8101075   1.4596435  )
        94        Si     tau(  94) = (   0.4662737   0.5842118   1.4387730  )
        95        Si     tau(  95) = (   0.1497603   0.1150345   1.8191784  )
        96        Si     tau(  96) = (   0.9119816   0.9073773   1.5284091  )
        97        Si     tau(  97) = (   0.5081777   0.9347421   1.4393654  )
        98        Si     tau(  98) = (   0.9733658   0.9480751   1.7929925  )
        99        Si     tau(  99) = (   0.2449909   0.7736475   1.5958723  )
       100        Si     tau( 100) = (   0.2568298   0.7840856   1.3334763  )
       101        Si     tau( 101) = (   0.1600543   0.7576293   1.4557816  )
       102        Si     tau( 102) = (   0.9190690   0.2974838   1.8287833  )
       103        Si     tau( 103) = (   0.8499270   0.3745654   1.6104514  )
       104        Si     tau( 104) = (   0.8444491   0.5369054   1.7673517  )
       105        Si     tau( 105) = (   0.1203187   0.1732756   1.6597012  )
       106        Si     tau( 106) = (   0.6321686   0.6005607   1.2681838  )
       107        Si     tau( 107) = (   0.6235724   0.8470731   1.8048529  )
       108        Si     tau( 108) = (   0.7501132   0.1202716   1.2309056  )
       109        Si     tau( 109) = (   0.2746484   0.2046900   1.8670863  )
       110        Si     tau( 110) = (   0.2273259   0.0646953   1.6216725  )
       111        Si     tau( 111) = (   0.0729274   0.4042159   1.4579120  )
       112        Si     tau( 112) = (   0.6640697   0.1601480   1.5162335  )
       113        Si     tau( 113) = (   0.1226817   0.7031938   1.6887692  )
       114        Si     tau( 114) = (   0.8406300   0.5276586   1.5875131  )
       115        Si     tau( 115) = (   0.8389500   0.3149315   1.3901795  )
       116        Si     tau( 116) = (   0.1722727   0.9211130   1.5953570  )
       117        Si     tau( 117) = (   0.0763504   0.1375521   1.3930086  )
       118        Si     tau( 118) = (   0.3256209   0.9115638   1.2548481  )
       119        Si     tau( 119) = (   0.3955849   0.7224945   1.4035300  )
       120        Si     tau( 120) = (   0.4652418   0.5499611   1.5942954  )
       121        Si     tau( 121) = (   0.1212618   0.3651412   1.3045003  )
       122        O      tau( 122) = (   0.0295168   0.4481121   1.8630498  )
       123        O      tau( 123) = (   0.8632305   0.7660730   1.8351295  )
       124        O      tau( 124) = (   0.7865379   0.5198677   1.8292109  )
       125        O      tau( 125) = (   0.7687039   0.8065522   1.2712216  )
       126        O      tau( 126) = (   0.2613316   0.2462125   1.3627201  )
       127        O      tau( 127) = (   0.4383841   0.2721051   1.5384261  )
       128        O      tau( 128) = (   0.4075804   0.9041606   1.6244717  )
       129        O      tau( 129) = (   0.2891632   0.9821156   1.2266374  )
       130        O      tau( 130) = (   0.3003666   0.1796727   1.7902854  )
       131        O      tau( 131) = (   0.5973279   0.4225163   1.2949590  )
       132        O      tau( 132) = (   0.5334428   0.5020140   1.6146071  )
       133        O      tau( 133) = (   0.2755656   0.1058719   1.6786020  )
       134        O      tau( 134) = (   0.1545595   0.1075181   1.6150265  )
       135        O      tau( 135) = (   0.1198242   0.5723265   1.5291309  )
       136        O      tau( 136) = (   0.5826608   0.7211316   1.6806210  )
       137        O      tau( 137) = (   0.4384820   0.7620469   1.6969890  )
       138        O      tau( 138) = (   0.3813441   0.2977472   1.4178316  )
       139        O      tau( 139) = (   0.9518571   0.2429557   1.5505285  )
       140        O      tau( 140) = (   0.6668767   0.5177678   1.6031137  )
       141        O      tau( 141) = (   0.1520770   0.1695411   1.3620472  )
       142        O      tau( 142) = (   0.6925009   0.7509516   1.3753791  )
       143        O      tau( 143) = (   0.1434568   0.6580895   1.2139172  )
       144        O      tau( 144) = (   0.4761486   0.9028411   1.5138988  )
       145        O      tau( 145) = (   0.0631356   0.5782061   1.8492954  )
       146        O      tau( 146) = (   0.5876332   0.4146284   1.8503125  )
       147        O      tau( 147) = (   0.1071621   0.8902567   1.6361869  )
       148        O      tau( 148) = (   0.0331486   0.1967754   1.4407710  )
       149        O      tau( 149) = (   0.9443941   0.9810288   1.5588672  )
       150        O      tau( 150) = (   0.5485694   0.5774714   1.2625723  )
       151        O      tau( 151) = (   0.6090489   0.9225244   1.8421140  )
       152        O      tau( 152) = (   0.3184350   0.7927686   1.7545505  )
       153        O      tau( 153) = (   0.2965868   0.2359092   1.6579206  )
       154        O      tau( 154) = (   0.3399948   0.4149078   1.7451441  )
       155        O      tau( 155) = (   0.6583099   0.3076783   1.2358723  )
       156        O      tau( 156) = (   0.5620926   0.7442927   1.5385442  )
       157        O      tau( 157) = (   0.5556976   0.3175372   1.7688381  )
       158        O      tau( 158) = (   0.3525972   0.6632019   1.7471104  )
       159        O      tau( 159) = (   0.9620412   0.3446718   1.7697440  )
       160        O      tau( 160) = (   0.5313272   0.1848172   1.7709556  )
       161        O      tau( 161) = (   0.9429693   0.0183272   1.3239474  )
       162        O      tau( 162) = (   0.4858005   0.9533180   1.8755890  )
       163        O      tau( 163) = (   0.3657073   0.5328581   1.8345358  )
       164        O      tau( 164) = (   0.4406081   0.5066782   1.2484323  )
       165        O      tau( 165) = (   0.3135028   0.2834622   1.8690668  )
       166        O      tau( 166) = (   0.7907911   0.8360261   1.7119523  )
       167        O      tau( 167) = (   0.7289290   0.9234833   1.2340123  )
       168        O      tau( 168) = (   0.1454692   0.2885690   1.3267456  )
       169        O      tau( 169) = (   0.3914991   0.9066251   1.7575926  )
       170        O      tau( 170) = (   0.7079875   0.2222935   1.4707635  )
       171        O      tau( 171) = (   0.9743698   0.8515159   1.5269402  )
       172        O      tau( 172) = (   0.1330105   0.5361140   1.2470617  )
       173        O      tau( 173) = (   0.5827735   0.0420994   1.2254729  )
       174        O      tau( 174) = (   0.8602910   0.6220068   1.7811976  )
       175        O      tau( 175) = (   0.5252483   0.6418342   1.4684534  )
       176        O      tau( 176) = (   0.6556139   0.6691234   1.7930720  )
       177        O      tau( 177) = (   0.9478947   0.4555202   1.2814895  )
       178        O      tau( 178) = (   0.9699578   0.0766966   1.2188133  )
       179        O      tau( 179) = (   0.5480526   0.8088247   1.7836236  )
       180        O      tau( 180) = (   0.3152477   0.7447790   1.3880620  )
       181        O      tau( 181) = (   0.1477991   0.6460434   1.7450578  )
       182        O      tau( 182) = (   0.4226375   0.0083615   1.6949577  )
       183        O      tau( 183) = (   0.5004654   0.8461638   1.2447985  )
       184        O      tau( 184) = (   0.7864920   0.8423242   1.4036977  )
       185        O      tau( 185) = (   0.9046070   0.6136339   1.3286598  )
       186        O      tau( 186) = (   0.1308852   0.5564651   1.3912596  )
       187        O      tau( 187) = (   0.0181193   0.9388870   1.8632981  )
       188        O      tau( 188) = (   0.5236768   0.3172741   1.4469420  )
       189        O      tau( 189) = (   0.6771903   0.1363695   1.2729556  )
       190        O      tau( 190) = (   0.5668565   0.7520726   1.3411952  )
       191        O      tau( 191) = (   0.4390184   0.1054952   1.8920128  )
       192        O      tau( 192) = (   0.2801127   0.0556319   1.5537880  )
       193        O      tau( 193) = (   0.9517833   0.2240015   1.8530263  )
       194        O      tau( 194) = (   0.4078786   0.5134087   1.6517908  )
       195        O      tau( 195) = (   0.6735166   0.7941076   1.8547702  )
       196        O      tau( 196) = (   0.7896414   0.2674110   1.3392843  )
       197        O      tau( 197) = (   0.9136500   0.5214282   1.5392122  )
       198        O      tau( 198) = (   0.5881526   0.4350093   1.4460280  )
       199        O      tau( 199) = (   0.7745755   0.5842257   1.3844862  )
       200        O      tau( 200) = (   0.2034896   0.9862494   1.6415920  )
       201        O      tau( 201) = (   0.1233221   0.6813655   1.4530684  )
       202        O      tau( 202) = (   0.7937827   0.3272627   1.4639956  )
       203        O      tau( 203) = (   0.4473563   0.5396589   1.5104804  )
       204        O      tau( 204) = (   0.6542799   0.3403998   1.5182787  )
       205        O      tau( 205) = (   0.8234572   0.7113307   1.3622509  )
       206        O      tau( 206) = (   0.8127487   0.4431771   1.5824090  )
       207        O      tau( 207) = (   0.5134106   0.6764784   1.7758121  )
       208        O      tau( 208) = (   0.1836556   0.7783442   1.3761575  )
       209        O      tau( 209) = (   0.8104766   0.3105590   1.6473803  )
       210        O      tau( 210) = (   0.3044033   0.9850075   1.3843284  )
       211        O      tau( 211) = (   0.1301504   0.8965179   1.7717389  )
       212        O      tau( 212) = (   0.3197141   0.1653364   1.2298596  )
       213        O      tau( 213) = (   0.4699233   0.1934200   1.4196372  )
       214        O      tau( 214) = (   0.2809558   0.8612246   1.3097159  )
       215        O      tau( 215) = (   0.4264163   0.2824703   1.8051299  )
       216        O      tau( 216) = (   0.6599679   0.6539216   1.5790006  )
       217        O      tau( 217) = (   0.7349642   0.9291111   1.6364595  )
       218        O      tau( 218) = (   0.0099961   0.4612132   1.4800917  )
       219        O      tau( 219) = (   0.5892025   0.1978638   1.5290320  )
       220        O      tau( 220) = (   0.0485841   0.8646896   1.2765110  )
       221        O      tau( 221) = (   0.9732948   0.8322736   1.3845405  )
       222        O      tau( 222) = (   0.4005127   0.1467648   1.7001924  )
       223        O      tau( 223) = (   0.8561165   0.3880932   1.3551362  )
       224        O      tau( 224) = (   0.1908703   0.7320545   1.6493092  )
       225        O      tau( 225) = (   0.5316561   0.3624401   1.5720686  )
       226        O      tau( 226) = (   0.6407674   0.0341441   1.3503554  )
       227        O      tau( 227) = (   0.2507360   0.3493753   1.4464087  )
       228        O      tau( 228) = (   0.5138994   0.8709061   1.3834646  )
       229        O      tau( 229) = (   0.9079300   0.5013233   1.4088368  )
       230        O      tau( 230) = (   0.4395504   0.1937154   1.2966161  )
       231        O      tau( 231) = (   0.2308999   0.6103161   1.2990312  )
       232        O      tau( 232) = (   0.3685013   0.9700313   1.5258447  )
       233        O      tau( 233) = (   0.8514985   0.9494698   1.6877232  )
       234        O      tau( 234) = (   0.0187499   0.4824011   1.7364241  )
       235        O      tau( 235) = (   0.2414021   0.3421124   1.5740169  )
       236        O      tau( 236) = (   0.6097970   0.4413714   1.7163163  )
       237        O      tau( 237) = (   0.4788214   0.4352721   1.7472383  )
       238        O      tau( 238) = (   0.1395403   0.9630524   1.5257738  )
       239        O      tau( 239) = (   0.3787358   0.0784353   1.3203646  )
       240        O      tau( 240) = (   0.5839692   0.9685892   1.4551464  )
       241        O      tau( 241) = (   0.9110607   0.6557788   1.2003494  )
       242        O      tau( 242) = (   0.0686474   0.1043740   1.8437037  )
       243        O      tau( 243) = (   0.1460976   0.3999842   1.5060950  )
       244        O      tau( 244) = (   0.4166165   0.3782170   1.6358330  )
       245        O      tau( 245) = (   0.0075933   0.9084354   1.7265037  )
       246        O      tau( 246) = (   0.8482460   0.9888286   1.2074661  )
       247        O      tau( 247) = (   0.6787187   0.3475581   1.3906861  )
       248        O      tau( 248) = (   0.2793975   0.6318760   1.8700688  )
       249        O      tau( 249) = (   0.1753735   0.9662414   1.3957977  )
       250        O      tau( 250) = (   0.0079684   0.6039592   1.4520956  )
       251        O      tau( 251) = (   0.6799702   0.7916690   1.6137563  )
       252        O      tau( 252) = (   0.8228944   0.4963375   1.2716413  )
       253        O      tau( 253) = (   0.1652982   0.5553089   1.6491463  )
       254        O      tau( 254) = (   0.6527640   0.8346788   1.2935381  )
       255        O      tau( 255) = (   0.0358116   0.1810737   1.6422342  )
       256        O      tau( 256) = (   0.5638762   0.0484964   1.7892635  )
       257        O      tau( 257) = (   0.7314789   0.9670683   1.4359075  )
       258        O      tau( 258) = (   0.2559548   0.8899428   1.4535926  )
       259        O      tau( 259) = (   0.7774448   0.5773609   1.5598674  )
       260        O      tau( 260) = (   0.0868638   0.6515873   1.6288983  )
       261        O      tau( 261) = (   0.2614827   0.9212168   1.7891965  )
       262        O      tau( 262) = (   0.1954831   0.1735609   1.8664394  )
       263        O      tau( 263) = (   0.9906684   0.7948073   1.8435173  )
       264        O      tau( 264) = (   0.4575167   0.9955248   1.4051103  )
       265        O      tau( 265) = (   0.7735858   0.2011661   1.2118609  )
       266        O      tau( 266) = (   0.8814090   0.9281431   1.4499689  )
       267        O      tau( 267) = (   0.4072071   0.9256292   1.2771435  )
       268        O      tau( 268) = (   0.8399764   0.8937974   1.5751596  )
       269        O      tau( 269) = (   0.9802476   0.7272430   1.4739436  )
       270        O      tau( 270) = (   0.4029974   0.6353892   1.4077172  )
       271        O      tau( 271) = (   0.5236271   0.0940762   1.6637713  )
       272        O      tau( 272) = (   0.2291142   0.8566340   1.6031926  )
       273        O      tau( 273) = (   0.1369597   0.1529802   1.7410824  )
       274        O      tau( 274) = (   0.8956842   0.4684356   1.7728116  )
       275        O      tau( 275) = (   0.0304714   0.3296381   1.4668483  )
       276        O      tau( 276) = (   0.9261533   0.1126670   1.5937994  )
       277        O      tau( 277) = (   0.3196110   0.7473434   1.6269653  )
       278        O      tau( 278) = (   0.2346612   0.4755155   1.3381933  )
       279        O      tau( 279) = (   0.0309321   0.9618656   1.4299785  )
       280        O      tau( 280) = (   0.1026240   0.4047238   1.3770124  )
       281        O      tau( 281) = (   0.0996948   0.0720356   1.4419196  )
       282        O      tau( 282) = (   0.9796419   0.7336502   1.2951357  )
       283        O      tau( 283) = (   0.4798587   0.2721799   1.6719849  )
       284        O      tau( 284) = (   0.1447462   0.5042309   1.7791641  )
       285        O      tau( 285) = (   0.6584207   0.0850578   1.4744274  )
       286        O      tau( 286) = (   0.8447302   0.2856675   1.7867899  )
       287        O      tau( 287) = (   0.9236456   0.3532967   1.8933803  )
       288        O      tau( 288) = (   0.7131244   0.4260542   1.2089447  )
       289        O      tau( 289) = (   0.1815374   0.0351118   1.8104616  )
       290        O      tau( 290) = (   0.0329975   0.6097415   1.2681351  )
       291        O      tau( 291) = (   0.8998275   0.8951096   1.8045433  )
       292        O      tau( 292) = (   0.3016404   0.4593341   1.2337882  )
       293        O      tau( 293) = (   0.2631331   0.5633327   1.7490475  )
       294        O      tau( 294) = (   0.7023044   0.1539457   1.5910141  )
       295        O      tau( 295) = (   0.5450848   0.1349270   1.3303906  )
       296        O      tau( 296) = (   0.1632620   0.2443342   1.6379519  )
       297        O      tau( 297) = (   0.1916640   0.3894955   1.2601897  )
       298        O      tau( 298) = (   0.0615898   0.0043928   1.2718305  )
       299        O      tau( 299) = (   0.3967139   0.3875856   1.8762703  )
       300        O      tau( 300) = (   0.4846187   0.5410669   1.3666698  )
       301        O      tau( 301) = (   0.8186424   0.0168112   1.5820830  )
       302        O      tau( 302) = (   0.5974300   0.5762403   1.7036424  )
       303        O      tau( 303) = (   0.4323575   0.7667648   1.3386386  )
       304        O      tau( 304) = (   0.7719883   0.9374236   1.8028857  )
       305        O      tau( 305) = (   0.7672182   0.1900179   1.6976508  )
       306        O      tau( 306) = (   0.8994379   0.0650389   1.4672678  )
       307        O      tau( 307) = (   0.4462121   0.7426137   1.4731770  )
       308        O      tau( 308) = (   0.9211726   0.3961581   1.6533343  )
       309        O      tau( 309) = (   0.2420202   0.2200105   1.5251544  )
       310        O      tau( 310) = (   0.8842963   0.6436934   1.4589679  )
       311        O      tau( 311) = (   0.6482991   0.6785877   1.2330670  )
       312        O      tau( 312) = (   0.4832983   0.6325017   1.6039613  )
       313        O      tau( 313) = (   0.7361349   0.0571749   1.8732737  )
       314        O      tau( 314) = (   0.6649925   0.8590630   1.7336776  )
       315        O      tau( 315) = (   0.9130296   0.2721061   1.4159943  )
       316        O      tau( 316) = (   0.6511009   0.5989696   1.3506902  )
       317        O      tau( 317) = (   0.8131240   0.0898692   1.2825970  )
       318        O      tau( 318) = (   0.6524595   0.1336951   1.7108949  )
       319        O      tau( 319) = (   0.6784211   0.5695802   1.4690337  )
       320        O      tau( 320) = (   0.9018920   0.2183548   1.6834522  )
       321        O      tau( 321) = (   0.9678130   0.0358255   1.7940055  )
       322        O      tau( 322) = (   0.8368182   0.5391156   1.6776043  )
       323        O      tau( 323) = (   0.7668768   0.6856661   1.8697035  )
       324        O      tau( 324) = (   0.1531671   0.9301796   1.8945654  )
       325        O      tau( 325) = (   0.2178402   0.7542098   1.5177838  )
       326        O      tau( 326) = (   0.3614324   0.0782581   1.4600024  )
       327        O      tau( 327) = (   0.4053368   0.0766386   1.5793453  )
       328        O      tau( 328) = (   0.3320739   0.8564650   1.8828345  )
       329        O      tau( 329) = (   0.0914304   0.8126101   1.4681485  )
       330        O      tau( 330) = (   0.2416337   0.7445048   1.2588964  )
       331        O      tau( 331) = (   0.8232583   0.9617889   1.3373563  )
       332        O      tau( 332) = (   0.0224173   0.1103921   1.3331986  )
       333        O      tau( 333) = (   0.0827261   0.7743688   1.7158336  )
       334        O      tau( 334) = (   0.3058372   0.3697607   1.3216954  )
       335        O      tau( 335) = (   0.6940744   0.4843818   1.3763524  )
       336        O      tau( 336) = (   0.0505520   0.3569640   1.2588409  )
       337        O      tau( 337) = (   0.6956442   0.5556100   1.2255199  )
       338        O      tau( 338) = (   0.9205918   0.8444316   1.2442634  )
       339        Al     tau( 339) = (   0.9474166   0.9984982   1.4171699  )
       340        Al     tau( 340) = (   0.7317137   0.2651324   1.2660316  )
       341        C      tau( 341) = (   0.5691377   0.4617851   2.6456931  )
       342        C      tau( 342) = (   0.4944784   0.4516561   2.6471769  )
       343        C      tau( 343) = (   0.6140474   0.4021687   2.6410668  )
       344        C      tau( 344) = (   0.4669239   0.3822075   2.6440066  )
       345        C      tau( 345) = (   0.5966869   0.5312330   2.6488635  )
       346        C      tau( 346) = (   0.4495738   0.5112736   2.6517978  )
       347        C      tau( 347) = (   0.5857528   0.3335483   2.6379532  )
       348        C      tau( 348) = (   0.5123336   0.3235869   2.6394229  )
       349        C      tau( 349) = (   0.5512823   0.5898546   2.6534418  )
       350        C      tau( 350) = (   0.4778681   0.5798945   2.6549008  )
       351        H      tau( 351) = (   0.6715984   0.4086951   2.6398409  )
       352        H      tau( 352) = (   0.4097061   0.3731626   2.6450752  )
       353        H      tau( 353) = (   0.6539041   0.5402829   2.6478006  )
       354        H      tau( 354) = (   0.3920120   0.5047463   2.6530133  )
       355        H      tau( 355) = (   0.6210717   0.2878911   2.6343887  )
       356        H      tau( 356) = (   0.4903398   0.2701488   2.6369959  )
       357        H      tau( 357) = (   0.5732767   0.6432877   2.6558632  )
       358        H      tau( 358) = (   0.4425484   0.6255570   2.6584656  )

     number of k points=     1  Gaussian smearing, width (Ry)=  0.0100
                       cart. coord. in units 2pi/alat
        k(    1) = (   0.0000000   0.0000000   0.0000000), wk =   2.0000000

     Dense  grid: 15943719 G-vectors     FFT dimensions: ( 216, 216, 675)

     Smooth grid: 13361281 G-vectors     FFT dimensions: ( 216, 216, 625)

     Estimated max dynamical RAM per process >       4.14 GB

     Estimated total dynamical RAM >     331.13 GB

     Check: negative core charge=   -0.000001

     Initial potential from superposition of free atoms

     starting charge    1871.8703, renormalised to    1872.0000

     negative rho (up, down):  4.189E-02 0.000E+00
     Starting wfcs are 1419 randomized atomic wfcs
     Checking if some PAW data can be deallocated... 

     total cpu time spent up to now is      149.5 secs

     per-process dynamical memory:  1754.0 Mb

     Self-consistent Calculation

     iteration #  1     ecut=    80.00 Ry     beta= 0.10
     Davidson diagonalization with overlap
     ethr =  1.00E-02,  avg # of iterations =  3.0

     negative rho (up, down):  4.396E-02 0.000E+00

     total cpu time spent up to now is      645.7 secs

     total energy              =  -11693.36977632 Ry
     estimated scf accuracy    <     115.61163262 Ry

     iteration #  2     ecut=    80.00 Ry     beta= 0.10
     Davidson diagonalization with overlap
     ethr =  6.18E-03,  avg # of iterations =  1.0

     negative rho (up, down):  4.568E-02 0.000E+00

     total cpu time spent up to now is      934.7 secs

     total energy              =  -11688.11115182 Ry
     estimated scf accuracy    <      84.88344978 Ry

     iteration #  3     ecut=    80.00 Ry     beta= 0.10
     Davidson diagonalization with overlap
     ethr =  4.53E-03,  avg # of iterations =  1.0

     negative rho (up, down):  4.752E-02 0.000E+00

     total cpu time spent up to now is     1222.2 secs

     total energy              =  -11681.50088634 Ry
     estimated scf accuracy    <      59.18679983 Ry

     iteration #  4     ecut=    80.00 Ry     beta= 0.10
     Davidson diagonalization with overlap
     ethr =  3.16E-03,  avg # of iterations =  2.0

     negative rho (up, down):  4.862E-02 0.000E+00

     total cpu time spent up to now is     1543.0 secs

     total energy              =  -11682.82174393 Ry
     estimated scf accuracy    <      60.37467351 Ry

     iteration #  5     ecut=    80.00 Ry     beta= 0.10
     Davidson diagonalization with overlap
     ethr =  3.16E-03,  avg # of iterations =  1.0

     negative rho (up, down):  4.975E-02 0.000E+00

     total cpu time spent up to now is     1831.3 secs

     total energy              =  -11682.20038402 Ry
     estimated scf accuracy    <      39.48738127 Ry

     iteration #  6     ecut=    80.00 Ry     beta= 0.10
     Davidson diagonalization with overlap
     ethr =  2.11E-03,  avg # of iterations =  2.0

     negative rho (up, down):  5.061E-02 0.000E+00

     total cpu time spent up to now is     2151.1 secs

     total energy              =  -11682.42898046 Ry
     estimated scf accuracy    <      26.85491089 Ry

     iteration #  7     ecut=    80.00 Ry     beta= 0.10
     Davidson diagonalization with overlap
     ethr =  1.43E-03,  avg # of iterations =  2.0

     negative rho (up, down):  5.143E-02 0.000E+00

     total cpu time spent up to now is     2471.5 secs

     total energy              =  -11682.17594540 Ry
     estimated scf accuracy    <      34.65935000 Ry

     iteration #  8     ecut=    80.00 Ry     beta= 0.10
     Davidson diagonalization with overlap
     ethr =  1.43E-03,  avg # of iterations =  2.0

     negative rho (up, down):  5.201E-02 0.000E+00

     total cpu time spent up to now is     2791.3 secs

     total energy              =  -11682.32501158 Ry
     estimated scf accuracy    <      19.39822808 Ry

     iteration #  9     ecut=    80.00 Ry     beta= 0.10
     Davidson diagonalization with overlap
     ethr =  1.04E-03,  avg # of iterations =  2.0

     negative rho (up, down):  5.260E-02 0.000E+00

     total cpu time spent up to now is     3109.8 secs

     total energy              =  -11682.16432328 Ry
     estimated scf accuracy    <      18.55770007 Ry

     iteration # 10     ecut=    80.00 Ry     beta= 0.10
     Davidson diagonalization with overlap
     ethr =  9.91E-04,  avg # of iterations =  1.0

     negative rho (up, down):  5.312E-02 0.000E+00

     total cpu time spent up to now is     3394.8 secs

     total energy              =  -11682.15290586 Ry
     estimated scf accuracy    <      11.98465387 Ry

     iteration # 11     ecut=    80.00 Ry     beta= 0.10
     Davidson diagonalization with overlap
     ethr =  6.40E-04,  avg # of iterations =  4.0

     negative rho (up, down):  5.347E-02 0.000E+00

     total cpu time spent up to now is     3719.0 secs

     total energy              =  -11682.03172447 Ry
     estimated scf accuracy    <      23.30891388 Ry

     iteration # 12     ecut=    80.00 Ry     beta= 0.10
     Davidson diagonalization with overlap
     ethr =  6.40E-04,  avg # of iterations =  2.0

     negative rho (up, down):  5.377E-02 0.000E+00

     total cpu time spent up to now is     4038.6 secs

     total energy              =  -11682.31165618 Ry
     estimated scf accuracy    <       5.21635040 Ry

     iteration # 13     ecut=    80.00 Ry     beta= 0.10
     Davidson diagonalization with overlap
     ethr =  2.79E-04,  avg # of iterations = 18.0

     negative rho (up, down):  5.416E-02 0.000E+00

     total cpu time spent up to now is     4491.8 secs

     total energy              =  -11682.23171375 Ry
     estimated scf accuracy    <       6.43725133 Ry

     iteration # 14     ecut=    80.00 Ry     beta= 0.10
     Davidson diagonalization with overlap
     ethr =  2.79E-04,  avg # of iterations =  1.0

     negative rho (up, down):  5.470E-02 0.000E+00

     total cpu time spent up to now is     4777.1 secs

     total energy              =  -11682.08986756 Ry
     estimated scf accuracy    <       4.94758082 Ry

     iteration # 15     ecut=    80.00 Ry     beta= 0.10
     Davidson diagonalization with overlap
     ethr =  2.64E-04,  avg # of iterations =  1.0

     negative rho (up, down):  5.471E-02 0.000E+00

     total cpu time spent up to now is     5062.7 secs

     total energy              =  -11681.93363395 Ry
     estimated scf accuracy    <      17.43280228 Ry

     iteration # 16     ecut=    80.00 Ry     beta= 0.10
     Davidson diagonalization with overlap
     ethr =  2.64E-04,  avg # of iterations =  2.0

     negative rho (up, down):  5.504E-02 0.000E+00

     total cpu time spent up to now is     5382.9 secs

     total energy              =  -11682.15490412 Ry
     estimated scf accuracy    <       3.82927762 Ry

     iteration # 17     ecut=    80.00 Ry     beta= 0.10
     Davidson diagonalization with overlap
     ethr =  2.05E-04,  avg # of iterations =  1.0

     negative rho (up, down):  5.569E-02 0.000E+00

     total cpu time spent up to now is     5667.4 secs

     total energy              =  -11682.07500860 Ry
     estimated scf accuracy    <       2.93990926 Ry

     iteration # 18     ecut=    80.00 Ry     beta= 0.10
     Davidson diagonalization with overlap
     ethr =  1.57E-04,  avg # of iterations =  2.0

     negative rho (up, down):  5.562E-02 0.000E+00

     total cpu time spent up to now is     5986.4 secs

     total energy              =  -11681.94826930 Ry
     estimated scf accuracy    <       9.55315670 Ry

     iteration # 19     ecut=    80.00 Ry     beta= 0.10
     Davidson diagonalization with overlap
     ethr =  1.57E-04,  avg # of iterations =  2.0

     negative rho (up, down):  5.585E-02 0.000E+00

     total cpu time spent up to now is     6304.9 secs

     total energy              =  -11682.12529320 Ry
     estimated scf accuracy    <       2.45721447 Ry

     iteration # 20     ecut=    80.00 Ry     beta= 0.10
     Davidson diagonalization with overlap
     ethr =  1.31E-04,  avg # of iterations =  1.0

     negative rho (up, down):  5.625E-02 0.000E+00

     total cpu time spent up to now is     6589.8 secs

     total energy              =  -11682.08371539 Ry
     estimated scf accuracy    <       2.59862432 Ry

     iteration # 21     ecut=    80.00 Ry     beta= 0.10
     Davidson diagonalization with overlap
     ethr =  1.31E-04,  avg # of iterations =  1.0

     negative rho (up, down):  5.638E-02 0.000E+00

     total cpu time spent up to now is     6875.4 secs

     total energy              =  -11682.01539621 Ry
     estimated scf accuracy    <       7.68903940 Ry

     iteration # 22     ecut=    80.00 Ry     beta= 0.10
     Davidson diagonalization with overlap
     ethr =  1.31E-04,  avg # of iterations =  1.0

     negative rho (up, down):  5.664E-02 0.000E+00

     total cpu time spent up to now is     7160.5 secs

     total energy              =  -11682.03604869 Ry
     estimated scf accuracy    <      11.54279298 Ry

     iteration # 23     ecut=    80.00 Ry     beta= 0.10
     Davidson diagonalization with overlap
     ethr =  1.31E-04,  avg # of iterations =  1.0

     negative rho (up, down):  5.658E-02 0.000E+00

     total cpu time spent up to now is     7445.4 secs

     total energy              =  -11682.05630689 Ry
     estimated scf accuracy    <       4.56856186 Ry

     iteration # 24     ecut=    80.00 Ry     beta= 0.10
     Davidson diagonalization with overlap
     ethr =  1.31E-04,  avg # of iterations =  1.0

     negative rho (up, down):  5.703E-02 0.000E+00

     total cpu time spent up to now is     7730.5 secs

     total energy              =  -11682.06235375 Ry
     estimated scf accuracy    <       4.76915632 Ry

     iteration # 25     ecut=    80.00 Ry     beta= 0.10
     Davidson diagonalization with overlap
     ethr =  1.31E-04,  avg # of iterations =  1.0

     negative rho (up, down):  5.720E-02 0.000E+00

     total cpu time spent up to now is     8015.7 secs

     total energy              =  -11682.08411751 Ry
     estimated scf accuracy    <       2.18714386 Ry

     iteration # 26     ecut=    80.00 Ry     beta= 0.10
     Davidson diagonalization with overlap
     ethr =  1.17E-04,  avg # of iterations =  1.0

     negative rho (up, down):  5.731E-02 0.000E+00

     total cpu time spent up to now is     8300.7 secs

     total energy              =  -11682.08064045 Ry
     estimated scf accuracy    <       1.41302150 Ry

     iteration # 27     ecut=    80.00 Ry     beta= 0.10
     Davidson diagonalization with overlap
     ethr =  7.55E-05,  avg # of iterations =  1.0

     negative rho (up, down):  5.786E-02 0.000E+00

     total cpu time spent up to now is     8585.3 secs

     total energy              =  -11682.07141144 Ry
     estimated scf accuracy    <       2.73375388 Ry

     iteration # 28     ecut=    80.00 Ry     beta= 0.10
     Davidson diagonalization with overlap
     ethr =  7.55E-05,  avg # of iterations =  1.0

     negative rho (up, down):  5.743E-02 0.000E+00

     total cpu time spent up to now is     8869.9 secs

     total energy              =  -11682.00950216 Ry
     estimated scf accuracy    <       5.37438912 Ry

     iteration # 29     ecut=    80.00 Ry     beta= 0.10
     Davidson diagonalization with overlap
     ethr =  7.55E-05,  avg # of iterations =  1.0

     negative rho (up, down):  5.757E-02 0.000E+00

     total cpu time spent up to now is     9154.9 secs

     total energy              =  -11682.08003096 Ry
     estimated scf accuracy    <       4.65093730 Ry

     iteration # 30     ecut=    80.00 Ry     beta= 0.10
     Davidson diagonalization with overlap
     ethr =  7.55E-05,  avg # of iterations =  1.0

     negative rho (up, down):  5.768E-02 0.000E+00

     total cpu time spent up to now is     9440.1 secs

     total energy              =  -11682.10027552 Ry
     estimated scf accuracy    <       0.86773411 Ry

     iteration # 31     ecut=    80.00 Ry     beta= 0.10
     Davidson diagonalization with overlap
     ethr =  4.64E-05,  avg # of iterations =  1.0

     negative rho (up, down):  5.789E-02 0.000E+00

     total cpu time spent up to now is     9725.6 secs

     total energy              =  -11682.10052672 Ry
     estimated scf accuracy    <       0.60359109 Ry

     iteration # 32     ecut=    80.00 Ry     beta= 0.10
     Davidson diagonalization with overlap
     ethr =  3.22E-05,  avg # of iterations =  2.0

     negative rho (up, down):  5.800E-02 0.000E+00

     total cpu time spent up to now is    10044.8 secs

     total energy              =  -11682.09051084 Ry
     estimated scf accuracy    <       1.59506287 Ry

     iteration # 33     ecut=    80.00 Ry     beta= 0.10
     Davidson diagonalization with overlap
     ethr =  3.22E-05,  avg # of iterations =  2.0

     negative rho (up, down):  5.798E-02 0.000E+00

     total cpu time spent up to now is    10363.2 secs

     total energy              =  -11682.09699748 Ry
     estimated scf accuracy    <       1.00748430 Ry

     iteration # 34     ecut=    80.00 Ry     beta= 0.10
     Davidson diagonalization with overlap
     ethr =  3.22E-05,  avg # of iterations =  1.0

     negative rho (up, down):  5.841E-02 0.000E+00

     total cpu time spent up to now is    10648.6 secs

     total energy              =  -11682.09983478 Ry
     estimated scf accuracy    <       0.58110214 Ry

     iteration # 35     ecut=    80.00 Ry     beta= 0.10
     Davidson diagonalization with overlap
     ethr =  3.10E-05,  avg # of iterations =  1.0

     negative rho (up, down):  5.823E-02 0.000E+00

     total cpu time spent up to now is    10933.2 secs

     total energy              =  -11682.08654188 Ry
     estimated scf accuracy    <       1.09413299 Ry

     iteration # 36     ecut=    80.00 Ry     beta= 0.10
     Davidson diagonalization with overlap
     ethr =  3.10E-05,  avg # of iterations =  1.0

     negative rho (up, down):  5.850E-02 0.000E+00

     total cpu time spent up to now is    11218.5 secs

     total energy              =  -11682.10030429 Ry
     estimated scf accuracy    <       0.47490939 Ry

     iteration # 37     ecut=    80.00 Ry     beta= 0.10
     Davidson diagonalization with overlap
     ethr =  2.54E-05,  avg # of iterations =  1.0

     negative rho (up, down):  5.918E-02 0.000E+00

     total cpu time spent up to now is    11504.1 secs

     total energy              =  -11682.08591144 Ry
     estimated scf accuracy    <       2.30485947 Ry

     iteration # 38     ecut=    80.00 Ry     beta= 0.10
     Davidson diagonalization with overlap
     ethr =  2.54E-05,  avg # of iterations =  2.0

     negative rho (up, down):  5.903E-02 0.000E+00

     total cpu time spent up to now is    11822.9 secs

     total energy              =  -11682.08508845 Ry
     estimated scf accuracy    <       2.00023794 Ry

     iteration # 39     ecut=    80.00 Ry     beta= 0.10
     Davidson diagonalization with overlap
     ethr =  2.54E-05,  avg # of iterations =  1.0

     negative rho (up, down):  5.853E-02 0.000E+00

     total cpu time spent up to now is    12107.8 secs

     total energy              =  -11682.07407196 Ry
     estimated scf accuracy    <       3.00202791 Ry

     iteration # 40     ecut=    80.00 Ry     beta= 0.10
     Davidson diagonalization with overlap
     ethr =  2.54E-05,  avg # of iterations =  2.0

     negative rho (up, down):  5.869E-02 0.000E+00

     total cpu time spent up to now is    12426.8 secs

     total energy              =  -11682.09104013 Ry
     estimated scf accuracy    <       1.72385428 Ry

     iteration # 41     ecut=    80.00 Ry     beta= 0.10
     Davidson diagonalization with overlap
     ethr =  2.54E-05,  avg # of iterations =  1.0

     negative rho (up, down):  5.898E-02 0.000E+00

     total cpu time spent up to now is    12711.9 secs

     total energy              =  -11682.10177480 Ry
     estimated scf accuracy    <       0.51688163 Ry

     iteration # 42     ecut=    80.00 Ry     beta= 0.10
     Davidson diagonalization with overlap
     ethr =  2.54E-05,  avg # of iterations =  1.0

     negative rho (up, down):  5.901E-02 0.000E+00

     total cpu time spent up to now is    12997.5 secs

     total energy              =  -11682.10119898 Ry
     estimated scf accuracy    <       0.32128874 Ry

     iteration # 43     ecut=    80.00 Ry     beta= 0.10
     Davidson diagonalization with overlap
     ethr =  1.72E-05,  avg # of iterations = 17.0

     negative rho (up, down):  5.888E-02 0.000E+00

     total cpu time spent up to now is    13403.5 secs

     total energy              =  -11682.09603555 Ry
     estimated scf accuracy    <       1.35886098 Ry

     iteration # 44     ecut=    80.00 Ry     beta= 0.10
     Davidson diagonalization with overlap
     ethr =  1.72E-05,  avg # of iterations =  1.0

     negative rho (up, down):  5.918E-02 0.000E+00

     total cpu time spent up to now is    13688.8 secs

     total energy              =  -11682.09834007 Ry
     estimated scf accuracy    <       0.99162673 Ry

     iteration # 45     ecut=    80.00 Ry     beta= 0.10
     Davidson diagonalization with overlap
     ethr =  1.72E-05,  avg # of iterations =  1.0

     negative rho (up, down):  5.907E-02 0.000E+00

     total cpu time spent up to now is    13972.3 secs

     total energy              =  -11682.09642814 Ry
     estimated scf accuracy    <       0.71256762 Ry

     iteration # 46     ecut=    80.00 Ry     beta= 0.10
     Davidson diagonalization with overlap
     ethr =  1.72E-05,  avg # of iterations =  1.0

     negative rho (up, down):  5.911E-02 0.000E+00

     total cpu time spent up to now is    14256.4 secs

     total energy              =  -11682.10124892 Ry
     estimated scf accuracy    <       0.59521879 Ry

     iteration # 47     ecut=    80.00 Ry     beta= 0.10
     Davidson diagonalization with overlap
     ethr =  1.72E-05,  avg # of iterations =  1.0

     negative rho (up, down):  5.916E-02 0.000E+00

     total cpu time spent up to now is    14541.1 secs

     total energy              =  -11682.10241557 Ry
     estimated scf accuracy    <       0.13954826 Ry

     iteration # 48     ecut=    80.00 Ry     beta= 0.10
     Davidson diagonalization with overlap
     ethr =  7.45E-06,  avg # of iterations =  1.0

     negative rho (up, down):  5.923E-02 0.000E+00

     total cpu time spent up to now is    14825.7 secs

     total energy              =  -11682.09011311 Ry
     estimated scf accuracy    <       2.35451625 Ry

     iteration # 49     ecut=    80.00 Ry     beta= 0.10
     Davidson diagonalization with overlap
     ethr =  7.45E-06,  avg # of iterations =  2.0

     negative rho (up, down):  5.924E-02 0.000E+00

     total cpu time spent up to now is    15145.8 secs

     total energy              =  -11682.10286148 Ry
     estimated scf accuracy    <       0.43773402 Ry

     iteration # 50     ecut=    80.00 Ry     beta= 0.10
     Davidson diagonalization with overlap
     ethr =  7.45E-06,  avg # of iterations =  1.0

     negative rho (up, down):  5.922E-02 0.000E+00

     total cpu time spent up to now is    15430.4 secs

     total energy              =  -11682.10554780 Ry
     estimated scf accuracy    <       0.06599632 Ry

     iteration # 51     ecut=    80.00 Ry     beta= 0.10
     Davidson diagonalization with overlap
     ethr =  3.53E-06,  avg # of iterations =  1.0

     negative rho (up, down):  5.929E-02 0.000E+00

     total cpu time spent up to now is    15714.8 secs

     total energy              =  -11682.10490661 Ry
     estimated scf accuracy    <       0.19376416 Ry

     iteration # 52     ecut=    80.00 Ry     beta= 0.10
     Davidson diagonalization with overlap
     ethr =  3.53E-06,  avg # of iterations =  1.0

     negative rho (up, down):  5.931E-02 0.000E+00

     total cpu time spent up to now is    15999.6 secs

     total energy              =  -11682.10362847 Ry
     estimated scf accuracy    <       0.47244815 Ry

     iteration # 53     ecut=    80.00 Ry     beta= 0.10
     Davidson diagonalization with overlap
     ethr =  3.53E-06,  avg # of iterations =  1.0

     negative rho (up, down):  5.931E-02 0.000E+00

     total cpu time spent up to now is    16284.4 secs

     total energy              =  -11682.10516342 Ry
     estimated scf accuracy    <       0.27822373 Ry

     iteration # 54     ecut=    80.00 Ry     beta= 0.10
     Davidson diagonalization with overlap
     ethr =  3.53E-06,  avg # of iterations =  1.0

     negative rho (up, down):  5.934E-02 0.000E+00

     total cpu time spent up to now is    16569.7 secs

     total energy              =  -11682.10607318 Ry
     estimated scf accuracy    <       0.07723359 Ry

     iteration # 55     ecut=    80.00 Ry     beta= 0.10
     Davidson diagonalization with overlap
     ethr =  3.53E-06,  avg # of iterations =  1.0

     negative rho (up, down):  5.936E-02 0.000E+00

     total cpu time spent up to now is    16854.4 secs

     total energy              =  -11682.10495779 Ry
     estimated scf accuracy    <       0.26131209 Ry

     iteration # 56     ecut=    80.00 Ry     beta= 0.10
     Davidson diagonalization with overlap
     ethr =  3.53E-06,  avg # of iterations =  1.0

     negative rho (up, down):  5.938E-02 0.000E+00

     total cpu time spent up to now is    17139.5 secs

     total energy              =  -11682.10698215 Ry
     estimated scf accuracy    <       0.03037460 Ry

     iteration # 57     ecut=    80.00 Ry     beta= 0.10
     Davidson diagonalization with overlap
     ethr =  1.62E-06,  avg # of iterations =  1.0

     negative rho (up, down):  5.945E-02 0.000E+00

     total cpu time spent up to now is    17425.0 secs

     total energy              =  -11682.10750686 Ry
     estimated scf accuracy    <       0.02289439 Ry

     iteration # 58     ecut=    80.00 Ry     beta= 0.10
     Davidson diagonalization with overlap
     ethr =  1.22E-06,  avg # of iterations =  1.0

     negative rho (up, down):  5.953E-02 0.000E+00

     total cpu time spent up to now is    17709.3 secs

     total energy              =  -11682.10732852 Ry
     estimated scf accuracy    <       0.05601654 Ry

     iteration # 59     ecut=    80.00 Ry     beta= 0.10
     Davidson diagonalization with overlap
     ethr =  1.22E-06,  avg # of iterations =  1.0

     negative rho (up, down):  5.946E-02 0.000E+00

     total cpu time spent up to now is    17994.1 secs

     total energy              =  -11682.10617004 Ry
     estimated scf accuracy    <       0.12815636 Ry

     iteration # 60     ecut=    80.00 Ry     beta= 0.10
     Davidson diagonalization with overlap
     ethr =  1.22E-06,  avg # of iterations =  1.0

     negative rho (up, down):  5.949E-02 0.000E+00

     total cpu time spent up to now is    18279.9 secs

     total energy              =  -11682.10742034 Ry
     estimated scf accuracy    <       0.03522727 Ry

     iteration # 61     ecut=    80.00 Ry     beta= 0.10
     Davidson diagonalization with overlap
     ethr =  1.22E-06,  avg # of iterations =  1.0

     negative rho (up, down):  5.956E-02 0.000E+00

     total cpu time spent up to now is    18564.6 secs

     total energy              =  -11682.10745477 Ry
     estimated scf accuracy    <       0.05162677 Ry

     iteration # 62     ecut=    80.00 Ry     beta= 0.10
     Davidson diagonalization with overlap
     ethr =  1.22E-06,  avg # of iterations =  1.0

     negative rho (up, down):  5.958E-02 0.000E+00

     total cpu time spent up to now is    18850.2 secs

     total energy              =  -11682.10693822 Ry
     estimated scf accuracy    <       0.16551631 Ry

     iteration # 63     ecut=    80.00 Ry     beta= 0.10
     Davidson diagonalization with overlap
     ethr =  1.22E-06,  avg # of iterations =  1.0

     negative rho (up, down):  5.956E-02 0.000E+00

     total cpu time spent up to now is    19135.0 secs

     total energy              =  -11682.10667715 Ry
     estimated scf accuracy    <       0.18235418 Ry

     iteration # 64     ecut=    80.00 Ry     beta= 0.10
     Davidson diagonalization with overlap
     ethr =  1.22E-06,  avg # of iterations =  1.0

     negative rho (up, down):  5.966E-02 0.000E+00

     total cpu time spent up to now is    19419.1 secs

     total energy              =  -11682.10758782 Ry
     estimated scf accuracy    <       0.09005221 Ry

     iteration # 65     ecut=    80.00 Ry     beta= 0.10
     Davidson diagonalization with overlap
     ethr =  1.22E-06,  avg # of iterations =  1.0

     negative rho (up, down):  5.960E-02 0.000E+00

     total cpu time spent up to now is    19703.9 secs

     total energy              =  -11682.10666884 Ry
     estimated scf accuracy    <       0.17644989 Ry

     iteration # 66     ecut=    80.00 Ry     beta= 0.10
     Davidson diagonalization with overlap
     ethr =  1.22E-06,  avg # of iterations =  1.0

     negative rho (up, down):  5.958E-02 0.000E+00

     total cpu time spent up to now is    19989.1 secs

     total energy              =  -11682.10772012 Ry
     estimated scf accuracy    <       0.03352181 Ry

     iteration # 67     ecut=    80.00 Ry     beta= 0.10
     Davidson diagonalization with overlap
     ethr =  1.22E-06,  avg # of iterations =  1.0

     negative rho (up, down):  5.965E-02 0.000E+00

     total cpu time spent up to now is    20273.8 secs

     total energy              =  -11682.10820644 Ry
     estimated scf accuracy    <       0.02017887 Ry

     iteration # 68     ecut=    80.00 Ry     beta= 0.10
     Davidson diagonalization with overlap
     ethr =  1.08E-06,  avg # of iterations =  1.0

     negative rho (up, down):  5.973E-02 0.000E+00

     total cpu time spent up to now is    20559.9 secs

     total energy              =  -11682.10836781 Ry
     estimated scf accuracy    <       0.02383709 Ry

     iteration # 69     ecut=    80.00 Ry     beta= 0.10
     Davidson diagonalization with overlap
     ethr =  1.08E-06,  avg # of iterations =  1.0

     negative rho (up, down):  5.965E-02 0.000E+00

     total cpu time spent up to now is    20844.0 secs

     total energy              =  -11682.10784622 Ry
     estimated scf accuracy    <       0.02743316 Ry

     iteration # 70     ecut=    80.00 Ry     beta= 0.10
     Davidson diagonalization with overlap
     ethr =  1.08E-06,  avg # of iterations =  1.0

     negative rho (up, down):  5.969E-02 0.000E+00

     total cpu time spent up to now is    21128.9 secs

     total energy              =  -11682.10821849 Ry
     estimated scf accuracy    <       0.02466542 Ry

     iteration # 71     ecut=    80.00 Ry     beta= 0.10
     Davidson diagonalization with overlap
     ethr =  1.08E-06,  avg # of iterations =  1.0

     negative rho (up, down):  5.975E-02 0.000E+00

     total cpu time spent up to now is    21413.7 secs

     total energy              =  -11682.10842001 Ry
     estimated scf accuracy    <       0.01740878 Ry

     iteration # 72     ecut=    80.00 Ry     beta= 0.10
     Davidson diagonalization with overlap
     ethr =  9.30E-07,  avg # of iterations =  1.0

     negative rho (up, down):  5.978E-02 0.000E+00

     total cpu time spent up to now is    21698.7 secs

     total energy              =  -11682.10824693 Ry
     estimated scf accuracy    <       0.05981072 Ry

     iteration # 73     ecut=    80.00 Ry     beta= 0.10
     Davidson diagonalization with overlap
     ethr =  9.30E-07,  avg # of iterations =  1.0

     negative rho (up, down):  5.977E-02 0.000E+00

     total cpu time spent up to now is    21983.8 secs

     total energy              =  -11682.10815894 Ry
     estimated scf accuracy    <       0.05752085 Ry

     iteration # 74     ecut=    80.00 Ry     beta= 0.10
     Davidson diagonalization with overlap
     ethr =  9.30E-07,  avg # of iterations =  1.0

     negative rho (up, down):  5.987E-02 0.000E+00

     total cpu time spent up to now is    22268.6 secs

     total energy              =  -11682.10845110 Ry
     estimated scf accuracy    <       0.05641542 Ry

     iteration # 75     ecut=    80.00 Ry     beta= 0.10
     Davidson diagonalization with overlap
     ethr =  9.30E-07,  avg # of iterations =  1.0

     negative rho (up, down):  5.979E-02 0.000E+00

     total cpu time spent up to now is    22553.4 secs

     total energy              =  -11682.10825256 Ry
     estimated scf accuracy    <       0.03210700 Ry

     iteration # 76     ecut=    80.00 Ry     beta= 0.10
     Davidson diagonalization with overlap
     ethr =  9.30E-07,  avg # of iterations =  1.0

     negative rho (up, down):  5.976E-02 0.000E+00

     total cpu time spent up to now is    22839.7 secs

     total energy              =  -11682.10817813 Ry
     estimated scf accuracy    <       0.04201050 Ry

     iteration # 77     ecut=    80.00 Ry     beta= 0.10
     Davidson diagonalization with overlap
     ethr =  9.30E-07,  avg # of iterations =  1.0

     negative rho (up, down):  5.984E-02 0.000E+00

     total cpu time spent up to now is    23125.5 secs

     total energy              =  -11682.10855159 Ry
     estimated scf accuracy    <       0.03085948 Ry

     iteration # 78     ecut=    80.00 Ry     beta= 0.10
     Davidson diagonalization with overlap
     ethr =  9.30E-07,  avg # of iterations =  1.0

     negative rho (up, down):  5.990E-02 0.000E+00

     total cpu time spent up to now is    23410.3 secs

     total energy              =  -11682.10878782 Ry
     estimated scf accuracy    <       0.01313532 Ry

     iteration # 79     ecut=    80.00 Ry     beta= 0.10
     Davidson diagonalization with overlap
     ethr =  7.02E-07,  avg # of iterations =  1.0

     negative rho (up, down):  5.983E-02 0.000E+00

     total cpu time spent up to now is    23695.2 secs

     total energy              =  -11682.10857178 Ry
     estimated scf accuracy    <       0.00873582 Ry

     iteration # 80     ecut=    80.00 Ry     beta= 0.10
     Davidson diagonalization with overlap
     ethr =  4.67E-07,  avg # of iterations =  1.0

     negative rho (up, down):  5.986E-02 0.000E+00

     total cpu time spent up to now is    23980.6 secs

     total energy              =  -11682.10858555 Ry
     estimated scf accuracy    <       0.02964026 Ry

     iteration # 81     ecut=    80.00 Ry     beta= 0.10
     Davidson diagonalization with overlap
     ethr =  4.67E-07,  avg # of iterations =  1.0

     negative rho (up, down):  5.990E-02 0.000E+00

     total cpu time spent up to now is    24265.5 secs

     total energy              =  -11682.10882672 Ry
     estimated scf accuracy    <       0.00761005 Ry

     iteration # 82     ecut=    80.00 Ry     beta= 0.10
     Davidson diagonalization with overlap
     ethr =  4.07E-07,  avg # of iterations =  1.0

     negative rho (up, down):  5.992E-02 0.000E+00

     total cpu time spent up to now is    24550.5 secs

     total energy              =  -11682.10883349 Ry
     estimated scf accuracy    <       0.01543853 Ry

     iteration # 83     ecut=    80.00 Ry     beta= 0.10
     Davidson diagonalization with overlap
     ethr =  4.07E-07,  avg # of iterations =  1.0

     negative rho (up, down):  5.992E-02 0.000E+00

     total cpu time spent up to now is    24838.0 secs

     total energy              =  -11682.10882252 Ry
     estimated scf accuracy    <       0.01503876 Ry

     iteration # 84     ecut=    80.00 Ry     beta= 0.10
     Davidson diagonalization with overlap
     ethr =  4.07E-07,  avg # of iterations =  1.0

     negative rho (up, down):  5.996E-02 0.000E+00

     total cpu time spent up to now is    25122.3 secs

     total energy              =  -11682.10887447 Ry
     estimated scf accuracy    <       0.01722725 Ry

     iteration # 85     ecut=    80.00 Ry     beta= 0.10
     Davidson diagonalization with overlap
     ethr =  4.07E-07,  avg # of iterations =  1.0

     negative rho (up, down):  5.994E-02 0.000E+00

     total cpu time spent up to now is    25407.3 secs

     total energy              =  -11682.10889366 Ry
     estimated scf accuracy    <       0.00436354 Ry

     iteration # 86     ecut=    80.00 Ry     beta= 0.10
     Davidson diagonalization with overlap
     ethr =  2.33E-07,  avg # of iterations =  1.0

     negative rho (up, down):  5.992E-02 0.000E+00

     total cpu time spent up to now is    25692.2 secs

     total energy              =  -11682.10871024 Ry
     estimated scf accuracy    <       0.02547156 Ry

     iteration # 87     ecut=    80.00 Ry     beta= 0.10
     Davidson diagonalization with overlap
     ethr =  2.33E-07,  avg # of iterations =  1.0

     negative rho (up, down):  5.996E-02 0.000E+00

     total cpu time spent up to now is    25977.2 secs

     total energy              =  -11682.10881309 Ry
     estimated scf accuracy    <       0.02292291 Ry

     iteration # 88     ecut=    80.00 Ry     beta= 0.10
     Davidson diagonalization with overlap
     ethr =  2.33E-07,  avg # of iterations =  1.0

     negative rho (up, down):  5.999E-02 0.000E+00

     total cpu time spent up to now is    26261.4 secs

     total energy              =  -11682.10900242 Ry
     estimated scf accuracy    <       0.00349601 Ry

     iteration # 89     ecut=    80.00 Ry     beta= 0.10
     Davidson diagonalization with overlap
     ethr =  1.87E-07,  avg # of iterations =  1.0

     negative rho (up, down):  5.999E-02 0.000E+00

     total cpu time spent up to now is    26545.4 secs

     total energy              =  -11682.10898335 Ry
     estimated scf accuracy    <       0.00254115 Ry

     iteration # 90     ecut=    80.00 Ry     beta= 0.10
     Davidson diagonalization with overlap
     ethr =  1.36E-07,  avg # of iterations =  1.0

     negative rho (up, down):  5.998E-02 0.000E+00

     total cpu time spent up to now is    26830.5 secs

     total energy              =  -11682.10890290 Ry
     estimated scf accuracy    <       0.01218627 Ry

     iteration # 91     ecut=    80.00 Ry     beta= 0.10
     Davidson diagonalization with overlap
     ethr =  1.36E-07,  avg # of iterations =  1.0

     negative rho (up, down):  5.999E-02 0.000E+00

     total cpu time spent up to now is    27115.7 secs

     total energy              =  -11682.10900594 Ry
     estimated scf accuracy    <       0.00315108 Ry

     iteration # 92     ecut=    80.00 Ry     beta= 0.10
     Davidson diagonalization with overlap
     ethr =  1.36E-07,  avg # of iterations =  1.0

     negative rho (up, down):  6.000E-02 0.000E+00

     total cpu time spent up to now is    27400.7 secs

     total energy              =  -11682.10902359 Ry
     estimated scf accuracy    <       0.00497767 Ry

     iteration # 93     ecut=    80.00 Ry     beta= 0.10
     Davidson diagonalization with overlap
     ethr =  1.36E-07,  avg # of iterations =  1.0

     negative rho (up, down):  6.001E-02 0.000E+00

     total cpu time spent up to now is    27685.9 secs

     total energy              =  -11682.10903660 Ry
     estimated scf accuracy    <       0.00328401 Ry

     iteration # 94     ecut=    80.00 Ry     beta= 0.10
     Davidson diagonalization with overlap
     ethr =  1.36E-07,  avg # of iterations =  1.0

     negative rho (up, down):  6.002E-02 0.000E+00

     total cpu time spent up to now is    27970.8 secs

     total energy              =  -11682.10904694 Ry
     estimated scf accuracy    <       0.00384892 Ry

     iteration # 95     ecut=    80.00 Ry     beta= 0.10
     Davidson diagonalization with overlap
     ethr =  1.36E-07,  avg # of iterations =  1.0

     negative rho (up, down):  6.003E-02 0.000E+00

     total cpu time spent up to now is    28256.4 secs

     total energy              =  -11682.10906812 Ry
     estimated scf accuracy    <       0.00106427 Ry

     iteration # 96     ecut=    80.00 Ry     beta= 0.10
     Davidson diagonalization with overlap
     ethr =  5.69E-08,  avg # of iterations =  1.0

     negative rho (up, down):  6.003E-02 0.000E+00

     total cpu time spent up to now is    28543.1 secs

     total energy              =  -11682.10902047 Ry
     estimated scf accuracy    <       0.00761081 Ry

     iteration # 97     ecut=    80.00 Ry     beta= 0.10
     Davidson diagonalization with overlap
     ethr =  5.69E-08,  avg # of iterations =  1.0

     negative rho (up, down):  6.003E-02 0.000E+00

     total cpu time spent up to now is    28827.3 secs

     total energy              =  -11682.10901562 Ry
     estimated scf accuracy    <       0.00830484 Ry

     iteration # 98     ecut=    80.00 Ry     beta= 0.10
     Davidson diagonalization with overlap
     ethr =  5.69E-08,  avg # of iterations =  1.0

     negative rho (up, down):  6.005E-02 0.000E+00

     total cpu time spent up to now is    29112.0 secs

     total energy              =  -11682.10908798 Ry
     estimated scf accuracy    <       0.00134973 Ry

     iteration # 99     ecut=    80.00 Ry     beta= 0.10
     Davidson diagonalization with overlap
     ethr =  5.69E-08,  avg # of iterations =  1.0

     negative rho (up, down):  6.007E-02 0.000E+00

     total cpu time spent up to now is    29396.8 secs

     total energy              =  -11682.10911098 Ry
     estimated scf accuracy    <       0.00092829 Ry

     iteration #100     ecut=    80.00 Ry     beta= 0.10
     Davidson diagonalization with overlap
     ethr =  4.96E-08,  avg # of iterations =  1.0

     negative rho (up, down):  6.005E-02 0.000E+00

     total cpu time spent up to now is    29682.9 secs

     total energy              =  -11682.10906382 Ry
     estimated scf accuracy    <       0.00380066 Ry

     iteration #101     ecut=    80.00 Ry     beta= 0.10
     Davidson diagonalization with overlap
     ethr =  4.96E-08,  avg # of iterations =  1.0

     negative rho (up, down):  6.005E-02 0.000E+00

     total cpu time spent up to now is    29971.1 secs

     total energy              =  -11682.10908474 Ry
     estimated scf accuracy    <       0.00189018 Ry

     iteration #102     ecut=    80.00 Ry     beta= 0.10
     Davidson diagonalization with overlap
     ethr =  4.96E-08,  avg # of iterations =  1.0

     negative rho (up, down):  6.006E-02 0.000E+00

     total cpu time spent up to now is    30256.7 secs

     total energy              =  -11682.10909528 Ry
     estimated scf accuracy    <       0.00332353 Ry

     iteration #103     ecut=    80.00 Ry     beta= 0.10
     Davidson diagonalization with overlap
     ethr =  4.96E-08,  avg # of iterations =  1.0

     negative rho (up, down):  6.007E-02 0.000E+00

     total cpu time spent up to now is    30541.8 secs

     total energy              =  -11682.10910905 Ry
     estimated scf accuracy    <       0.00195684 Ry

     iteration #104     ecut=    80.00 Ry     beta= 0.10
     Davidson diagonalization with overlap
     ethr =  4.96E-08,  avg # of iterations =  1.0

     negative rho (up, down):  6.007E-02 0.000E+00

     total cpu time spent up to now is    30826.1 secs

     total energy              =  -11682.10910802 Ry
     estimated scf accuracy    <       0.00203763 Ry

     iteration #105     ecut=    80.00 Ry     beta= 0.10
     Davidson diagonalization with overlap
     ethr =  4.96E-08,  avg # of iterations =  1.0

     negative rho (up, down):  6.008E-02 0.000E+00

     total cpu time spent up to now is    31110.8 secs

     total energy              =  -11682.10913073 Ry
     estimated scf accuracy    <       0.00047430 Ry

     iteration #106     ecut=    80.00 Ry     beta= 0.10
     Davidson diagonalization with overlap
     ethr =  2.53E-08,  avg # of iterations =  1.0

     negative rho (up, down):  6.009E-02 0.000E+00

     total cpu time spent up to now is    31396.2 secs

     total energy              =  -11682.10912630 Ry
     estimated scf accuracy    <       0.00183252 Ry

     iteration #107     ecut=    80.00 Ry     beta= 0.10
     Davidson diagonalization with overlap
     ethr =  2.53E-08,  avg # of iterations =  1.0

     negative rho (up, down):  6.009E-02 0.000E+00

     total cpu time spent up to now is    31681.1 secs

     total energy              =  -11682.10910783 Ry
     estimated scf accuracy    <       0.00281260 Ry

     iteration #108     ecut=    80.00 Ry     beta= 0.10
     Davidson diagonalization with overlap
     ethr =  2.53E-08,  avg # of iterations =  1.0

     negative rho (up, down):  6.009E-02 0.000E+00

     total cpu time spent up to now is    31966.3 secs

     total energy              =  -11682.10913205 Ry
     estimated scf accuracy    <       0.00081247 Ry

     iteration #109     ecut=    80.00 Ry     beta= 0.10
     Davidson diagonalization with overlap
     ethr =  2.53E-08,  avg # of iterations =  1.0

     negative rho (up, down):  6.011E-02 0.000E+00

     total cpu time spent up to now is    32251.0 secs

     total energy              =  -11682.10915288 Ry
     estimated scf accuracy    <       0.00041207 Ry

     iteration #110     ecut=    80.00 Ry     beta= 0.10
     Davidson diagonalization with overlap
     ethr =  2.20E-08,  avg # of iterations =  1.0

     negative rho (up, down):  6.011E-02 0.000E+00

     total cpu time spent up to now is    32536.2 secs

     total energy              =  -11682.10913809 Ry
     estimated scf accuracy    <       0.00103142 Ry

     iteration #111     ecut=    80.00 Ry     beta= 0.10
     Davidson diagonalization with overlap
     ethr =  2.20E-08,  avg # of iterations =  1.0

     negative rho (up, down):  6.010E-02 0.000E+00

     total cpu time spent up to now is    32821.7 secs

     total energy              =  -11682.10913198 Ry
     estimated scf accuracy    <       0.00126517 Ry

     iteration #112     ecut=    80.00 Ry     beta= 0.10
     Davidson diagonalization with overlap
     ethr =  2.20E-08,  avg # of iterations =  1.0

     negative rho (up, down):  6.011E-02 0.000E+00

     total cpu time spent up to now is    33106.2 secs

     total energy              =  -11682.10913213 Ry
     estimated scf accuracy    <       0.00300540 Ry

     iteration #113     ecut=    80.00 Ry     beta= 0.10
     Davidson diagonalization with overlap
     ethr =  2.20E-08,  avg # of iterations =  1.0

     negative rho (up, down):  6.012E-02 0.000E+00

     total cpu time spent up to now is    33391.4 secs

     total energy              =  -11682.10914785 Ry
     estimated scf accuracy    <       0.00177666 Ry

     iteration #114     ecut=    80.00 Ry     beta= 0.10
     Davidson diagonalization with overlap
     ethr =  2.20E-08,  avg # of iterations =  1.0

     negative rho (up, down):  6.011E-02 0.000E+00

     total cpu time spent up to now is    33675.9 secs

     total energy              =  -11682.10914149 Ry
     estimated scf accuracy    <       0.00150469 Ry

     iteration #115     ecut=    80.00 Ry     beta= 0.10
     Davidson diagonalization with overlap
     ethr =  2.20E-08,  avg # of iterations =  1.0

     negative rho (up, down):  6.013E-02 0.000E+00

     total cpu time spent up to now is    33960.3 secs

     total energy              =  -11682.10916050 Ry
     estimated scf accuracy    <       0.00039107 Ry

     iteration #116     ecut=    80.00 Ry     beta= 0.10
     Davidson diagonalization with overlap
     ethr =  2.09E-08,  avg # of iterations =  1.0

     negative rho (up, down):  6.014E-02 0.000E+00

     total cpu time spent up to now is    34245.1 secs

     total energy              =  -11682.10916353 Ry
     estimated scf accuracy    <       0.00086177 Ry

     iteration #117     ecut=    80.00 Ry     beta= 0.10
     Davidson diagonalization with overlap
     ethr =  2.09E-08,  avg # of iterations =  1.0

     negative rho (up, down):  6.013E-02 0.000E+00

     total cpu time spent up to now is    34529.7 secs

     total energy              =  -11682.10915208 Ry
     estimated scf accuracy    <       0.00103263 Ry

     iteration #118     ecut=    80.00 Ry     beta= 0.10
     Davidson diagonalization with overlap
     ethr =  2.09E-08,  avg # of iterations =  1.0

     negative rho (up, down):  6.013E-02 0.000E+00

     total cpu time spent up to now is    34814.8 secs

     total energy              =  -11682.10915752 Ry
     estimated scf accuracy    <       0.00067084 Ry

     iteration #119     ecut=    80.00 Ry     beta= 0.10
     Davidson diagonalization with overlap
     ethr =  2.09E-08,  avg # of iterations =  1.0

     negative rho (up, down):  6.015E-02 0.000E+00

     total cpu time spent up to now is    35100.1 secs

     total energy              =  -11682.10917195 Ry
     estimated scf accuracy    <       0.00023206 Ry

     iteration #120     ecut=    80.00 Ry     beta= 0.10
     Davidson diagonalization with overlap
     ethr =  1.24E-08,  avg # of iterations =  1.0

     negative rho (up, down):  6.015E-02 0.000E+00

     total cpu time spent up to now is    35385.2 secs

     total energy              =  -11682.10917094 Ry
     estimated scf accuracy    <       0.00028538 Ry

     iteration #121     ecut=    80.00 Ry     beta= 0.10
     Davidson diagonalization with overlap
     ethr =  1.24E-08,  avg # of iterations =  1.0

     negative rho (up, down):  6.015E-02 0.000E+00

     total cpu time spent up to now is    35670.4 secs

     total energy              =  -11682.10916536 Ry
     estimated scf accuracy    <       0.00062517 Ry

     iteration #122     ecut=    80.00 Ry     beta= 0.10
     Davidson diagonalization with overlap
     ethr =  1.24E-08,  avg # of iterations =  1.0

     negative rho (up, down):  6.015E-02 0.000E+00

     total cpu time spent up to now is    35956.0 secs

     total energy              =  -11682.10915977 Ry
     estimated scf accuracy    <       0.00200513 Ry

     iteration #123     ecut=    80.00 Ry     beta= 0.10
     Davidson diagonalization with overlap
     ethr =  1.24E-08,  avg # of iterations =  1.0

     negative rho (up, down):  6.016E-02 0.000E+00

     total cpu time spent up to now is    36240.9 secs

     total energy              =  -11682.10917026 Ry
     estimated scf accuracy    <       0.00136364 Ry

     iteration #124     ecut=    80.00 Ry     beta= 0.10
     Davidson diagonalization with overlap
     ethr =  1.24E-08,  avg # of iterations =  1.0

     negative rho (up, down):  6.015E-02 0.000E+00

     total cpu time spent up to now is    36526.2 secs

     total energy              =  -11682.10916619 Ry
     estimated scf accuracy    <       0.00066683 Ry

     iteration #125     ecut=    80.00 Ry     beta= 0.10
     Davidson diagonalization with overlap
     ethr =  1.24E-08,  avg # of iterations =  1.0

     negative rho (up, down):  6.016E-02 0.000E+00

     total cpu time spent up to now is    36810.3 secs

     total energy              =  -11682.10917649 Ry
     estimated scf accuracy    <       0.00040455 Ry

     iteration #126     ecut=    80.00 Ry     beta= 0.10
     Davidson diagonalization with overlap
     ethr =  1.24E-08,  avg # of iterations =  1.0

     negative rho (up, down):  6.017E-02 0.000E+00

     total cpu time spent up to now is    37095.7 secs

     total energy              =  -11682.10917982 Ry
     estimated scf accuracy    <       0.00046332 Ry

     iteration #127     ecut=    80.00 Ry     beta= 0.10
     Davidson diagonalization with overlap
     ethr =  1.24E-08,  avg # of iterations =  1.0

     negative rho (up, down):  6.017E-02 0.000E+00

     total cpu time spent up to now is    37381.4 secs

     total energy              =  -11682.10917588 Ry
     estimated scf accuracy    <       0.00039801 Ry

     iteration #128     ecut=    80.00 Ry     beta= 0.10
     Davidson diagonalization with overlap
     ethr =  1.24E-08,  avg # of iterations =  1.0

     negative rho (up, down):  6.016E-02 0.000E+00

     total cpu time spent up to now is    37667.5 secs

     total energy              =  -11682.10917337 Ry
     estimated scf accuracy    <       0.00053133 Ry

     iteration #129     ecut=    80.00 Ry     beta= 0.10
     Davidson diagonalization with overlap
     ethr =  1.24E-08,  avg # of iterations =  1.0

     negative rho (up, down):  6.017E-02 0.000E+00

     total cpu time spent up to now is    37951.6 secs

     total energy              =  -11682.10918185 Ry
     estimated scf accuracy    <       0.00016827 Ry

     iteration #130     ecut=    80.00 Ry     beta= 0.10
     Davidson diagonalization with overlap
     ethr =  8.99E-09,  avg # of iterations =  1.0

     negative rho (up, down):  6.018E-02 0.000E+00

     total cpu time spent up to now is    38236.4 secs

     total energy              =  -11682.10918373 Ry
     estimated scf accuracy    <       0.00012080 Ry

     iteration #131     ecut=    80.00 Ry     beta= 0.10
     Davidson diagonalization with overlap
     ethr =  6.45E-09,  avg # of iterations =  1.0

     negative rho (up, down):  6.018E-02 0.000E+00

     total cpu time spent up to now is    38523.1 secs

     total energy              =  -11682.10918392 Ry
     estimated scf accuracy    <       0.00011194 Ry

     iteration #132     ecut=    80.00 Ry     beta= 0.10
     Davidson diagonalization with overlap
     ethr =  5.98E-09,  avg # of iterations =  1.0

     negative rho (up, down):  6.018E-02 0.000E+00

     total cpu time spent up to now is    38808.2 secs

     total energy              =  -11682.10918023 Ry
     estimated scf accuracy    <       0.00061531 Ry

     iteration #133     ecut=    80.00 Ry     beta= 0.10
     Davidson diagonalization with overlap
     ethr =  5.98E-09,  avg # of iterations =  1.0

     negative rho (up, down):  6.018E-02 0.000E+00

     total cpu time spent up to now is    39093.0 secs

     total energy              =  -11682.10918301 Ry
     estimated scf accuracy    <       0.00067324 Ry

     iteration #134     ecut=    80.00 Ry     beta= 0.10
     Davidson diagonalization with overlap
     ethr =  5.98E-09,  avg # of iterations =  1.0

     negative rho (up, down):  6.018E-02 0.000E+00

     total cpu time spent up to now is    39377.6 secs

     total energy              =  -11682.10918144 Ry
     estimated scf accuracy    <       0.00025090 Ry

     iteration #135     ecut=    80.00 Ry     beta= 0.10
     Davidson diagonalization with overlap
     ethr =  5.98E-09,  avg # of iterations =  1.0

     negative rho (up, down):  6.019E-02 0.000E+00

     total cpu time spent up to now is    39663.0 secs

     total energy              =  -11682.10918467 Ry
     estimated scf accuracy    <       0.00035332 Ry

     iteration #136     ecut=    80.00 Ry     beta= 0.10
     Davidson diagonalization with overlap
     ethr =  5.98E-09,  avg # of iterations =  1.0

     negative rho (up, down):  6.019E-02 0.000E+00

     total cpu time spent up to now is    39947.3 secs

     total energy              =  -11682.10918730 Ry
     estimated scf accuracy    <       0.00020758 Ry

     iteration #137     ecut=    80.00 Ry     beta= 0.10
     Davidson diagonalization with overlap
     ethr =  5.98E-09,  avg # of iterations =  1.0

     negative rho (up, down):  6.019E-02 0.000E+00

     total cpu time spent up to now is    40232.1 secs

     total energy              =  -11682.10918732 Ry
     estimated scf accuracy    <       0.00013642 Ry

     iteration #138     ecut=    80.00 Ry     beta= 0.10
     Davidson diagonalization with overlap
     ethr =  5.98E-09,  avg # of iterations =  1.0

     negative rho (up, down):  6.018E-02 0.000E+00

     total cpu time spent up to now is    40517.3 secs

     total energy              =  -11682.10918417 Ry
     estimated scf accuracy    <       0.00024188 Ry

     iteration #139     ecut=    80.00 Ry     beta= 0.10
     Davidson diagonalization with overlap
     ethr =  5.98E-09,  avg # of iterations =  1.0

     negative rho (up, down):  6.019E-02 0.000E+00

     total cpu time spent up to now is    40801.8 secs

     total energy              =  -11682.10918750 Ry
     estimated scf accuracy    <       0.00014919 Ry

     iteration #140     ecut=    80.00 Ry     beta= 0.10
     Davidson diagonalization with overlap
     ethr =  5.98E-09,  avg # of iterations =  1.0

     negative rho (up, down):  6.019E-02 0.000E+00

     total cpu time spent up to now is    41087.9 secs

     total energy              =  -11682.10918909 Ry
     estimated scf accuracy    <       0.00005861 Ry

     iteration #141     ecut=    80.00 Ry     beta= 0.10
     Davidson diagonalization with overlap
     ethr =  3.13E-09,  avg # of iterations =  1.0

     negative rho (up, down):  6.020E-02 0.000E+00

     total cpu time spent up to now is    41373.4 secs

     total energy              =  -11682.10918986 Ry
     estimated scf accuracy    <       0.00003510 Ry

     iteration #142     ecut=    80.00 Ry     beta= 0.10
     Davidson diagonalization with overlap
     ethr =  1.88E-09,  avg # of iterations =  1.0

     negative rho (up, down):  6.020E-02 0.000E+00

     total cpu time spent up to now is    41658.5 secs

     total energy              =  -11682.10918882 Ry
     estimated scf accuracy    <       0.00014650 Ry

     iteration #143     ecut=    80.00 Ry     beta= 0.10
     Davidson diagonalization with overlap
     ethr =  1.88E-09,  avg # of iterations =  1.0

     negative rho (up, down):  6.020E-02 0.000E+00

     total cpu time spent up to now is    41943.1 secs

     total energy              =  -11682.10918931 Ry
     estimated scf accuracy    <       0.00022555 Ry

     iteration #144     ecut=    80.00 Ry     beta= 0.10
     Davidson diagonalization with overlap
     ethr =  1.88E-09,  avg # of iterations =  1.0

     negative rho (up, down):  6.020E-02 0.000E+00

     total cpu time spent up to now is    42227.8 secs

     total energy              =  -11682.10918924 Ry
     estimated scf accuracy    <       0.00007369 Ry

     iteration #145     ecut=    80.00 Ry     beta= 0.10
     Davidson diagonalization with overlap
     ethr =  1.88E-09,  avg # of iterations =  1.0

     negative rho (up, down):  6.020E-02 0.000E+00

     total cpu time spent up to now is    42512.9 secs

     total energy              =  -11682.10918957 Ry
     estimated scf accuracy    <       0.00017899 Ry

     iteration #146     ecut=    80.00 Ry     beta= 0.10
     Davidson diagonalization with overlap
     ethr =  1.88E-09,  avg # of iterations =  1.0

     negative rho (up, down):  6.020E-02 0.000E+00

     total cpu time spent up to now is    42800.5 secs

     total energy              =  -11682.10919086 Ry
     estimated scf accuracy    <       0.00007408 Ry

     iteration #147     ecut=    80.00 Ry     beta= 0.10
     Davidson diagonalization with overlap
     ethr =  1.88E-09,  avg # of iterations =  1.0

     negative rho (up, down):  6.021E-02 0.000E+00

     total cpu time spent up to now is    43085.7 secs

     total energy              =  -11682.10919148 Ry
     estimated scf accuracy    <       0.00004019 Ry

     iteration #148     ecut=    80.00 Ry     beta= 0.10
     Davidson diagonalization with overlap
     ethr =  1.88E-09,  avg # of iterations =  1.0

     negative rho (up, down):  6.020E-02 0.000E+00

     total cpu time spent up to now is    43370.7 secs

     total energy              =  -11682.10919043 Ry
     estimated scf accuracy    <       0.00007976 Ry

     iteration #149     ecut=    80.00 Ry     beta= 0.10
     Davidson diagonalization with overlap
     ethr =  1.88E-09,  avg # of iterations =  1.0

     negative rho (up, down):  6.020E-02 0.000E+00

     total cpu time spent up to now is    43655.7 secs

     total energy              =  -11682.10919067 Ry
     estimated scf accuracy    <       0.00010706 Ry

     iteration #150     ecut=    80.00 Ry     beta= 0.10
     Davidson diagonalization with overlap
     ethr =  1.88E-09,  avg # of iterations =  1.0

     negative rho (up, down):  6.021E-02 0.000E+00

     total cpu time spent up to now is    43942.6 secs

     total energy              =  -11682.10919169 Ry
     estimated scf accuracy    <       0.00003811 Ry

     iteration #151     ecut=    80.00 Ry     beta= 0.10
     Davidson diagonalization with overlap
     ethr =  1.88E-09,  avg # of iterations =  1.0

     negative rho (up, down):  6.021E-02 0.000E+00

     total cpu time spent up to now is    44227.7 secs

     total energy              =  -11682.10919227 Ry
     estimated scf accuracy    <       0.00001650 Ry

     iteration #152     ecut=    80.00 Ry     beta= 0.10
     Davidson diagonalization with overlap
     ethr =  8.82E-10,  avg # of iterations =  1.0

     negative rho (up, down):  6.021E-02 0.000E+00

     total cpu time spent up to now is    44513.7 secs

     total energy              =  -11682.10919195 Ry
     estimated scf accuracy    <       0.00004980 Ry

     iteration #153     ecut=    80.00 Ry     beta= 0.10
     Davidson diagonalization with overlap
     ethr =  8.82E-10,  avg # of iterations =  1.0

     negative rho (up, down):  6.021E-02 0.000E+00

     total cpu time spent up to now is    44797.8 secs

     total energy              =  -11682.10919193 Ry
     estimated scf accuracy    <       0.00010342 Ry

     iteration #154     ecut=    80.00 Ry     beta= 0.10
     Davidson diagonalization with overlap
     ethr =  8.82E-10,  avg # of iterations =  1.0

     negative rho (up, down):  6.021E-02 0.000E+00

     total cpu time spent up to now is    45082.3 secs

     total energy              =  -11682.10919242 Ry
     estimated scf accuracy    <       0.00002577 Ry

     iteration #155     ecut=    80.00 Ry     beta= 0.10
     Davidson diagonalization with overlap
     ethr =  8.82E-10,  avg # of iterations =  1.0

     negative rho (up, down):  6.021E-02 0.000E+00

     total cpu time spent up to now is    45367.4 secs

     total energy              =  -11682.10919209 Ry
     estimated scf accuracy    <       0.00007745 Ry

     iteration #156     ecut=    80.00 Ry     beta= 0.10
     Davidson diagonalization with overlap
     ethr =  8.82E-10,  avg # of iterations =  1.0

     negative rho (up, down):  6.021E-02 0.000E+00

     total cpu time spent up to now is    45652.2 secs

     total energy              =  -11682.10919265 Ry
     estimated scf accuracy    <       0.00003182 Ry

     iteration #157     ecut=    80.00 Ry     beta= 0.10
     Davidson diagonalization with overlap
     ethr =  8.82E-10,  avg # of iterations =  1.0

     negative rho (up, down):  6.021E-02 0.000E+00

     total cpu time spent up to now is    45937.3 secs

     total energy              =  -11682.10919312 Ry
     estimated scf accuracy    <       0.00001386 Ry

     iteration #158     ecut=    80.00 Ry     beta= 0.10
     Davidson diagonalization with overlap
     ethr =  7.41E-10,  avg # of iterations =  1.0

     negative rho (up, down):  6.022E-02 0.000E+00

     total cpu time spent up to now is    46221.9 secs

     total energy              =  -11682.10919316 Ry
     estimated scf accuracy    <       0.00002521 Ry

     iteration #159     ecut=    80.00 Ry     beta= 0.10
     Davidson diagonalization with overlap
     ethr =  7.41E-10,  avg # of iterations =  1.0

     negative rho (up, down):  6.021E-02 0.000E+00

     total cpu time spent up to now is    46506.7 secs

     total energy              =  -11682.10919268 Ry
     estimated scf accuracy    <       0.00005027 Ry

     iteration #160     ecut=    80.00 Ry     beta= 0.10
     Davidson diagonalization with overlap
     ethr =  7.41E-10,  avg # of iterations =  1.0

     negative rho (up, down):  6.022E-02 0.000E+00

     total cpu time spent up to now is    46791.3 secs

     total energy              =  -11682.10919308 Ry
     estimated scf accuracy    <       0.00002510 Ry

     iteration #161     ecut=    80.00 Ry     beta= 0.10
     Davidson diagonalization with overlap
     ethr =  7.41E-10,  avg # of iterations =  1.0

     negative rho (up, down):  6.022E-02 0.000E+00

     total cpu time spent up to now is    47076.2 secs

     total energy              =  -11682.10919346 Ry
     estimated scf accuracy    <       0.00001150 Ry

     iteration #162     ecut=    80.00 Ry     beta= 0.10
     Davidson diagonalization with overlap
     ethr =  6.14E-10,  avg # of iterations =  1.0

     negative rho (up, down):  6.022E-02 0.000E+00

     total cpu time spent up to now is    47360.7 secs

     total energy              =  -11682.10919341 Ry
     estimated scf accuracy    <       0.00002648 Ry

     iteration #163     ecut=    80.00 Ry     beta= 0.10
     Davidson diagonalization with overlap
     ethr =  6.14E-10,  avg # of iterations =  1.0

     negative rho (up, down):  6.022E-02 0.000E+00

     total cpu time spent up to now is    47646.5 secs

     total energy              =  -11682.10919320 Ry
     estimated scf accuracy    <       0.00006807 Ry

     iteration #164     ecut=    80.00 Ry     beta= 0.10
     Davidson diagonalization with overlap
     ethr =  6.14E-10,  avg # of iterations =  1.0

     negative rho (up, down):  6.022E-02 0.000E+00

     total cpu time spent up to now is    47930.7 secs

     total energy              =  -11682.10919378 Ry
     estimated scf accuracy    <       0.00001573 Ry

     iteration #165     ecut=    80.00 Ry     beta= 0.10
     Davidson diagonalization with overlap
     ethr =  6.14E-10,  avg # of iterations =  1.0

     negative rho (up, down):  6.022E-02 0.000E+00

     total cpu time spent up to now is    48216.2 secs

     total energy              =  -11682.10919342 Ry
     estimated scf accuracy    <       0.00003443 Ry

     iteration #166     ecut=    80.00 Ry     beta= 0.10
     Davidson diagonalization with overlap
     ethr =  6.14E-10,  avg # of iterations =  1.0

     negative rho (up, down):  6.022E-02 0.000E+00

     total cpu time spent up to now is    48501.3 secs

     total energy              =  -11682.10919361 Ry
     estimated scf accuracy    <       0.00002297 Ry

     iteration #167     ecut=    80.00 Ry     beta= 0.10
     Davidson diagonalization with overlap
     ethr =  6.14E-10,  avg # of iterations =  1.0

     negative rho (up, down):  6.022E-02 0.000E+00

     total cpu time spent up to now is    48786.7 secs

     total energy              =  -11682.10919393 Ry
     estimated scf accuracy    <       0.00000744 Ry

     iteration #168     ecut=    80.00 Ry     beta= 0.10
     Davidson diagonalization with overlap
     ethr =  3.97E-10,  avg # of iterations =  1.0

     negative rho (up, down):  6.022E-02 0.000E+00

     total cpu time spent up to now is    49071.9 secs

     total energy              =  -11682.10919415 Ry
     estimated scf accuracy    <       0.00000910 Ry

     iteration #169     ecut=    80.00 Ry     beta= 0.10
     Davidson diagonalization with overlap
     ethr =  3.97E-10,  avg # of iterations =  1.0

     negative rho (up, down):  6.022E-02 0.000E+00

     total cpu time spent up to now is    49356.6 secs

     total energy              =  -11682.10919388 Ry
     estimated scf accuracy    <       0.00001581 Ry

     iteration #170     ecut=    80.00 Ry     beta= 0.10
     Davidson diagonalization with overlap
     ethr =  3.97E-10,  avg # of iterations =  1.0

     negative rho (up, down):  6.022E-02 0.000E+00

     total cpu time spent up to now is    49640.5 secs

     total energy              =  -11682.10919389 Ry
     estimated scf accuracy    <       0.00001636 Ry

     iteration #171     ecut=    80.00 Ry     beta= 0.10
     Davidson diagonalization with overlap
     ethr =  3.97E-10,  avg # of iterations =  1.0

     negative rho (up, down):  6.022E-02 0.000E+00

     total cpu time spent up to now is    49924.1 secs

     total energy              =  -11682.10919413 Ry
     estimated scf accuracy    <       0.00000979 Ry

     iteration #172     ecut=    80.00 Ry     beta= 0.10
     Davidson diagonalization with overlap
     ethr =  3.97E-10,  avg # of iterations =  1.0

     negative rho (up, down):  6.022E-02 0.000E+00

     total cpu time spent up to now is    50208.8 secs

     total energy              =  -11682.10919418 Ry
     estimated scf accuracy    <       0.00001695 Ry

     iteration #173     ecut=    80.00 Ry     beta= 0.10
     Davidson diagonalization with overlap
     ethr =  3.97E-10,  avg # of iterations =  1.0

     negative rho (up, down):  6.022E-02 0.000E+00

     total cpu time spent up to now is    50493.8 secs

     total energy              =  -11682.10919398 Ry
     estimated scf accuracy    <       0.00004255 Ry

     iteration #174     ecut=    80.00 Ry     beta= 0.10
     Davidson diagonalization with overlap
     ethr =  3.97E-10,  avg # of iterations =  1.0

     negative rho (up, down):  6.023E-02 0.000E+00

     total cpu time spent up to now is    50778.6 secs

     total energy              =  -11682.10919440 Ry
     estimated scf accuracy    <       0.00001353 Ry

     iteration #175     ecut=    80.00 Ry     beta= 0.10
     Davidson diagonalization with overlap
     ethr =  3.97E-10,  avg # of iterations =  1.0

     negative rho (up, down):  6.022E-02 0.000E+00

     total cpu time spent up to now is    51064.0 secs

     total energy              =  -11682.10919417 Ry
     estimated scf accuracy    <       0.00001629 Ry

     iteration #176     ecut=    80.00 Ry     beta= 0.10
     Davidson diagonalization with overlap
     ethr =  3.97E-10,  avg # of iterations =  1.0

     negative rho (up, down):  6.022E-02 0.000E+00

     total cpu time spent up to now is    51349.4 secs

     total energy              =  -11682.10919415 Ry
     estimated scf accuracy    <       0.00002054 Ry

     iteration #177     ecut=    80.00 Ry     beta= 0.10
     Davidson diagonalization with overlap
     ethr =  3.97E-10,  avg # of iterations =  1.0

     negative rho (up, down):  6.023E-02 0.000E+00

     total cpu time spent up to now is    51634.7 secs

     total energy              =  -11682.10919438 Ry
     estimated scf accuracy    <       0.00000693 Ry

     iteration #178     ecut=    80.00 Ry     beta= 0.10
     Davidson diagonalization with overlap
     ethr =  3.70E-10,  avg # of iterations =  1.0

     negative rho (up, down):  6.023E-02 0.000E+00

     total cpu time spent up to now is    51920.1 secs

     total energy              =  -11682.10919453 Ry
     estimated scf accuracy    <       0.00000467 Ry

     iteration #179     ecut=    80.00 Ry     beta= 0.10
     Davidson diagonalization with overlap
     ethr =  2.50E-10,  avg # of iterations =  1.0

     negative rho (up, down):  6.023E-02 0.000E+00

     total cpu time spent up to now is    52204.6 secs

     total energy              =  -11682.10919446 Ry
     estimated scf accuracy    <       0.00000485 Ry

     iteration #180     ecut=    80.00 Ry     beta= 0.10
     Davidson diagonalization with overlap
     ethr =  2.50E-10,  avg # of iterations =  1.0

     negative rho (up, down):  6.023E-02 0.000E+00

     total cpu time spent up to now is    52489.1 secs

     total energy              =  -11682.10919441 Ry
     estimated scf accuracy    <       0.00000879 Ry

     iteration #181     ecut=    80.00 Ry     beta= 0.10
     Davidson diagonalization with overlap
     ethr =  2.50E-10,  avg # of iterations =  1.0

     negative rho (up, down):  6.023E-02 0.000E+00

     total cpu time spent up to now is    52774.2 secs

     total energy              =  -11682.10919451 Ry
     estimated scf accuracy    <       0.00000727 Ry

     iteration #182     ecut=    80.00 Ry     beta= 0.10
     Davidson diagonalization with overlap
     ethr =  2.50E-10,  avg # of iterations =  1.0

     negative rho (up, down):  6.023E-02 0.000E+00

     total cpu time spent up to now is    53059.6 secs

     total energy              =  -11682.10919458 Ry
     estimated scf accuracy    <       0.00000820 Ry

     iteration #183     ecut=    80.00 Ry     beta= 0.10
     Davidson diagonalization with overlap
     ethr =  2.50E-10,  avg # of iterations =  1.0

     negative rho (up, down):  6.023E-02 0.000E+00

     total cpu time spent up to now is    53344.8 secs

     total energy              =  -11682.10919448 Ry
     estimated scf accuracy    <       0.00001779 Ry

     iteration #184     ecut=    80.00 Ry     beta= 0.10
     Davidson diagonalization with overlap
     ethr =  2.50E-10,  avg # of iterations =  1.0

     negative rho (up, down):  6.023E-02 0.000E+00

     total cpu time spent up to now is    53629.1 secs

     total energy              =  -11682.10919465 Ry
     estimated scf accuracy    <       0.00000961 Ry

     iteration #185     ecut=    80.00 Ry     beta= 0.10
     Davidson diagonalization with overlap
     ethr =  2.50E-10,  avg # of iterations =  1.0

     negative rho (up, down):  6.023E-02 0.000E+00

     total cpu time spent up to now is    53927.4 secs

     total energy              =  -11682.10919459 Ry
     estimated scf accuracy    <       0.00000486 Ry

     iteration #186     ecut=    80.00 Ry     beta= 0.10
     Davidson diagonalization with overlap
     ethr =  2.50E-10,  avg # of iterations =  1.0

     negative rho (up, down):  6.023E-02 0.000E+00

     total cpu time spent up to now is    54212.2 secs

     total energy              =  -11682.10919449 Ry
     estimated scf accuracy    <       0.00001536 Ry

     iteration #187     ecut=    80.00 Ry     beta= 0.10
     Davidson diagonalization with overlap
     ethr =  2.50E-10,  avg # of iterations =  1.0

     negative rho (up, down):  6.023E-02 0.000E+00

     total cpu time spent up to now is    54496.4 secs

     total energy              =  -11682.10919460 Ry
     estimated scf accuracy    <       0.00000853 Ry

     iteration #188     ecut=    80.00 Ry     beta= 0.10
     Davidson diagonalization with overlap
     ethr =  2.50E-10,  avg # of iterations =  1.0

     negative rho (up, down):  6.023E-02 0.000E+00

     total cpu time spent up to now is    54781.7 secs

     total energy              =  -11682.10919471 Ry
     estimated scf accuracy    <       0.00000289 Ry

     iteration #189     ecut=    80.00 Ry     beta= 0.10
     Davidson diagonalization with overlap
     ethr =  1.55E-10,  avg # of iterations =  1.0

     negative rho (up, down):  6.023E-02 0.000E+00

     total cpu time spent up to now is    55066.3 secs

     total energy              =  -11682.10919471 Ry
     estimated scf accuracy    <       0.00000203 Ry

     iteration #190     ecut=    80.00 Ry     beta= 0.10
     Davidson diagonalization with overlap
     ethr =  1.09E-10,  avg # of iterations =  1.0

     negative rho (up, down):  6.023E-02 0.000E+00

     total cpu time spent up to now is    55351.5 secs

     total energy              =  -11682.10919470 Ry
     estimated scf accuracy    <       0.00000300 Ry

     iteration #191     ecut=    80.00 Ry     beta= 0.10
     Davidson diagonalization with overlap
     ethr =  1.09E-10,  avg # of iterations =  1.0

     negative rho (up, down):  6.023E-02 0.000E+00

     total cpu time spent up to now is    55635.8 secs

     total energy              =  -11682.10919471 Ry
     estimated scf accuracy    <       0.00000357 Ry

     iteration #192     ecut=    80.00 Ry     beta= 0.10
     Davidson diagonalization with overlap
     ethr =  1.09E-10,  avg # of iterations =  1.0

     negative rho (up, down):  6.023E-02 0.000E+00

     total cpu time spent up to now is    55919.8 secs

     total energy              =  -11682.10919475 Ry
     estimated scf accuracy    <       0.00000270 Ry

     iteration #193     ecut=    80.00 Ry     beta= 0.10
     Davidson diagonalization with overlap
     ethr =  1.09E-10,  avg # of iterations =  1.0

     negative rho (up, down):  6.023E-02 0.000E+00

     total cpu time spent up to now is    56215.8 secs

     total energy              =  -11682.10919473 Ry
     estimated scf accuracy    <       0.00000447 Ry

     iteration #194     ecut=    80.00 Ry     beta= 0.10
     Davidson diagonalization with overlap
     ethr =  1.09E-10,  avg # of iterations =  1.0

     negative rho (up, down):  6.023E-02 0.000E+00

     total cpu time spent up to now is    56501.2 secs

     total energy              =  -11682.10919476 Ry
     estimated scf accuracy    <       0.00000479 Ry

     iteration #195     ecut=    80.00 Ry     beta= 0.10
     Davidson diagonalization with overlap
     ethr =  1.09E-10,  avg # of iterations =  1.0

     negative rho (up, down):  6.023E-02 0.000E+00

     total cpu time spent up to now is    56785.8 secs

     total energy              =  -11682.10919477 Ry
     estimated scf accuracy    <       0.00000113 Ry

     iteration #196     ecut=    80.00 Ry     beta= 0.10
     Davidson diagonalization with overlap
     ethr =  6.01E-11,  avg # of iterations =  1.0

     negative rho (up, down):  6.023E-02 0.000E+00

     total cpu time spent up to now is    57070.9 secs

     total energy              =  -11682.10919471 Ry
     estimated scf accuracy    <       0.00000833 Ry

     iteration #197     ecut=    80.00 Ry     beta= 0.10
     Davidson diagonalization with overlap
     ethr =  6.01E-11,  avg # of iterations =  1.0

     negative rho (up, down):  6.023E-02 0.000E+00

     total cpu time spent up to now is    57356.1 secs

     total energy              =  -11682.10919473 Ry
     estimated scf accuracy    <       0.00000740 Ry

     iteration #198     ecut=    80.00 Ry     beta= 0.10
     Davidson diagonalization with overlap
     ethr =  6.01E-11,  avg # of iterations =  1.0

     negative rho (up, down):  6.023E-02 0.000E+00

     total cpu time spent up to now is    57641.3 secs

     total energy              =  -11682.10919478 Ry
     estimated scf accuracy    <       0.00000207 Ry

     iteration #199     ecut=    80.00 Ry     beta= 0.10
     Davidson diagonalization with overlap
     ethr =  6.01E-11,  avg # of iterations =  1.0

     negative rho (up, down):  6.023E-02 0.000E+00

     total cpu time spent up to now is    57925.3 secs

     total energy              =  -11682.10919480 Ry
     estimated scf accuracy    <       0.00000199 Ry

     iteration #200     ecut=    80.00 Ry     beta= 0.10
     Davidson diagonalization with overlap
     ethr =  6.01E-11,  avg # of iterations =  1.0

     negative rho (up, down):  6.023E-02 0.000E+00

     total cpu time spent up to now is    58209.8 secs

     total energy              =  -11682.10919481 Ry
     estimated scf accuracy    <       0.00000062 Ry

     iteration #201     ecut=    80.00 Ry     beta= 0.10
     Davidson diagonalization with overlap
     ethr =  3.30E-11,  avg # of iterations =  1.0

     negative rho (up, down):  6.023E-02 0.000E+00

     total cpu time spent up to now is    58495.2 secs

     total energy              =  -11682.10919480 Ry
     estimated scf accuracy    <       0.00000128 Ry

     iteration #202     ecut=    80.00 Ry     beta= 0.10
     Davidson diagonalization with overlap
     ethr =  3.30E-11,  avg # of iterations =  1.0

     negative rho (up, down):  6.023E-02 0.000E+00

     total cpu time spent up to now is    58780.5 secs

     total energy              =  -11682.10919481 Ry
     estimated scf accuracy    <       0.00000111 Ry

     iteration #203     ecut=    80.00 Ry     beta= 0.10
     Davidson diagonalization with overlap
     ethr =  3.30E-11,  avg # of iterations =  1.0

     negative rho (up, down):  6.023E-02 0.000E+00

     total cpu time spent up to now is    59067.3 secs

     total energy              =  -11682.10919482 Ry
     estimated scf accuracy    <       0.00000126 Ry

     iteration #204     ecut=    80.00 Ry     beta= 0.10
     Davidson diagonalization with overlap
     ethr =  3.30E-11,  avg # of iterations =  1.0

     negative rho (up, down):  6.023E-02 0.000E+00

     total cpu time spent up to now is    59352.6 secs

     total energy              =  -11682.10919482 Ry
     estimated scf accuracy    <       0.00000145 Ry

     iteration #205     ecut=    80.00 Ry     beta= 0.10
     Davidson diagonalization with overlap
     ethr =  3.30E-11,  avg # of iterations =  1.0

     negative rho (up, down):  6.023E-02 0.000E+00

     total cpu time spent up to now is    59637.9 secs

     total energy              =  -11682.10919483 Ry
     estimated scf accuracy    <       0.00000034 Ry

     iteration #206     ecut=    80.00 Ry     beta= 0.10
     Davidson diagonalization with overlap
     ethr =  1.82E-11,  avg # of iterations =  1.0

     negative rho (up, down):  6.024E-02 0.000E+00

     total cpu time spent up to now is    59922.6 secs

     total energy              =  -11682.10919482 Ry
     estimated scf accuracy    <       0.00000222 Ry

     iteration #207     ecut=    80.00 Ry     beta= 0.10
     Davidson diagonalization with overlap
     ethr =  1.82E-11,  avg # of iterations =  1.0

     negative rho (up, down):  6.023E-02 0.000E+00

     total cpu time spent up to now is    60208.2 secs

     total energy              =  -11682.10919481 Ry
     estimated scf accuracy    <       0.00000301 Ry

     iteration #208     ecut=    80.00 Ry     beta= 0.10
     Davidson diagonalization with overlap
     ethr =  1.82E-11,  avg # of iterations =  1.0

     negative rho (up, down):  6.024E-02 0.000E+00

     total cpu time spent up to now is    60493.8 secs

     total energy              =  -11682.10919483 Ry
     estimated scf accuracy    <       0.00000144 Ry

     iteration #209     ecut=    80.00 Ry     beta= 0.10
     Davidson diagonalization with overlap
     ethr =  1.82E-11,  avg # of iterations =  1.0

     negative rho (up, down):  6.024E-02 0.000E+00

     total cpu time spent up to now is    60778.9 secs

     total energy              =  -11682.10919483 Ry
     estimated scf accuracy    <       0.00000132 Ry

     iteration #210     ecut=    80.00 Ry     beta= 0.10
     Davidson diagonalization with overlap
     ethr =  1.82E-11,  avg # of iterations =  1.0

     negative rho (up, down):  6.024E-02 0.000E+00

     total cpu time spent up to now is    61064.9 secs

     total energy              =  -11682.10919484 Ry
     estimated scf accuracy    <       0.00000044 Ry

     iteration #211     ecut=    80.00 Ry     beta= 0.10
     Davidson diagonalization with overlap
     ethr =  1.82E-11,  avg # of iterations =  1.0

     negative rho (up, down):  6.024E-02 0.000E+00

     total cpu time spent up to now is    61349.9 secs

     total energy              =  -11682.10919484 Ry
     estimated scf accuracy    <       0.00000064 Ry

     iteration #212     ecut=    80.00 Ry     beta= 0.10
     Davidson diagonalization with overlap
     ethr =  1.82E-11,  avg # of iterations =  1.0

     negative rho (up, down):  6.024E-02 0.000E+00

     total cpu time spent up to now is    61634.9 secs

     total energy              =  -11682.10919484 Ry
     estimated scf accuracy    <       0.00000092 Ry

     iteration #213     ecut=    80.00 Ry     beta= 0.10
     Davidson diagonalization with overlap
     ethr =  1.82E-11,  avg # of iterations =  1.0

     negative rho (up, down):  6.024E-02 0.000E+00

     total cpu time spent up to now is    61920.4 secs

     total energy              =  -11682.10919484 Ry
     estimated scf accuracy    <       0.00000069 Ry

     iteration #214     ecut=    80.00 Ry     beta= 0.10
     Davidson diagonalization with overlap
     ethr =  1.82E-11,  avg # of iterations =  1.0

     negative rho (up, down):  6.024E-02 0.000E+00

     total cpu time spent up to now is    62205.0 secs

     total energy              =  -11682.10919485 Ry
     estimated scf accuracy    <       0.00000079 Ry

     iteration #215     ecut=    80.00 Ry     beta= 0.10
     Davidson diagonalization with overlap
     ethr =  1.82E-11,  avg # of iterations =  1.0

     negative rho (up, down):  6.024E-02 0.000E+00

     total cpu time spent up to now is    62489.5 secs

     total energy              =  -11682.10919485 Ry
     estimated scf accuracy    <       0.00000014 Ry

     iteration #216     ecut=    80.00 Ry     beta= 0.10
     Davidson diagonalization with overlap
     ethr =  7.46E-12,  avg # of iterations =  1.0

     negative rho (up, down):  6.024E-02 0.000E+00

     total cpu time spent up to now is    62774.9 secs

     total energy              =  -11682.10919485 Ry
     estimated scf accuracy    <       0.00000051 Ry

     iteration #217     ecut=    80.00 Ry     beta= 0.10
     Davidson diagonalization with overlap
     ethr =  7.46E-12,  avg # of iterations =  1.0

     negative rho (up, down):  6.024E-02 0.000E+00

     total cpu time spent up to now is    63060.0 secs

     total energy              =  -11682.10919484 Ry
     estimated scf accuracy    <       0.00000093 Ry

     iteration #218     ecut=    80.00 Ry     beta= 0.10
     Davidson diagonalization with overlap
     ethr =  7.46E-12,  avg # of iterations =  1.0

     negative rho (up, down):  6.024E-02 0.000E+00

     total cpu time spent up to now is    63344.9 secs

     total energy              =  -11682.10919485 Ry
     estimated scf accuracy    <       0.00000079 Ry

     iteration #219     ecut=    80.00 Ry     beta= 0.10
     Davidson diagonalization with overlap
     ethr =  7.46E-12,  avg # of iterations =  1.0

     negative rho (up, down):  6.024E-02 0.000E+00

     total cpu time spent up to now is    63630.7 secs

     total energy              =  -11682.10919485 Ry
     estimated scf accuracy    <       0.00000064 Ry

     iteration #220     ecut=    80.00 Ry     beta= 0.10
     Davidson diagonalization with overlap
     ethr =  7.46E-12,  avg # of iterations =  1.0

     negative rho (up, down):  6.024E-02 0.000E+00

     total cpu time spent up to now is    63916.4 secs

     total energy              =  -11682.10919485 Ry
     estimated scf accuracy    <       0.00000031 Ry

     iteration #221     ecut=    80.00 Ry     beta= 0.10
     Davidson diagonalization with overlap
     ethr =  7.46E-12,  avg # of iterations =  1.0

     negative rho (up, down):  6.024E-02 0.000E+00

     total cpu time spent up to now is    64201.3 secs

     total energy              =  -11682.10919485 Ry
     estimated scf accuracy    <       0.00000035 Ry

     iteration #222     ecut=    80.00 Ry     beta= 0.10
     Davidson diagonalization with overlap
     ethr =  7.46E-12,  avg # of iterations =  1.0

     negative rho (up, down):  6.024E-02 0.000E+00

     total cpu time spent up to now is    64486.4 secs

     total energy              =  -11682.10919485 Ry
     estimated scf accuracy    <       0.00000092 Ry

     iteration #223     ecut=    80.00 Ry     beta= 0.10
     Davidson diagonalization with overlap
     ethr =  7.46E-12,  avg # of iterations =  1.0

     negative rho (up, down):  6.024E-02 0.000E+00

     total cpu time spent up to now is    64772.3 secs

     total energy              =  -11682.10919485 Ry
     estimated scf accuracy    <       0.00000072 Ry

     iteration #224     ecut=    80.00 Ry     beta= 0.10
     Davidson diagonalization with overlap
     ethr =  7.46E-12,  avg # of iterations =  1.0

     negative rho (up, down):  6.024E-02 0.000E+00

     total cpu time spent up to now is    65057.4 secs

     total energy              =  -11682.10919485 Ry
     estimated scf accuracy    <       0.00000063 Ry

     iteration #225     ecut=    80.00 Ry     beta= 0.10
     Davidson diagonalization with overlap
     ethr =  7.46E-12,  avg # of iterations =  1.0

     negative rho (up, down):  6.024E-02 0.000E+00

     total cpu time spent up to now is    65341.9 secs

     total energy              =  -11682.10919486 Ry
     estimated scf accuracy    <       0.00000010 Ry

     iteration #226     ecut=    80.00 Ry     beta= 0.10
     Davidson diagonalization with overlap
     ethr =  5.12E-12,  avg # of iterations =  1.0

     negative rho (up, down):  6.024E-02 0.000E+00

     total cpu time spent up to now is    65626.9 secs

     total energy              =  -11682.10919486 Ry
     estimated scf accuracy    <       0.00000015 Ry

     iteration #227     ecut=    80.00 Ry     beta= 0.10
     Davidson diagonalization with overlap
     ethr =  5.12E-12,  avg # of iterations =  1.0

     negative rho (up, down):  6.024E-02 0.000E+00

     total cpu time spent up to now is    65911.9 secs

     total energy              =  -11682.10919486 Ry
     estimated scf accuracy    <       0.00000029 Ry

     iteration #228     ecut=    80.00 Ry     beta= 0.10
     Davidson diagonalization with overlap
     ethr =  5.12E-12,  avg # of iterations =  1.0

     negative rho (up, down):  6.024E-02 0.000E+00

     total cpu time spent up to now is    66197.2 secs

     total energy              =  -11682.10919486 Ry
     estimated scf accuracy    <       0.00000033 Ry

     iteration #229     ecut=    80.00 Ry     beta= 0.10
     Davidson diagonalization with overlap
     ethr =  5.12E-12,  avg # of iterations =  1.0

     negative rho (up, down):  6.024E-02 0.000E+00

     total cpu time spent up to now is    66481.9 secs

     total energy              =  -11682.10919485 Ry
     estimated scf accuracy    <       0.00000028 Ry

     iteration #230     ecut=    80.00 Ry     beta= 0.10
     Davidson diagonalization with overlap
     ethr =  5.12E-12,  avg # of iterations =  1.0

     negative rho (up, down):  6.024E-02 0.000E+00

     total cpu time spent up to now is    66766.4 secs

     total energy              =  -11682.10919486 Ry
     estimated scf accuracy    <       0.00000019 Ry

     iteration #231     ecut=    80.00 Ry     beta= 0.10
     Davidson diagonalization with overlap
     ethr =  5.12E-12,  avg # of iterations =  1.0

     negative rho (up, down):  6.024E-02 0.000E+00

     total cpu time spent up to now is    67051.6 secs

     total energy              =  -11682.10919486 Ry
     estimated scf accuracy    <       0.00000017 Ry

     iteration #232     ecut=    80.00 Ry     beta= 0.10
     Davidson diagonalization with overlap
     ethr =  5.12E-12,  avg # of iterations =  1.0

     negative rho (up, down):  6.024E-02 0.000E+00

     total cpu time spent up to now is    67337.1 secs

     total energy              =  -11682.10919485 Ry
     estimated scf accuracy    <       0.00000052 Ry

     iteration #233     ecut=    80.00 Ry     beta= 0.10
     Davidson diagonalization with overlap
     ethr =  5.12E-12,  avg # of iterations =  1.0

     negative rho (up, down):  6.024E-02 0.000E+00

     total cpu time spent up to now is    67621.7 secs

     total energy              =  -11682.10919485 Ry
     estimated scf accuracy    <       0.00000060 Ry

     iteration #234     ecut=    80.00 Ry     beta= 0.10
     Davidson diagonalization with overlap
     ethr =  5.12E-12,  avg # of iterations =  1.0

     negative rho (up, down):  6.024E-02 0.000E+00

     total cpu time spent up to now is    67906.5 secs

     total energy              =  -11682.10919486 Ry
     estimated scf accuracy    <       0.00000038 Ry

     iteration #235     ecut=    80.00 Ry     beta= 0.10
     Davidson diagonalization with overlap
     ethr =  5.12E-12,  avg # of iterations =  1.0

     negative rho (up, down):  6.024E-02 0.000E+00

     total cpu time spent up to now is    68191.2 secs

     total energy              =  -11682.10919486 Ry
     estimated scf accuracy    <       0.00000010 Ry

     iteration #236     ecut=    80.00 Ry     beta= 0.10
     Davidson diagonalization with overlap
     ethr =  5.12E-12,  avg # of iterations =  1.0

     negative rho (up, down):  6.024E-02 0.000E+00

     total cpu time spent up to now is    68476.7 secs

     total energy              =  -11682.10919486 Ry
     estimated scf accuracy    <       0.00000010 Ry

     iteration #237     ecut=    80.00 Ry     beta= 0.10
     Davidson diagonalization with overlap
     ethr =  5.12E-12,  avg # of iterations =  1.0

     negative rho (up, down):  6.024E-02 0.000E+00

     total cpu time spent up to now is    68761.1 secs

     total energy              =  -11682.10919486 Ry
     estimated scf accuracy    <       0.00000013 Ry

     iteration #238     ecut=    80.00 Ry     beta= 0.10
     Davidson diagonalization with overlap
     ethr =  5.12E-12,  avg # of iterations =  1.0

     negative rho (up, down):  6.024E-02 0.000E+00

     total cpu time spent up to now is    69046.0 secs

     total energy              =  -11682.10919486 Ry
     estimated scf accuracy    <       0.00000014 Ry

     iteration #239     ecut=    80.00 Ry     beta= 0.10
     Davidson diagonalization with overlap
     ethr =  5.12E-12,  avg # of iterations =  1.0

     negative rho (up, down):  6.024E-02 0.000E+00

     total cpu time spent up to now is    69331.2 secs

     total energy              =  -11682.10919486 Ry
     estimated scf accuracy    <       0.00000013 Ry

     iteration #240     ecut=    80.00 Ry     beta= 0.10
     Davidson diagonalization with overlap
     ethr =  5.12E-12,  avg # of iterations =  1.0

     negative rho (up, down):  6.024E-02 0.000E+00

     total cpu time spent up to now is    69616.4 secs

     total energy              =  -11682.10919486 Ry
     estimated scf accuracy    <       0.00000010 Ry

     iteration #241     ecut=    80.00 Ry     beta= 0.10
     Davidson diagonalization with overlap
     ethr =  5.12E-12,  avg # of iterations =  1.0

     negative rho (up, down):  6.024E-02 0.000E+00

     total cpu time spent up to now is    69902.0 secs

     total energy              =  -11682.10919485 Ry
     estimated scf accuracy    <       0.00000006 Ry

     iteration #242     ecut=    80.00 Ry     beta= 0.10
     Davidson diagonalization with overlap
     ethr =  3.46E-12,  avg # of iterations =  1.0

     negative rho (up, down):  6.024E-02 0.000E+00

     total cpu time spent up to now is    70186.9 secs

     total energy              =  -11682.10919485 Ry
     estimated scf accuracy    <       0.00000016 Ry

     iteration #243     ecut=    80.00 Ry     beta= 0.10
     Davidson diagonalization with overlap
     ethr =  3.46E-12,  avg # of iterations =  1.0

     negative rho (up, down):  6.024E-02 0.000E+00

     total cpu time spent up to now is    70472.1 secs

     total energy              =  -11682.10919485 Ry
     estimated scf accuracy    <       0.00000031 Ry

     iteration #244     ecut=    80.00 Ry     beta= 0.10
     Davidson diagonalization with overlap
     ethr =  3.46E-12,  avg # of iterations =  1.0

     negative rho (up, down):  6.024E-02 0.000E+00

     total cpu time spent up to now is    70757.4 secs

     total energy              =  -11682.10919486 Ry
     estimated scf accuracy    <       0.00000016 Ry

     iteration #245     ecut=    80.00 Ry     beta= 0.10
     Davidson diagonalization with overlap
     ethr =  3.46E-12,  avg # of iterations =  1.0

     negative rho (up, down):  6.024E-02 0.000E+00

     total cpu time spent up to now is    71042.2 secs

     total energy              =  -11682.10919485 Ry
     estimated scf accuracy    <       0.00000011 Ry

     iteration #246     ecut=    80.00 Ry     beta= 0.10
     Davidson diagonalization with overlap
     ethr =  3.46E-12,  avg # of iterations =  1.0

     negative rho (up, down):  6.024E-02 0.000E+00

     total cpu time spent up to now is    71326.5 secs

     total energy              =  -11682.10919485 Ry
     estimated scf accuracy    <       0.00000008 Ry

     iteration #247     ecut=    80.00 Ry     beta= 0.10
     Davidson diagonalization with overlap
     ethr =  3.46E-12,  avg # of iterations =  1.0

     negative rho (up, down):  6.024E-02 0.000E+00

     total cpu time spent up to now is    71611.7 secs

     total energy              =  -11682.10919485 Ry
     estimated scf accuracy    <       0.00000007 Ry

     iteration #248     ecut=    80.00 Ry     beta= 0.10
     Davidson diagonalization with overlap
     ethr =  3.46E-12,  avg # of iterations =  1.0

     negative rho (up, down):  6.024E-02 0.000E+00

     total cpu time spent up to now is    71896.3 secs

     total energy              =  -11682.10919485 Ry
     estimated scf accuracy    <       0.00000007 Ry

     iteration #249     ecut=    80.00 Ry     beta= 0.10
     Davidson diagonalization with overlap
     ethr =  3.46E-12,  avg # of iterations =  1.0

     negative rho (up, down):  6.024E-02 0.000E+00

     total cpu time spent up to now is    72180.7 secs

     total energy              =  -11682.10919485 Ry
     estimated scf accuracy    <       0.00000007 Ry

     iteration #250     ecut=    80.00 Ry     beta= 0.10
     Davidson diagonalization with overlap
     ethr =  3.46E-12,  avg # of iterations =  1.0

     negative rho (up, down):  6.024E-02 0.000E+00

     total cpu time spent up to now is    72465.9 secs

     total energy              =  -11682.10919486 Ry
     estimated scf accuracy    <       0.00000006 Ry

     iteration #251     ecut=    80.00 Ry     beta= 0.10
     Davidson diagonalization with overlap
     ethr =  3.17E-12,  avg # of iterations =  1.0

     negative rho (up, down):  6.024E-02 0.000E+00

     total cpu time spent up to now is    72751.8 secs

     total energy              =  -11682.10919485 Ry
     estimated scf accuracy    <       0.00000002 Ry

     iteration #252     ecut=    80.00 Ry     beta= 0.10
     Davidson diagonalization with overlap
     ethr =  1.14E-12,  avg # of iterations =  1.0

     negative rho (up, down):  6.024E-02 0.000E+00

     total cpu time spent up to now is    73036.4 secs

     total energy              =  -11682.10919485 Ry
     estimated scf accuracy    <       0.00000004 Ry

     iteration #253     ecut=    80.00 Ry     beta= 0.10
     Davidson diagonalization with overlap
     ethr =  1.14E-12,  avg # of iterations =  1.0

     negative rho (up, down):  6.024E-02 0.000E+00

     total cpu time spent up to now is    73321.8 secs

     total energy              =  -11682.10919485 Ry
     estimated scf accuracy    <       0.00000011 Ry

     iteration #254     ecut=    80.00 Ry     beta= 0.10
     Davidson diagonalization with overlap
     ethr =  1.14E-12,  avg # of iterations =  1.0

     negative rho (up, down):  6.024E-02 0.000E+00

     total cpu time spent up to now is    73606.4 secs

     total energy              =  -11682.10919485 Ry
     estimated scf accuracy    <       0.00000005 Ry

     iteration #255     ecut=    80.00 Ry     beta= 0.10
     Davidson diagonalization with overlap
     ethr =  1.14E-12,  avg # of iterations =  1.0

     negative rho (up, down):  6.024E-02 0.000E+00

     total cpu time spent up to now is    73891.1 secs

     total energy              =  -11682.10919485 Ry
     estimated scf accuracy    <       0.00000009 Ry

     iteration #256     ecut=    80.00 Ry     beta= 0.10
     Davidson diagonalization with overlap
     ethr =  1.14E-12,  avg # of iterations =  1.0

     negative rho (up, down):  6.024E-02 0.000E+00

     total cpu time spent up to now is    74176.3 secs

     total energy              =  -11682.10919485 Ry
     estimated scf accuracy    <       0.00000005 Ry

     iteration #257     ecut=    80.00 Ry     beta= 0.10
     Davidson diagonalization with overlap
     ethr =  1.14E-12,  avg # of iterations =  1.0

     negative rho (up, down):  6.024E-02 0.000E+00

     total cpu time spent up to now is    74461.3 secs

     total energy              =  -11682.10919485 Ry
     estimated scf accuracy    <       0.00000004 Ry

     iteration #258     ecut=    80.00 Ry     beta= 0.10
     Davidson diagonalization with overlap
     ethr =  1.14E-12,  avg # of iterations =  1.0

     negative rho (up, down):  6.024E-02 0.000E+00

     total cpu time spent up to now is    74747.0 secs

     total energy              =  -11682.10919485 Ry
     estimated scf accuracy    <       0.00000003 Ry

     iteration #259     ecut=    80.00 Ry     beta= 0.10
     Davidson diagonalization with overlap
     ethr =  1.14E-12,  avg # of iterations =  1.0

     negative rho (up, down):  6.024E-02 0.000E+00

     total cpu time spent up to now is    75033.6 secs

     total energy              =  -11682.10919485 Ry
     estimated scf accuracy    <       0.00000004 Ry

     iteration #260     ecut=    80.00 Ry     beta= 0.10
     Davidson diagonalization with overlap
     ethr =  1.14E-12,  avg # of iterations =  1.0

     negative rho (up, down):  6.024E-02 0.000E+00

     total cpu time spent up to now is    75319.0 secs

     total energy              =  -11682.10919485 Ry
     estimated scf accuracy    <       0.00000004 Ry

     iteration #261     ecut=    80.00 Ry     beta= 0.10
     Davidson diagonalization with overlap
     ethr =  1.14E-12,  avg # of iterations =  1.0

     negative rho (up, down):  6.024E-02 0.000E+00

     total cpu time spent up to now is    75604.0 secs

     total energy              =  -11682.10919485 Ry
     estimated scf accuracy    <       0.00000001 Ry

     iteration #262     ecut=    80.00 Ry     beta= 0.10
     Davidson diagonalization with overlap
     ethr =  5.54E-13,  avg # of iterations =  1.0

     negative rho (up, down):  6.024E-02 0.000E+00

     total cpu time spent up to now is    75889.5 secs

     total energy              =  -11682.10919485 Ry
     estimated scf accuracy    <       0.00000001 Ry

     iteration #263     ecut=    80.00 Ry     beta= 0.10
     Davidson diagonalization with overlap
     ethr =  5.54E-13,  avg # of iterations =  1.0

     negative rho (up, down):  6.024E-02 0.000E+00

     total cpu time spent up to now is    76174.3 secs

     total energy              =  -11682.10919485 Ry
     estimated scf accuracy    <       0.00000004 Ry

     iteration #264     ecut=    80.00 Ry     beta= 0.10
     Davidson diagonalization with overlap
     ethr =  5.54E-13,  avg # of iterations =  1.0

     negative rho (up, down):  6.024E-02 0.000E+00

     total cpu time spent up to now is    76458.9 secs

     total energy              =  -11682.10919485 Ry
     estimated scf accuracy    <       0.00000002 Ry

     iteration #265     ecut=    80.00 Ry     beta= 0.10
     Davidson diagonalization with overlap
     ethr =  5.54E-13,  avg # of iterations =  1.0

     negative rho (up, down):  6.024E-02 0.000E+00

     total cpu time spent up to now is    76743.9 secs

     total energy              =  -11682.10919485 Ry
     estimated scf accuracy    <       0.00000003 Ry

     iteration #266     ecut=    80.00 Ry     beta= 0.10
     Davidson diagonalization with overlap
     ethr =  5.54E-13,  avg # of iterations =  1.0

     negative rho (up, down):  6.024E-02 0.000E+00

     total cpu time spent up to now is    77028.8 secs

     total energy              =  -11682.10919485 Ry
     estimated scf accuracy    <       0.00000002 Ry

     iteration #267     ecut=    80.00 Ry     beta= 0.10
     Davidson diagonalization with overlap
     ethr =  5.54E-13,  avg # of iterations =  1.0

     negative rho (up, down):  6.024E-02 0.000E+00

     total cpu time spent up to now is    77314.5 secs

     total energy              =  -11682.10919485 Ry
     estimated scf accuracy    <       0.00000002 Ry

     iteration #268     ecut=    80.00 Ry     beta= 0.10
     Davidson diagonalization with overlap
     ethr =  5.54E-13,  avg # of iterations =  1.0

     negative rho (up, down):  6.024E-02 0.000E+00

     total cpu time spent up to now is    77598.9 secs

     total energy              =  -11682.10919485 Ry
     estimated scf accuracy    <       0.00000002 Ry

     iteration #269     ecut=    80.00 Ry     beta= 0.10
     Davidson diagonalization with overlap
     ethr =  5.54E-13,  avg # of iterations =  1.0

     negative rho (up, down):  6.024E-02 0.000E+00

     total cpu time spent up to now is    77883.7 secs

     total energy              =  -11682.10919485 Ry
     estimated scf accuracy    <       0.00000003 Ry

     iteration #270     ecut=    80.00 Ry     beta= 0.10
     Davidson diagonalization with overlap
     ethr =  5.54E-13,  avg # of iterations =  1.0

     negative rho (up, down):  6.024E-02 0.000E+00

     total cpu time spent up to now is    78168.1 secs

     total energy              =  -11682.10919485 Ry
     estimated scf accuracy    <       0.00000003 Ry

     iteration #271     ecut=    80.00 Ry     beta= 0.10
     Davidson diagonalization with overlap
     ethr =  5.54E-13,  avg # of iterations =  1.0

     negative rho (up, down):  6.024E-02 0.000E+00

     total cpu time spent up to now is    78453.1 secs

     End of self-consistent calculation

          k = 0.0000 0.0000 0.0000 (****** PWs)   bands (ev):

   -57.9660 -56.1958 -55.8587 -55.8284 -55.6198 -55.5850 -55.0273 -54.9998
   -54.7555 -54.5015 -53.8679 -29.8926 -29.8753 -29.8375 -28.1466 -28.1038
   -28.0627 -27.7920 -27.7844 -27.7651 -27.7466 -27.7445 -27.7236 -27.5531
   -27.5527 -27.5252 -27.4878 -27.4870 -27.4585 -27.1277 -26.9981 -26.9528
   -26.9380 -26.9033 -26.8917 -26.8712 -26.7478 -26.6964 -26.6558 -26.4778
   -26.4391 -26.3840 -26.2543 -26.1213 -25.8723 -25.8188 -25.7906 -25.7726
   -25.7645 -25.7546 -25.6107 -25.5786 -25.5578 -25.5523 -25.4499 -25.3626
   -25.2944 -25.2350 -25.1860 -25.1285 -25.1057 -25.0528 -25.0286 -25.0109
   -25.0004 -24.9904 -24.9452 -24.9039 -24.8936 -24.8829 -24.8476 -24.8472
   -24.7983 -24.7832 -24.7550 -24.7316 -24.7051 -24.6657 -24.6432 -24.6233
   -24.6056 -24.6030 -24.5683 -24.5475 -24.5326 -24.5084 -24.4859 -24.4511
   -24.4377 -24.4031 -24.3995 -24.3761 -24.3610 -24.3330 -24.3240 -24.3011
   -24.2903 -24.2637 -24.2550 -24.2419 -24.2133 -24.2076 -24.1818 -24.1712
   -24.1483 -24.1219 -24.1024 -24.0947 -24.0783 -24.0587 -24.0461 -24.0176
   -23.9879 -23.9733 -23.9602 -23.9390 -23.9239 -23.8966 -23.8677 -23.8641
   -23.8104 -23.7896 -23.7860 -23.7706 -23.7535 -23.7381 -23.7293 -23.7174
   -23.7014 -23.6962 -23.6894 -23.6810 -23.6722 -23.6634 -23.6325 -23.6193
   -23.6051 -23.5992 -23.5846 -23.5601 -23.5531 -23.5407 -23.5215 -23.5108
   -23.5002 -23.4862 -23.4705 -23.4405 -23.4122 -23.4020 -23.3859 -23.3837
   -23.3563 -23.3426 -23.3391 -23.3055 -23.2984 -23.2863 -23.2756 -23.2573
   -23.2458 -23.2183 -23.2101 -23.1912 -23.1818 -23.1525 -23.1434 -23.1226
   -23.1208 -23.0973 -23.0867 -23.0783 -23.0582 -23.0487 -23.0469 -23.0332
   -23.0155 -23.0079 -22.9919 -22.9550 -22.9273 -22.9081 -22.9020 -22.8864
   -22.8768 -22.8557 -22.8415 -22.8292 -22.8255 -22.7974 -22.7893 -22.7722
   -22.7638 -22.7469 -22.7097 -22.7010 -22.6982 -22.6942 -22.6612 -22.6566
   -22.6361 -22.5603 -22.5232 -22.5157 -22.4709 -22.4495 -22.3953 -22.3908
   -22.3858 -22.3814 -22.3768 -22.3234 -22.2613 -22.2410 -22.2345 -22.2153
   -22.2042 -22.1700 -22.1085 -22.0262 -21.9815 -21.9733 -21.9319 -21.8341
   -21.6470 -21.5772 -21.5729 -21.5549 -21.5029 -21.4488 -21.4239 -21.3897
   -21.3220 -21.3032 -20.6478 -20.5929 -20.5594 -20.5513 -20.5501 -20.5215
   -20.5198 -20.4669 -20.4667 -20.3574 -20.3424 -20.1593 -20.0762 -20.0679
   -20.0100 -19.8244 -19.7311 -19.7288 -19.7265 -19.7146 -19.7089 -19.7071
   -19.7059 -19.6774 -19.6716 -19.6617 -19.5990 -18.8791 -18.5182 -17.6549
   -16.8977 -16.1039 -15.3422 -15.2072 -15.1434 -15.0723 -14.9648 -14.8856
   -14.8507 -14.7798 -14.7446 -14.7008 -14.6521 -14.5851 -14.5765 -14.5260
   -14.5012 -14.4152 -14.3361 -14.2823 -14.2049 -14.1761 -14.1233 -14.0948
   -14.0256 -14.0023 -13.9863 -13.9531 -13.9153 -13.8990 -13.8747 -13.8094
   -13.7910 -13.7459 -13.7382 -13.6834 -13.6549 -13.6004 -13.5312 -13.5177
   -13.4710 -13.4399 -13.4361 -13.4165 -13.3686 -13.3173 -13.2927 -13.2813
   -13.2129 -13.2128 -13.2061 -13.1481 -13.1246 -13.0833 -13.0761 -13.0468
   -13.0030 -12.9861 -12.9564 -12.9225 -12.8991 -12.8794 -12.8447 -12.8214
   -12.7965 -12.7675 -12.7290 -12.7190 -12.6620 -12.6425 -12.6223 -12.5453
   -12.5345 -12.5136 -12.4775 -12.4369 -12.4088 -12.3692 -12.3553 -12.3215
   -12.3119 -12.2939 -12.2859 -12.2233 -12.2056 -12.1614 -12.1406 -12.1202
   -12.0782 -12.0356 -12.0167 -11.9939 -11.9728 -11.9424 -11.9108 -11.8822
   -11.8606 -11.8474 -11.8217 -11.8027 -11.7783 -11.7438 -11.7350 -11.6983
   -11.6960 -11.6873 -11.6406 -11.6294 -11.5953 -11.5920 -11.5764 -11.5616
   -11.5386 -11.5308 -11.5121 -11.4896 -11.4760 -11.4596 -11.4558 -11.4390
   -11.4194 -11.4077 -11.3798 -11.3703 -11.3658 -11.3270 -11.3068 -11.2900
   -11.2683 -11.2604 -11.2431 -11.2092 -11.1908 -11.1664 -11.1602 -11.1447
   -11.1384 -11.1340 -11.1143 -11.0930 -11.0792 -11.0639 -11.0595 -11.0333
   -10.9852 -10.9818 -10.9560 -10.9447 -10.9219 -10.8957 -10.8872 -10.8751
   -10.8706 -10.8490 -10.8487 -10.8463 -10.8212 -10.8177 -10.8065 -10.7743
   -10.7719 -10.7354 -10.7139 -10.7040 -10.6868 -10.6852 -10.6558 -10.6477
   -10.6094 -10.5763 -10.5657 -10.5577 -10.5421 -10.5309 -10.5133 -10.4838
   -10.4688 -10.4555 -10.4246 -10.3843 -10.3737 -10.3274 -10.3045 -10.2904
   -10.2759 -10.2279 -10.2059 -10.2007 -10.1771 -10.1587 -10.1056 -10.0699
   -10.0673 -10.0421 -10.0242  -9.9859  -9.9564  -9.9062  -9.8921  -9.8701
    -9.8550  -9.8306  -9.8053  -9.7915  -9.7797  -9.7586  -9.7352  -9.7132
    -9.6617  -9.6427  -9.5855  -9.5811  -9.5637  -9.5372  -9.5237  -9.5079
    -9.4910  -9.4779  -9.4610  -9.4469  -9.4140  -9.3924  -9.3672  -9.3590
    -9.3334  -9.3291  -9.3247  -9.3193  -9.3065  -9.2974  -9.2963  -9.2849
    -9.2401  -9.2244  -9.2177  -9.1833  -9.1739  -9.1645  -9.1420  -9.1347
    -9.1161  -9.1021  -9.0728  -9.0530  -9.0375  -9.0124  -9.0107  -8.9704
    -8.9619  -8.9365  -8.9056  -8.9039  -8.8762  -8.8603  -8.8511  -8.8426
    -8.8335  -8.8188  -8.8003  -8.7790  -8.7664  -8.7575  -8.7335  -8.7283
    -8.7167  -8.7045  -8.6950  -8.6797  -8.6599  -8.6554  -8.6529  -8.6382
    -8.6335  -8.6165  -8.5882  -8.5820  -8.5655  -8.5649  -8.5524  -8.5463
    -8.5384  -8.5366  -8.5285  -8.5101  -8.5056  -8.4950  -8.4848  -8.4703
    -8.4590  -8.4510  -8.4390  -8.4278  -8.4117  -8.3905  -8.3860  -8.3795
    -8.3685  -8.3616  -8.3557  -8.3406  -8.3274  -8.3221  -8.3073  -8.2992
    -8.2920  -8.2801  -8.2642  -8.2581  -8.2429  -8.2404  -8.2302  -8.2173
    -8.2101  -8.1980  -8.1885  -8.1718  -8.1672  -8.1588  -8.1411  -8.1361
    -8.1353  -8.1235  -8.1034  -8.0849  -8.0773  -8.0668  -8.0578  -8.0440
    -8.0317  -8.0303  -8.0231  -8.0147  -8.0000  -7.9917  -7.9870  -7.9834
    -7.9750  -7.9543  -7.9443  -7.9381  -7.9345  -7.9116  -7.9070  -7.9037
    -7.8800  -7.8764  -7.8636  -7.8535  -7.8459  -7.8339  -7.8296  -7.8176
    -7.8163  -7.8009  -7.7958  -7.7865  -7.7720  -7.7681  -7.7578  -7.7445
    -7.7409  -7.7344  -7.7283  -7.7133  -7.7105  -7.6972  -7.6888  -7.6743
    -7.6688  -7.6668  -7.6481  -7.6408  -7.6352  -7.6213  -7.6168  -7.6085
    -7.5936  -7.5913  -7.5795  -7.5696  -7.5667  -7.5484  -7.5457  -7.5329
    -7.5297  -7.5078  -7.5007  -7.4966  -7.4877  -7.4771  -7.4624  -7.4608
    -7.4454  -7.4406  -7.4356  -7.4198  -7.4127  -7.4015  -7.3958  -7.3813
    -7.3804  -7.3720  -7.3674  -7.3590  -7.3527  -7.3224  -7.3087  -7.2940
    -7.2871  -7.2848  -7.2803  -7.2692  -7.2561  -7.2501  -7.2419  -7.2262
    -7.2193  -7.2062  -7.1980  -7.1832  -7.1800  -7.1777  -7.1696  -7.1581
    -7.1485  -7.1352  -7.1260  -7.1139  -7.1074  -7.0890  -7.0791  -7.0722
    -7.0587  -7.0559  -7.0435  -7.0337  -7.0230  -7.0152  -7.0035  -6.9991
    -6.9884  -6.9842  -6.9761  -6.9600  -6.9531  -6.9482  -6.9314  -6.9185
    -6.9013  -6.8927  -6.8825  -6.8698  -6.8596  -6.8490  -6.8390  -6.8362
    -6.8233  -6.8197  -6.8037  -6.7847  -6.7782  -6.7706  -6.7618  -6.7503
    -6.7388  -6.7286  -6.7186  -6.7115  -6.7029  -6.6916  -6.6806  -6.6759
    -6.6687  -6.6553  -6.6468  -6.6323  -6.6217  -6.6155  -6.6022  -6.5927
    -6.5911  -6.5845  -6.5831  -6.5784  -6.5509  -6.5484  -6.5282  -6.5098
    -6.5000  -6.4868  -6.4805  -6.4758  -6.4672  -6.4633  -6.4478  -6.4431
    -6.4360  -6.4301  -6.4268  -6.4149  -6.4015  -6.3968  -6.3832  -6.3740
    -6.3686  -6.3498  -6.3452  -6.3411  -6.3240  -6.3146  -6.3008  -6.2919
    -6.2774  -6.2744  -6.2612  -6.2489  -6.2412  -6.2342  -6.2202  -6.2146
    -6.2074  -6.1883  -6.1757  -6.1704  -6.1609  -6.1379  -6.1361  -6.1030
    -6.0926  -6.0787  -6.0712  -6.0573  -6.0520  -6.0310  -6.0278  -6.0060
    -5.9895  -5.9824  -5.9683  -5.9507  -5.9454  -5.9352  -5.9340  -5.9199
    -5.9114  -5.9025  -5.8804  -5.8736  -5.8617  -5.8420  -5.8373  -5.8336
    -5.8228  -5.8064  -5.7911  -5.7769  -5.7707  -5.7623  -5.7411  -5.7226
    -5.7206  -5.7149  -5.7117  -5.6959  -5.6813  -5.6779  -5.6712  -5.6486
    -5.6442  -5.6221  -5.6006  -5.5968  -5.5942  -5.5806  -5.5683  -5.5619
    -5.5379  -5.5118  -5.4914  -5.4743  -5.4617  -5.4511  -5.4418  -5.4325
    -5.4042  -5.3910  -5.3843  -5.3702  -5.3390  -5.3349  -5.3313  -5.3287
    -5.3214  -5.3087  -5.2736  -5.2625  -5.2467  -5.2272  -5.2144  -5.2044
    -5.1670  -5.1482  -5.1351  -5.1087  -5.0676  -5.0600  -5.0485  -5.0260
    -5.0006  -4.9645  -4.8701  -4.8503  -4.8360  -4.8345  -4.8229  -4.8085
    -4.7595  -4.7388  -4.7205  -4.7095  -4.6807  -4.6594  -4.6051  -4.5996
    -4.5811  -4.5033  -4.4773  -4.4547  -4.4494  -4.4432  -4.4361  -4.4227
    -4.3393  -4.2488  -4.2039  -4.1992  -4.1404  -4.1042  -4.0434  -4.0342
    -4.0260  -4.0134  -4.0069  -3.9702  -3.9538  -3.9313  -3.9174  -3.9082
    -3.8983  -3.8916  -3.8810  -3.8470  -3.8448  -3.8385  -3.8278  -3.8221
    -3.8144  -3.8141  -3.8076  -3.7992  -3.7953  -3.7933  -3.7847  -3.7816
    -3.7774  -3.7736  -3.7587  -3.7436  -3.7375  -3.7310  -3.7214  -3.7174
    -3.7077  -3.7066  -3.6751  -3.6629  -3.6456  -3.6269  -3.6263  -3.6129
    -3.5297  -3.4464  -3.3872  -3.3414  -3.3119  -3.2812  -3.1805  -3.1058
    -2.7369  -2.6217  -2.2111  -1.9822  -1.5541  -0.6163  -0.6108  -0.4658
    -0.4187  -0.4045  -0.2661  -0.2465  -0.1671  -0.1045  -0.0241   0.0055
     0.0469   0.1586   0.2530   0.3470   0.3930   0.4719   0.5403   0.6320
     0.6829   0.7142   0.7438   0.7761   0.8335   0.8837   0.9432   0.9756
     0.9865   1.0289   1.0642   1.1017   1.1435   1.1535   1.2098   1.2176
     1.2508   1.2785   1.2846   1.3129   1.3474   1.3701   1.3803   1.3996
     1.4257   1.4469   1.4606   1.4875   1.4983   1.5322   1.5655   1.6198
     1.6203   1.6268   1.6542   1.6569   1.6666   1.6930   1.7093   1.7442
     1.7456   1.7499   1.7739   1.8020   1.8323   1.8404   1.8703   1.8800
     1.9074   1.9235   1.9307   1.9447   1.9626   1.9750   1.9851   1.9913
     2.0107   2.0462   2.0559   2.0753   2.0873   2.0897   2.0977   2.1154
     2.1187   2.1225   2.1369   2.1624   2.1664   2.1739   2.1778   2.1835
     2.1864   2.2065   2.2188   2.2307   2.2361   2.2465   2.2657   2.2800
     2.2866   2.3138   2.3188   2.3293   2.3405   2.3535   2.3625   2.3746
     2.3867   2.3934   2.4022   2.4140   2.4360   2.4512   2.4700   2.4747
     2.4870   2.4896   2.4986   2.5154   2.5160   2.5224   2.5289   2.5407
     2.5446   2.5538   2.5615   2.5705   2.5838   2.6006   2.6164   2.6258
     2.6295   2.6488   2.6510   2.6570   2.6661   2.6738   2.6784   2.6842
     2.7031   2.7118   2.7177   2.7214   2.7247   2.7396   2.7605   2.7709
     2.7777   2.7882   2.7923   2.7954   2.8066   2.8221   2.8336   2.8434
     2.8460   2.8621   2.8624   2.8746   2.8813   2.8980   2.9048   2.9103
     2.9254   2.9361   2.9545

     the Fermi energy is    -3.6816 ev

!    total energy              =  -11682.10919483 Ry
     estimated scf accuracy    <          9.8E-09 Ry
     smearing contrib. (-TS)   =      -0.11115143 Ry
     internal energy E=F+TS    =  -11681.99804340 Ry

     The total energy is F=E-TS. E is the sum of the following terms:
     one-electron contribution = -356525.99905630 Ry
     hartree contribution      =  178726.38612093 Ry
     xc contribution           =   -2470.90102536 Ry
     ewald contribution        =  170948.22005739 Ry
     one-center paw contrib.   =   -2359.70414006 Ry

     convergence has been achieved in 271 iterations

     negative rho (up, down):  6.024E-02 0.000E+00

     Forces acting on atoms (cartesian axes, Ry/au):

     atom    1 type  1   force =     0.01198369    0.01352766    0.05502293
     atom    2 type  1   force =     0.02842830    0.02470404   -0.00061261
     atom    3 type  1   force =     0.00761780    0.00107541   -0.00350919
     atom    4 type  1   force =    -0.01246724   -0.01523206   -0.01031835
     atom    5 type  1   force =     0.01477534   -0.02240039   -0.02715891
     atom    6 type  1   force =     0.00353911   -0.00143831    0.00439015
     atom    7 type  1   force =    -0.00857124    0.01204081    0.01149043
     atom    8 type  1   force =    -0.01212769   -0.03103175    0.00330338
     atom    9 type  1   force =    -0.00149425    0.00642346    0.01346735
     atom   10 type  1   force =     0.01828695   -0.00171819    0.01749137
     atom   11 type  1   force =    -0.01122070   -0.00524806   -0.01233907
     atom   12 type  2   force =     0.00698690    0.12279735   -0.04037897
     atom   13 type  2   force =     0.13704662    0.10123230   -0.00134873
     atom   14 type  2   force =     0.08061565    0.03199347   -0.06292766
     atom   15 type  2   force =     0.14630477   -0.03948341   -0.15267306
     atom   16 type  2   force =     0.02151754    0.03840508    0.04014690
     atom   17 type  2   force =     0.15429889    0.01487301    0.25422121
     atom   18 type  2   force =    -0.01245683   -0.04668228   -0.04951672
     atom   19 type  2   force =    -0.01079527    0.03868838   -0.10072978
     atom   20 type  2   force =    -0.02587693   -0.01331171   -0.04186633
     atom   21 type  2   force =    -0.05465539    0.13497816   -0.03944140
     atom   22 type  2   force =     0.03591815   -0.13330386    0.09282156
     atom   23 type  2   force =    -0.03935596   -0.06827089   -0.05873335
     atom   24 type  2   force =     0.03246206    0.02646422    0.01006380
     atom   25 type  2   force =     0.06547026    0.00666973    0.07194743
     atom   26 type  2   force =    -0.01662164   -0.00972908   -0.01116469
     atom   27 type  2   force =     0.04174579    0.11809115   -0.07356372
     atom   28 type  2   force =    -0.00195487   -0.05838137   -0.01146237
     atom   29 type  2   force =    -0.03142440   -0.05047220    0.08148948
     atom   30 type  2   force =     0.03236457   -0.03168744   -0.03950397
     atom   31 type  2   force =     0.03576273    0.02204056    0.00214406
     atom   32 type  2   force =    -0.00990879   -0.06578452    0.08799713
     atom   33 type  2   force =    -0.05571245    0.01799600   -0.05554680
     atom   34 type  2   force =     0.06103378   -0.02691518   -0.02233903
     atom   35 type  3   force =    -0.01333935   -0.07804456    0.00314750
     atom   36 type  3   force =    -0.16412476    0.08787292   -0.04850652
     atom   37 type  3   force =    -0.06764131    0.03585087   -0.01401158
     atom   38 type  3   force =    -0.05432574   -0.00011562   -0.00936280
     atom   39 type  3   force =     0.07414160    0.00716348    0.01034776
     atom   40 type  3   force =     0.08658886    0.02281629   -0.04332154
     atom   41 type  3   force =    -0.10886489   -0.09033556   -0.13250404
     atom   42 type  3   force =     0.01233238   -0.06064717    0.06453282
     atom   43 type  3   force =     0.01842221   -0.02238969   -0.04844924
     atom   44 type  3   force =     0.06109725    0.10569615    0.04113697
     atom   45 type  3   force =    -0.03191999   -0.00100357   -0.03163189
     atom   46 type  3   force =    -0.03602234    0.12390604    0.05998167
     atom   47 type  3   force =    -0.05599794    0.00761647   -0.14721396
     atom   48 type  3   force =    -0.02872904   -0.12200159   -0.13763388
     atom   49 type  3   force =     0.06193307    0.18246354    0.05225372
     atom   50 type  3   force =     0.04362012   -0.02225336   -0.09785915
     atom   51 type  3   force =    -0.01921579    0.04789300    0.07048276
     atom   52 type  3   force =    -0.12128438   -0.10608628    0.11972737
     atom   53 type  3   force =    -0.12311867   -0.10978983   -0.05508392
     atom   54 type  3   force =    -0.03663409   -0.02306059    0.10082531
     atom   55 type  3   force =    -0.15019081    0.03117530    0.03093927
     atom   56 type  3   force =    -0.02251635    0.01130764    0.12184865
     atom   57 type  3   force =     0.00706686   -0.09507749   -0.04896248
     atom   58 type  3   force =     0.06040708   -0.00821582    0.04789607
     atom   59 type  3   force =    -0.03555519   -0.01079567    0.03871865
     atom   60 type  3   force =     0.07906303   -0.07456253   -0.00361558
     atom   61 type  3   force =     0.01537328    0.19123967    0.03551926
     atom   62 type  3   force =    -0.01924385   -0.01655728   -0.00623005
     atom   63 type  3   force =     0.01628931    0.01194350   -0.00646655
     atom   64 type  3   force =     0.00307219    0.05907514    0.08266540
     atom   65 type  3   force =    -0.00854372    0.02325766    0.02054427
     atom   66 type  3   force =    -0.01586793    0.00339345   -0.01875167
     atom   67 type  3   force =     0.03113240    0.00050223    0.10240874
     atom   68 type  3   force =    -0.06511202   -0.03466186    0.07989013
     atom   69 type  3   force =     0.04502797    0.03719111    0.03190268
     atom   70 type  3   force =    -0.05032651   -0.06708796   -0.05576164
     atom   71 type  3   force =     0.04858368   -0.03740380    0.05230968
     atom   72 type  3   force =     0.01421462    0.11140778    0.19920116
     atom   73 type  3   force =    -0.07871862    0.05109043   -0.07639725
     atom   74 type  3   force =     0.00523883   -0.06456346   -0.04793951
     atom   75 type  3   force =    -0.06320153    0.00866603   -0.00234486
     atom   76 type  3   force =     0.04450452   -0.10611525   -0.06060332
     atom   77 type  3   force =    -0.03076994    0.07733508    0.03341403
     atom   78 type  3   force =    -0.09865507   -0.02067326   -0.06893862
     atom   79 type  3   force =    -0.00395902   -0.04283668    0.03502032
     atom   80 type  3   force =    -0.03236534    0.03939609   -0.00554424
     atom   81 type  3   force =     0.03039331    0.01868466   -0.03956173
     atom   82 type  3   force =    -0.04205277    0.01728262   -0.05460481
     atom   83 type  3   force =    -0.05139782    0.09472199    0.02417896
     atom   84 type  3   force =    -0.02495558    0.04021947   -0.04064973
     atom   85 type  3   force =    -0.01135828   -0.09867227    0.07699229
     atom   86 type  3   force =    -0.02811477   -0.07916374   -0.10462840
     atom   87 type  3   force =     0.02207344   -0.00716564   -0.06794231
     atom   88 type  3   force =    -0.00063201    0.05376484   -0.11884773
     atom   89 type  3   force =    -0.04835363   -0.02071286    0.06497573
     atom   90 type  3   force =     0.05354538   -0.04784233   -0.04633198
     atom   91 type  3   force =     0.06648186    0.04065605   -0.01539587
     atom   92 type  3   force =    -0.00909486   -0.00578154   -0.02091283
     atom   93 type  3   force =    -0.08709227   -0.10492084   -0.00533891
     atom   94 type  3   force =     0.07174805    0.08985195    0.05018025
     atom   95 type  3   force =    -0.01092002   -0.01085076   -0.06946514
     atom   96 type  3   force =    -0.09371289   -0.01180756    0.15325515
     atom   97 type  3   force =    -0.02816993   -0.04656998   -0.00177332
     atom   98 type  3   force =     0.10423247    0.01093249    0.09544387
     atom   99 type  3   force =    -0.05542092   -0.00675957    0.03646175
     atom  100 type  3   force =     0.02261225   -0.07810744    0.07966437
     atom  101 type  3   force =    -0.06017588    0.02729076   -0.01092931
     atom  102 type  3   force =     0.03054446    0.01743487    0.03136129
     atom  103 type  3   force =     0.04701039    0.03118259    0.09739469
     atom  104 type  3   force =    -0.08253475   -0.07720737   -0.00515780
     atom  105 type  3   force =     0.02907736    0.05418482   -0.00669541
     atom  106 type  3   force =     0.03807246    0.11412858   -0.01558246
     atom  107 type  3   force =    -0.02796364   -0.00319079    0.02794673
     atom  108 type  3   force =     0.04688636   -0.00962616    0.04590407
     atom  109 type  3   force =     0.10971634    0.02000132   -0.03968556
     atom  110 type  3   force =     0.13935251    0.00800512   -0.06096929
     atom  111 type  3   force =    -0.02031081   -0.01791625    0.01758313
     atom  112 type  3   force =    -0.06701779    0.09521101   -0.01075834
     atom  113 type  3   force =     0.02127306   -0.01983722   -0.05627537
     atom  114 type  3   force =    -0.03893953    0.02176310    0.08106854
     atom  115 type  3   force =     0.01340127   -0.02838325    0.07648865
     atom  116 type  3   force =     0.08471844    0.00791569   -0.04838003
     atom  117 type  3   force =    -0.06874768    0.00339123    0.03770360
     atom  118 type  3   force =    -0.11854479    0.11187571    0.02564174
     atom  119 type  3   force =     0.07046788   -0.00675410    0.03241374
     atom  120 type  3   force =     0.00917437    0.02808823    0.10528682
     atom  121 type  3   force =     0.12981344    0.07610379    0.01613156
     atom  122 type  4   force =     0.03954306    0.01290317    0.02871326
     atom  123 type  4   force =    -0.06147701   -0.03990127   -0.00971228
     atom  124 type  4   force =     0.00365322    0.02429291   -0.04616217
     atom  125 type  4   force =     0.01813639   -0.00575316   -0.00426131
     atom  126 type  4   force =    -0.13130450   -0.14924836   -0.01135123
     atom  127 type  4   force =    -0.09949645   -0.12885849   -0.07370734
     atom  128 type  4   force =     0.01054497   -0.04946063    0.05957292
     atom  129 type  4   force =     0.00891805   -0.06164898   -0.01138610
     atom  130 type  4   force =     0.00882446   -0.02167757    0.00919371
     atom  131 type  4   force =     0.00670465   -0.01823884   -0.01317511
     atom  132 type  4   force =     0.04933368   -0.03836834   -0.01676068
     atom  133 type  4   force =    -0.03659233   -0.05919629    0.03630885
     atom  134 type  4   force =    -0.09350053    0.00758412   -0.04007739
     atom  135 type  4   force =     0.02242041   -0.02686918    0.12459673
     atom  136 type  4   force =     0.01783632   -0.01011916   -0.01830672
     atom  137 type  4   force =     0.05390229    0.04127913   -0.03415457
     atom  138 type  4   force =     0.01582564    0.00196328   -0.01527474
     atom  139 type  4   force =    -0.00676689    0.02800750   -0.02070647
     atom  140 type  4   force =     0.02153792   -0.06866858    0.02202254
     atom  141 type  4   force =     0.05840008   -0.01205683    0.00217776
     atom  142 type  4   force =    -0.10496491   -0.05312194    0.04675547
     atom  143 type  4   force =    -0.15006473   -0.03706594   -0.09749237
     atom  144 type  4   force =    -0.00563892   -0.01755637    0.02994986
     atom  145 type  4   force =    -0.04003618    0.03677580    0.01616308
     atom  146 type  4   force =    -0.02199996    0.01693517   -0.02253388
     atom  147 type  4   force =    -0.13172555   -0.04976343    0.03206566
     atom  148 type  4   force =     0.01366629   -0.02073314   -0.01293810
     atom  149 type  4   force =     0.06869581    0.03543305    0.01729640
     atom  150 type  4   force =    -0.06342757   -0.05299105   -0.01995543
     atom  151 type  4   force =     0.05091354    0.03689667    0.02457760
     atom  152 type  4   force =    -0.05806743    0.02461432    0.01508482
     atom  153 type  4   force =     0.07628174    0.01868268    0.07642340
     atom  154 type  4   force =    -0.09651566    0.00591132    0.00659142
     atom  155 type  4   force =    -0.01257614   -0.01429230   -0.00921972
     atom  156 type  4   force =    -0.05022791    0.04125130   -0.02246484
     atom  157 type  4   force =     0.04244156   -0.01076233   -0.00372821
     atom  158 type  4   force =     0.01339409    0.01212743   -0.02431815
     atom  159 type  4   force =     0.06700601    0.00745406   -0.05896256
     atom  160 type  4   force =     0.03939773   -0.08928958    0.01393465
     atom  161 type  4   force =     0.00298252   -0.02879973    0.07144954
     atom  162 type  4   force =     0.05272821    0.09492148    0.01527551
     atom  163 type  4   force =    -0.01537450    0.05823153   -0.01555842
     atom  164 type  4   force =     0.02449742    0.02901988    0.06696030
     atom  165 type  4   force =    -0.07484448    0.00992398    0.04939215
     atom  166 type  4   force =    -0.00159540   -0.10198538    0.00497042
     atom  167 type  4   force =    -0.03908393   -0.03994846   -0.01510845
     atom  168 type  4   force =     0.01697674   -0.18442403    0.05853430
     atom  169 type  4   force =     0.05238568    0.04497655   -0.09519692
     atom  170 type  4   force =     0.02788843   -0.04779293   -0.03582132
     atom  171 type  4   force =     0.01258398   -0.01692206    0.00344696
     atom  172 type  4   force =    -0.06999881    0.01239133   -0.04381215
     atom  173 type  4   force =    -0.03893620    0.00695654   -0.02538268
     atom  174 type  4   force =     0.05687960    0.08597627    0.01826486
     atom  175 type  4   force =     0.01311661    0.04181679    0.00304962
     atom  176 type  4   force =     0.03785198   -0.00545034    0.02519245
     atom  177 type  4   force =     0.06406588   -0.00446155   -0.00820564
     atom  178 type  4   force =    -0.00367372    0.03660981    0.04553815
     atom  179 type  4   force =    -0.01194814    0.02844182    0.00309291
     atom  180 type  4   force =    -0.05735694    0.00565006   -0.00722196
     atom  181 type  4   force =     0.00000399   -0.00049897    0.09597415
     atom  182 type  4   force =    -0.02451028   -0.06136642    0.05017239
     atom  183 type  4   force =    -0.03321200    0.10699768   -0.05873014
     atom  184 type  4   force =     0.01827258   -0.01125943    0.05177233
     atom  185 type  4   force =     0.04930666   -0.03490868   -0.01730030
     atom  186 type  4   force =    -0.01141178   -0.01727921    0.00172488
     atom  187 type  4   force =    -0.02766312   -0.01187734    0.05044758
     atom  188 type  4   force =    -0.02035934   -0.01785810   -0.04714130
     atom  189 type  4   force =    -0.01980561    0.03516944   -0.00049016
     atom  190 type  4   force =     0.05861302   -0.03609979    0.00664166
     atom  191 type  4   force =    -0.01864371   -0.00331876   -0.00637899
     atom  192 type  4   force =    -0.03514275    0.02414354   -0.03098369
     atom  193 type  4   force =     0.03629837   -0.06468450    0.02196590
     atom  194 type  4   force =    -0.04962000    0.00127883   -0.00628567
     atom  195 type  4   force =    -0.01037280   -0.00581291    0.01818457
     atom  196 type  4   force =     0.00238349   -0.02552059   -0.06107215
     atom  197 type  4   force =     0.00923827    0.01572951   -0.00008938
     atom  198 type  4   force =    -0.03842018    0.04139321   -0.01357072
     atom  199 type  4   force =     0.00810754   -0.02590700    0.00623729
     atom  200 type  4   force =    -0.00958746   -0.03602756    0.05784785
     atom  201 type  4   force =    -0.01077261   -0.04755680   -0.02853002
     atom  202 type  4   force =     0.01615974    0.01501463    0.04158242
     atom  203 type  4   force =    -0.05687935   -0.05914904   -0.10307108
     atom  204 type  4   force =    -0.00238695    0.01816148    0.06244963
     atom  205 type  4   force =     0.01018903    0.07387236   -0.01370374
     atom  206 type  4   force =    -0.04070595   -0.03143367   -0.04466614
     atom  207 type  4   force =    -0.00477736   -0.03031768    0.03544697
     atom  208 type  4   force =    -0.00080506    0.01181989   -0.01008450
     atom  209 type  4   force =    -0.04449072    0.03164395   -0.05081971
     atom  210 type  4   force =    -0.01134372    0.01307379   -0.05116955
     atom  211 type  4   force =    -0.00056263   -0.03487179   -0.05656551
     atom  212 type  4   force =     0.04270198   -0.03964480   -0.03308471
     atom  213 type  4   force =     0.04284926   -0.14884297   -0.08359783
     atom  214 type  4   force =     0.05175145    0.06494943   -0.05766820
     atom  215 type  4   force =    -0.02668160   -0.02924896    0.00518421
     atom  216 type  4   force =    -0.02212834    0.07577096    0.04092213
     atom  217 type  4   force =    -0.02416964    0.03766049   -0.04189381
     atom  218 type  4   force =     0.01492170    0.02516467   -0.00786016
     atom  219 type  4   force =    -0.04399938   -0.04016278   -0.00917671
     atom  220 type  4   force =     0.01257994   -0.04149993    0.02297950
     atom  221 type  4   force =    -0.00424996    0.03039086    0.06496577
     atom  222 type  4   force =     0.10394777   -0.01658468    0.00584563
     atom  223 type  4   force =     0.02174161    0.08581507   -0.05088219
     atom  224 type  4   force =     0.03970130    0.02491744   -0.01335914
     atom  225 type  4   force =     0.06108806    0.04951404   -0.00337847
     atom  226 type  4   force =     0.02008599   -0.02509020    0.02085563
     atom  227 type  4   force =    -0.02259104    0.05201115    0.04184361
     atom  228 type  4   force =     0.00320983   -0.01707498   -0.02722387
     atom  229 type  4   force =     0.01366609    0.00007704    0.05421801
     atom  230 type  4   force =     0.05291651    0.04904163   -0.00149248
     atom  231 type  4   force =     0.04261950   -0.02083663    0.07113135
     atom  232 type  4   force =     0.04275770   -0.06427635   -0.00877464
     atom  233 type  4   force =     0.03887875    0.05821126    0.02898559
     atom  234 type  4   force =    -0.03300552   -0.05978452   -0.11440461
     atom  235 type  4   force =    -0.01906169    0.15893220   -0.01445414
     atom  236 type  4   force =     0.08810925   -0.01638003   -0.04578339
     atom  237 type  4   force =     0.00622682    0.00679124    0.01215670
     atom  238 type  4   force =    -0.01092640   -0.01290653    0.04264855
     atom  239 type  4   force =     0.01919479   -0.03610314    0.00733713
     atom  240 type  4   force =     0.07763932    0.03085117    0.02821934
     atom  241 type  4   force =     0.03121956   -0.01970136   -0.00490438
     atom  242 type  4   force =    -0.20372236   -0.02966357    0.07896541
     atom  243 type  4   force =     0.02977556    0.00103913    0.02048379
     atom  244 type  4   force =    -0.05116568   -0.00160217   -0.04531289
     atom  245 type  4   force =    -0.01910380   -0.02916972   -0.09476413
     atom  246 type  4   force =     0.02443826   -0.00899276   -0.03122501
     atom  247 type  4   force =    -0.00637805   -0.01713154   -0.06720040
     atom  248 type  4   force =    -0.01647308    0.03026778    0.05885255
     atom  249 type  4   force =     0.03809441    0.02612078   -0.06221371
     atom  250 type  4   force =    -0.08196857   -0.01668899    0.00423183
     atom  251 type  4   force =    -0.00779782   -0.00392153   -0.01947455
     atom  252 type  4   force =    -0.07121623    0.01912100   -0.05254918
     atom  253 type  4   force =     0.00126692   -0.04522896   -0.11030427
     atom  254 type  4   force =    -0.09099633    0.01337890   -0.01473585
     atom  255 type  4   force =     0.01625561   -0.01882771    0.02041571
     atom  256 type  4   force =     0.03191570   -0.00805685    0.03526282
     atom  257 type  4   force =     0.02692956   -0.02500530    0.03379545
     atom  258 type  4   force =     0.00067109    0.01268683   -0.02908144
     atom  259 type  4   force =     0.04800153    0.01503259   -0.00891411
     atom  260 type  4   force =    -0.04569565   -0.01157136   -0.06089564
     atom  261 type  4   force =     0.04149102    0.02795339   -0.03944333
     atom  262 type  4   force =    -0.05552725   -0.01093053    0.04588807
     atom  263 type  4   force =     0.09671843   -0.02645874    0.01777157
     atom  264 type  4   force =    -0.04573210    0.04260777   -0.02251131
     atom  265 type  4   force =     0.02487478    0.01509361   -0.03965586
     atom  266 type  4   force =     0.02701216    0.02036574   -0.04799991
     atom  267 type  4   force =     0.07753187   -0.00409767   -0.04291744
     atom  268 type  4   force =     0.02718478   -0.04396349   -0.03137375
     atom  269 type  4   force =    -0.01663186   -0.06669554    0.00511291
     atom  270 type  4   force =    -0.07175033   -0.01324911   -0.02962747
     atom  271 type  4   force =     0.06967431    0.01181802    0.00874496
     atom  272 type  4   force =     0.02761885    0.05489253   -0.01275585
     atom  273 type  4   force =     0.00245031   -0.00629174    0.04775028
     atom  274 type  4   force =    -0.02439225    0.00273890    0.02712809
     atom  275 type  4   force =    -0.01182724   -0.02057819    0.01821872
     atom  276 type  4   force =     0.04365408    0.07913050    0.06967658
     atom  277 type  4   force =     0.02663186   -0.01174008   -0.07655175
     atom  278 type  4   force =    -0.02158285    0.06310811    0.04437532
     atom  279 type  4   force =    -0.01201808   -0.02157662    0.00405918
     atom  280 type  4   force =    -0.02692080    0.05673604    0.00962299
     atom  281 type  4   force =     0.04153425    0.03154676    0.04330658
     atom  282 type  4   force =     0.03673419   -0.05135660    0.01537162
     atom  283 type  4   force =     0.00389123   -0.06523605   -0.03209904
     atom  284 type  4   force =     0.07188163   -0.05373305   -0.03047120
     atom  285 type  4   force =     0.01851036   -0.01658595    0.01461694
     atom  286 type  4   force =    -0.11851447   -0.02982348   -0.06912588
     atom  287 type  4   force =    -0.01625988   -0.00177917    0.04450528
     atom  288 type  4   force =     0.06712145   -0.00380207   -0.05577083
     atom  289 type  4   force =     0.02105261    0.09133234   -0.02688613
     atom  290 type  4   force =     0.10189473   -0.05825183   -0.11028228
     atom  291 type  4   force =    -0.03015319    0.01411226   -0.01575991
     atom  292 type  4   force =    -0.01946662   -0.01129975    0.01437246
     atom  293 type  4   force =    -0.00655556   -0.02629978   -0.04964323
     atom  294 type  4   force =     0.08009865   -0.02996582    0.16786232
     atom  295 type  4   force =    -0.05386007    0.06400844    0.06798893
     atom  296 type  4   force =    -0.05992634    0.01919223    0.03735437
     atom  297 type  4   force =    -0.01778728    0.01402621   -0.02420855
     atom  298 type  4   force =     0.01308262    0.01329545    0.01797006
     atom  299 type  4   force =    -0.06687154   -0.14505933   -0.02680050
     atom  300 type  4   force =    -0.01170359   -0.05288643   -0.03407697
     atom  301 type  4   force =    -0.07376406    0.03966746    0.02584918
     atom  302 type  4   force =     0.00574335    0.12646224    0.11052184
     atom  303 type  4   force =    -0.01420712   -0.02292279   -0.03985454
     atom  304 type  4   force =    -0.03903015   -0.00155481    0.01109111
     atom  305 type  4   force =    -0.03631790   -0.01652053    0.00703747
     atom  306 type  4   force =     0.00811287    0.01576977   -0.05868299
     atom  307 type  4   force =     0.02343230    0.02016505    0.04237025
     atom  308 type  4   force =     0.00972492    0.00088009   -0.05119224
     atom  309 type  4   force =     0.00197296   -0.02058190    0.01393214
     atom  310 type  4   force =     0.09236253   -0.00427090    0.11082091
     atom  311 type  4   force =    -0.03272734   -0.01337926    0.01156705
     atom  312 type  4   force =    -0.02337381    0.02161383    0.01460105
     atom  313 type  4   force =     0.01427265   -0.08713385    0.01949015
     atom  314 type  4   force =    -0.04568747    0.01305824   -0.02392357
     atom  315 type  4   force =    -0.01722582   -0.00382675   -0.02787625
     atom  316 type  4   force =    -0.00558660   -0.00388812    0.01813848
     atom  317 type  4   force =    -0.00177826    0.06900000    0.03998839
     atom  318 type  4   force =     0.04034436    0.00254046   -0.01753474
     atom  319 type  4   force =    -0.02971336   -0.01473299   -0.06110314
     atom  320 type  4   force =     0.04262130   -0.01853696   -0.02673582
     atom  321 type  4   force =    -0.02604015    0.12863081    0.03790578
     atom  322 type  4   force =     0.02388703    0.01091489   -0.06530974
     atom  323 type  4   force =     0.03558140   -0.03559950    0.04992947
     atom  324 type  4   force =     0.05221852    0.00489216   -0.02320659
     atom  325 type  4   force =     0.03441067   -0.02324371   -0.02832260
     atom  326 type  4   force =    -0.00823551    0.11664636    0.05600218
     atom  327 type  4   force =     0.04743393    0.04959643   -0.03977627
     atom  328 type  4   force =     0.02053813    0.00099699   -0.01994920
     atom  329 type  4   force =     0.10558368    0.01069557    0.01855332
     atom  330 type  4   force =     0.02370311   -0.03658537   -0.05448208
     atom  331 type  4   force =     0.03238051    0.04218419   -0.00806809
     atom  332 type  4   force =     0.02197597    0.05072218   -0.01244981
     atom  333 type  4   force =    -0.05389518   -0.05590203    0.02742736
     atom  334 type  4   force =     0.02377789    0.04554151   -0.02793609
     atom  335 type  4   force =     0.06793992    0.02175917   -0.02189648
     atom  336 type  4   force =    -0.03941708   -0.03108404   -0.04390342
     atom  337 type  4   force =    -0.00472829   -0.00474209   -0.02315495
     atom  338 type  4   force =    -0.05726781    0.04317707   -0.01898388
     atom  339 type  5   force =    -0.02046826    0.02373496    0.03466474
     atom  340 type  5   force =     0.00643259   -0.02890048    0.02819052
     atom  341 type  6   force =     0.02451928    0.00334931   -0.00053327
     atom  342 type  6   force =    -0.02436679   -0.00331934    0.00033296
     atom  343 type  6   force =     0.00411118   -0.04040959   -0.00217570
     atom  344 type  6   force =     0.00685563   -0.04012146   -0.00225036
     atom  345 type  6   force =    -0.00659201    0.04024310    0.00276957
     atom  346 type  6   force =    -0.00434853    0.04041082    0.00236940
     atom  347 type  6   force =     0.02755157    0.02093559    0.00049008
     atom  348 type  6   force =    -0.03209331    0.01286473    0.00187954
     atom  349 type  6   force =     0.03218025   -0.01289577   -0.00134397
     atom  350 type  6   force =    -0.02783748   -0.02093835   -0.00016372
     atom  351 type  7   force =     0.00290852    0.00574346    0.00004732
     atom  352 type  7   force =    -0.00418328    0.00478163    0.00019189
     atom  353 type  7   force =     0.00419505   -0.00479277   -0.00058369
     atom  354 type  7   force =    -0.00265683   -0.00569494   -0.00043558
     atom  355 type  7   force =     0.00386538   -0.00321599   -0.00052436
     atom  356 type  7   force =    -0.00283942   -0.00403099   -0.00035682
     atom  357 type  7   force =     0.00289299    0.00418067   -0.00003001
     atom  358 type  7   force =    -0.00384043    0.00315788    0.00008490

     Total force =     1.686322     Total SCF correction =     0.000164


     Computing stress (Cartesian axis) and pressure


     negative rho (up, down):  6.024E-02 0.000E+00
          total   stress  (Ry/bohr**3)                   (kbar)     P=        7.98
   0.00005260   0.00000154  -0.00000302            7.74        0.23       -0.44
   0.00000154   0.00006105   0.00000346            0.23        8.98        0.51
  -0.00000302   0.00000346   0.00004917           -0.44        0.51        7.23


     Writing all to output data dir ./outputs/pwscf.save/ :
     XML data file, charge density, pseudopotentials, collected wavefunctions
 
     init_run     :    145.97s CPU    149.07s WALL (       1 calls)
     electrons    :  76997.92s CPU  78306.15s WALL (       1 calls)
     forces       :     92.61s CPU     95.53s WALL (       1 calls)
     stress       :    350.82s CPU    355.55s WALL (       1 calls)

     Called by init_run:
     wfcinit      :    129.93s CPU    131.77s WALL (       1 calls)
     potinit      :      1.19s CPU      1.28s WALL (       1 calls)
     hinit0       :      1.43s CPU      1.48s WALL (       1 calls)

     Called by electrons:
     c_bands      :  64450.37s CPU  65187.97s WALL (     271 calls)
     sum_band     :  11267.89s CPU  11586.03s WALL (     271 calls)
     v_of_rho     :    124.29s CPU    129.12s WALL (     272 calls)
     newd         :    916.71s CPU   1155.90s WALL (     272 calls)
     PAW_pot      :    154.40s CPU    155.48s WALL (     272 calls)
     mix_rho      :     68.17s CPU     70.89s WALL (     271 calls)

     Called by c_bands:
     init_us_2    :    598.71s CPU    608.05s WALL (     544 calls)
     cegterg      :  63641.21s CPU  64365.71s WALL (     271 calls)

     Called by *egterg:
     cdiaghg      :    909.42s CPU    916.03s WALL (     594 calls)
     h_psi        :  35427.01s CPU  35783.54s WALL (     595 calls)
     s_psi        :  10463.67s CPU  10549.91s WALL (     595 calls)
     g_psi        :     41.68s CPU     42.21s WALL (     323 calls)

     Called by h_psi:
     h_psi:calbec :  10510.10s CPU  10577.64s WALL (     595 calls)
     vloc_psi     :  14390.12s CPU  14536.80s WALL (     595 calls)
                                        0.00s GPU  (     595 calls)
     add_vuspsi   :  10460.36s CPU  10538.69s WALL (     595 calls)

     General routines
     calbec       :  16049.61s CPU  16152.01s WALL (     883 calls)
     fft          :    144.63s CPU    150.40s WALL (    3559 calls)
     ffts         :     11.02s CPU     11.49s WALL (     543 calls)
     fftw         :  13814.92s CPU  13944.11s WALL ( 1529583 calls)
     interpolate  :     15.25s CPU     15.89s WALL (     272 calls)
 
     Parallel routines
 
     PWSCF        :     21h33m CPU     21h56m WALL

 
   This run was terminated on:   1:56:45  15Mar2026            

=------------------------------------------------------------------------------=
   JOB DONE.
=------------------------------------------------------------------------------=
