
     Program PWSCF v.7.5 starts on 14Mar2026 at 14:44:55 

     This program is part of the open-source Quantum ESPRESSO suite
     for quantum simulation of materials; please cite
         "P. Giannozzi et al., J. Phys.:Condens. Matter 21 395502 (2009);
         "P. Giannozzi et al., J. Phys.:Condens. Matter 29 465901 (2017);
         "P. Giannozzi et al., J. Chem. Phys. 152 154105 (2020);
          URL http://www.quantum-espresso.org", 
     in publications or presentations arising from this work. More details at
     http://www.quantum-espresso.org/quote

     Parallel version (MPI), running on    80 processors

     MPI processes distributed on     4 nodes
     64341 MiB available memory on the printing compute node when the environment starts
 
     Reading input from NaphthaleneOnGlassSite3Snapshot29.in
Warning: card &CELL ignored
Warning: card &FCP ignored
Warning: card &RISM ignored

     Current dimensions of program PWSCF are:
     Max number of different atomic species (ntypx) = 10
     Max number of k-points (npk) =  40000
     Max angular momentum in pseudopotentials (lmaxx) =  4
     file Na.paw.z_9.ld1.psl.v1.0.0-low.upf: wavefunction(s)  2P renormalized
     file O.pbe-n-kjpaw_psl.0.1.UPF: wavefunction(s)  2P renormalized
     file Al.pbe-n-kjpaw_psl.1.0.0.UPF: wavefunction(s)  3S 3P renormalized
     file C.pbe-n-kjpaw_psl.1.0.0.UPF: wavefunction(s)  2S 2P renormalized
 
     R & G space division:  proc/nbgrp/npool/nimage =      80
     Subspace diagonalization in iterative solution of the eigenvalue problem:
     one sub-group per band group will be used
     custom distributed-memory algorithm (size of sub-group:  8*  8 procs)

 
     Parallelization info
     --------------------
     sticks:   dense  smooth     PW     G-vecs:    dense   smooth      PW
     Min         450     400    100               199276   167008   20874
     Max         451     401    101               199303   167021   20885
     Sum       36073   32057   8021             15943719 13361281 1670237
 
     Using Slab Decomposition
 


     bravais-lattice index     =            0
     lattice parameter (alat)  =      35.4885  a.u.
     unit-cell volume          =  138228.4306 (a.u.)^3
     number of atoms/cell      =          358
     number of atomic types    =            7
     number of electrons       =      1872.00
     number of Kohn-Sham states=         1123
     kinetic-energy cutoff     =      80.0000  Ry
     charge density cutoff     =     360.0000  Ry
     scf convergence threshold =      1.0E-08
     mixing beta               =       0.1000
     number of iterations used =            8  plain     mixing
     Exchange-correlation= PBE
                           (   1   4   3   4   0   0   0)

     celldm(1)=  35.488539  celldm(2)=   0.000000  celldm(3)=   0.000000
     celldm(4)=   0.000000  celldm(5)=   0.000000  celldm(6)=   0.000000

     crystal axes: (cart. coord. in units of alat)
               a(1) = (   1.000000   0.000000   0.000000 )  
               a(2) = (   0.000000   1.000000   0.000000 )  
               a(3) = (   0.000000   0.000000   3.092666 )  

     reciprocal axes: (cart. coord. in units 2 pi/alat)
               b(1) = (  1.000000  0.000000  0.000000 )  
               b(2) = (  0.000000  1.000000  0.000000 )  
               b(3) = (  0.000000  0.000000  0.323346 )  


     PseudoPot. # 1 for Na read from file:
     /home/sabeel/VOCC_Simulation/pseudopotentials/SSSP_Precision/Na.paw.z_9.ld1.psl.v1.0.0-low.upf
     MD5 check sum: 32bccecb13d7399e6c7dae6fe6685ff0
     Pseudo is Projector augmented-wave + core cor, Zval =  9.0
     Generated using &quot;atomic&quot; code by A. Dal Corso  v.6.3MaX
     Shape of augmentation charge: PSQ
     Using radial grid of 1121 points,  4 beta functions with: 
                l(1) =   0
                l(2) =   0
                l(3) =   1
                l(4) =   1
     Q(r) pseudized with 0 coefficients 


     PseudoPot. # 2 for B  read from file:
     /home/sabeel/VOCC_Simulation/pseudopotentials/SSSP_Precision/B_pbe_v1.01.uspp.F.UPF
     MD5 check sum: d081ebb89d0c768e112975f650467a00
     Pseudo is Ultrasoft + core correction, Zval =  3.0
     Generated by new atomic code, or converted to UPF format
     Using radial grid of  781 points,  4 beta functions with: 
                l(1) =   0
                l(2) =   0
                l(3) =   1
                l(4) =   1
     Q(r) pseudized with  8 coefficients,  rinner =    1.100   1.100   1.100


     PseudoPot. # 3 for Si read from file:
     /home/sabeel/VOCC_Simulation/pseudopotentials/SSSP_Precision/Si.pbe-n-rrkjus_psl.1.0.0.UPF
     MD5 check sum: 0b0bb1205258b0d07b9f9672cf965d36
     Pseudo is Ultrasoft + core correction, Zval =  4.0
     Generated using "atomic" code by A. Dal Corso  v.5.1
     Using radial grid of 1141 points,  6 beta functions with: 
                l(1) =   0
                l(2) =   0
                l(3) =   1
                l(4) =   1
                l(5) =   2
                l(6) =   2
     Q(r) pseudized with 0 coefficients 


     PseudoPot. # 4 for O  read from file:
     /home/sabeel/VOCC_Simulation/pseudopotentials/SSSP_Precision/O.pbe-n-kjpaw_psl.0.1.UPF
     MD5 check sum: 0234752ac141de4415c5fc33072bef88
     Pseudo is Projector augmented-wave + core cor, Zval =  6.0
     Generated using "atomic" code by A. Dal Corso  v.5.0.99 svn rev. 10869
     Shape of augmentation charge: BESSEL
     Using radial grid of 1095 points,  4 beta functions with: 
                l(1) =   0
                l(2) =   0
                l(3) =   1
                l(4) =   1
     Q(r) pseudized with 0 coefficients 


     PseudoPot. # 5 for Al read from file:
     /home/sabeel/VOCC_Simulation/pseudopotentials/SSSP_Precision/Al.pbe-n-kjpaw_psl.1.0.0.UPF
     MD5 check sum: cfc449ca30b5f3223ec38ddd88ac046d
     Pseudo is Projector augmented-wave + core cor, Zval =  3.0
     Generated using "atomic" code by A. Dal Corso  v.5.1
     Shape of augmentation charge: PSQ
     Using radial grid of 1135 points,  6 beta functions with: 
                l(1) =   0
                l(2) =   0
                l(3) =   1
                l(4) =   1
                l(5) =   2
                l(6) =   2
     Q(r) pseudized with 0 coefficients 


     PseudoPot. # 6 for C  read from file:
     /home/sabeel/VOCC_Simulation/pseudopotentials/SSSP_Precision/C.pbe-n-kjpaw_psl.1.0.0.UPF
     MD5 check sum: 5d2aebdfa2cae82b50a7e79e9516da0f
     Pseudo is Projector augmented-wave + core cor, Zval =  4.0
     Generated using "atomic" code by A. Dal Corso  v.5.1
     Shape of augmentation charge: PSQ
     Using radial grid of 1073 points,  4 beta functions with: 
                l(1) =   0
                l(2) =   0
                l(3) =   1
                l(4) =   1
     Q(r) pseudized with 0 coefficients 


     PseudoPot. # 7 for H  read from file:
     /home/sabeel/VOCC_Simulation/pseudopotentials/SSSP_Precision/H_ONCV_PBE-1.0.oncvpsp.upf
     MD5 check sum: 1790becc920ee074925cf490c71280fe
     Pseudo is Norm-conserving, Zval =  1.0
     Generated using ONCVPSP code by D. R. Hamann
     Using radial grid of 1166 points,  2 beta functions with: 
                l(1) =   0
                l(2) =   0

     atomic species   valence    mass     pseudopotential
     Na                9.00    22.98977     Na( 1.00)
     B                 3.00    10.81000     B ( 1.00)
     Si                4.00    28.08500     Si( 1.00)
     O                 6.00    15.99900     O ( 1.00)
     Al                3.00    26.98154     Al( 1.00)
     C                 4.00    12.01100     C ( 1.00)
     H                 1.00     1.00800     H ( 1.00)

     No symmetry found



   Cartesian axes

     site n.     atom                  positions (alat units)
         1        Na     tau(   1) = (   0.2476327   0.1287261   1.4401902  )
         2        Na     tau(   2) = (   0.2347070   0.3964799   1.8357059  )
         3        Na     tau(   3) = (   0.2580766   0.4457236   1.6551511  )
         4        Na     tau(   4) = (   0.0484944   0.0277893   1.6277847  )
         5        Na     tau(   5) = (   0.2352313   0.0813062   1.2863150  )
         6        Na     tau(   6) = (   0.0747243   0.2371463   1.1982473  )
         7        Na     tau(   7) = (   0.1133306   0.7698962   1.8611434  )
         8        Na     tau(   8) = (   0.9037110   0.1954209   1.2700780  )
         9        Na     tau(   9) = (   0.5181841   0.1014052   1.4940734  )
        10        Na     tau(  10) = (   0.3803624   0.0140251   1.8302637  )
        11        Na     tau(  11) = (   0.3545179   0.4989222   1.3772145  )
        12        B      tau(  12) = (   0.9565860   0.6559989   1.4661680  )
        13        B      tau(  13) = (   0.3779039   0.3190213   1.8506233  )
        14        B      tau(  14) = (   0.6357433   0.7757670   1.3375748  )
        15        B      tau(  15) = (   0.9958362   0.0827877   1.8476266  )
        16        B      tau(  16) = (   0.6987179   0.5586979   1.3943070  )
        17        B      tau(  17) = (   0.0903279   0.5997535   1.2200041  )
        18        B      tau(  18) = (   0.9460845   0.5017876   1.4754679  )
        19        B      tau(  19) = (   0.0032347   0.0527127   1.2839437  )
        20        B      tau(  20) = (   0.1241012   0.5940167   1.6016841  )
        21        B      tau(  21) = (   0.4174729   0.9198072   1.5541475  )
        22        B      tau(  22) = (   0.4638227   0.9107282   1.2322731  )
        23        B      tau(  23) = (   0.5096053   0.7092947   1.5000083  )
        24        B      tau(  24) = (   0.4035376   0.9367665   1.6900270  )
        25        B      tau(  25) = (   0.7132674   0.8560217   1.2558196  )
        26        B      tau(  26) = (   0.2579773   0.4217781   1.2874388  )
        27        B      tau(  27) = (   0.1862793   0.2338812   1.3576537  )
        28        B      tau(  28) = (   0.2134919   0.3664862   1.5073156  )
        29        B      tau(  29) = (   0.3546252   0.0462610   1.5293894  )
        30        B      tau(  30) = (   0.8082206   0.9504483   1.6218439  )
        31        B      tau(  31) = (   0.4915043   0.5408159   1.2913026  )
        32        B      tau(  32) = (   0.2471486   0.9450605   1.4099193  )
        33        B      tau(  33) = (   0.7089246   0.1566090   1.6669558  )
        34        B      tau(  34) = (   0.4858908   0.1745693   1.3498737  )
        35        Si     tau(  35) = (   0.5740761   0.3686341   1.4981594  )
        36        Si     tau(  36) = (   0.9600416   0.6521543   1.2713743  )
        37        Si     tau(  37) = (   0.8029666   0.9237355   1.4090604  )
        38        Si     tau(  38) = (   0.6589027   0.0111466   1.4303706  )
        39        Si     tau(  39) = (   0.7148031   0.8518694   1.6658713  )
        40        Si     tau(  40) = (   0.4062844   0.4370669   1.7000479  )
        41        Si     tau(  41) = (   0.8652299   0.0194200   1.2866760  )
        42        Si     tau(  42) = (   0.8792462   0.4724358   1.3313926  )
        43        Si     tau(  43) = (   0.9761010   0.8191325   1.3004490  )
        44        Si     tau(  44) = (   0.0927580   0.6000365   1.4532062  )
        45        Si     tau(  45) = (   0.8492038   0.6801733   1.8429896  )
        46        Si     tau(  46) = (   0.7648638   0.9759642   1.8781504  )
        47        Si     tau(  47) = (   0.8282769   0.9005504   1.7531841  )
        48        Si     tau(  48) = (   0.2400871   0.2615564   1.6009290  )
        49        Si     tau(  49) = (   0.0782160   0.8578516   1.7113893  )
        50        Si     tau(  50) = (   0.1793983   0.5421597   1.3229395  )
        51        Si     tau(  51) = (   0.3045589   0.3154693   1.3856788  )
        52        Si     tau(  52) = (   0.1868342   0.9496617   1.8144358  )
        53        Si     tau(  53) = (   0.5597482   0.9942014   1.8563540  )
        54        Si     tau(  54) = (   0.3283405   0.8654915   1.7979255  )
        55        Si     tau(  55) = (   0.3944303   0.1342286   1.2558232  )
        56        Si     tau(  56) = (   0.5556116   0.4029995   1.7688172  )
        57        Si     tau(  57) = (   0.8886951   0.0519111   1.5515978  )
        58        Si     tau(  58) = (   0.9177874   0.8266438   1.8602018  )
        59        Si     tau(  59) = (   0.5141592   0.7513592   1.7304853  )
        60        Si     tau(  60) = (   0.6200680   0.7296116   1.5975635  )
        61        Si     tau(  61) = (   0.4531771   0.2653855   1.4551164  )
        62        Si     tau(  62) = (   0.9530092   0.1910999   1.6203079  )
        63        Si     tau(  63) = (   0.9806318   0.2594417   1.4695044  )
        64        Si     tau(  64) = (   0.1810221   0.5658568   1.7318917  )
        65        Si     tau(  65) = (   0.2276537   0.6624309   1.2309086  )
        66        Si     tau(  66) = (   0.7086066   0.3068958   1.4624957  )
        67        Si     tau(  67) = (   0.7573617   0.5008676   1.2102682  )
        68        Si     tau(  68) = (   0.0630774   0.5052222   1.8068999  )
        69        Si     tau(  69) = (   0.9531780   0.4208941   1.7332624  )
        70        Si     tau(  70) = (   0.8429520   0.6341042   1.3864806  )
        71        Si     tau(  71) = (   0.8255070   0.2513717   1.7092992  )
        72        Si     tau(  72) = (   0.4660404   0.3166643   1.5999861  )
        73        Si     tau(  73) = (   0.3218087   0.1696541   1.7095271  )
        74        Si     tau(  74) = (   0.6054871   0.0864265   1.2929813  )
        75        Si     tau(  75) = (   0.4402609   0.0821865   1.6559030  )
        76        Si     tau(  76) = (   0.3770531   0.0317907   1.3941734  )
        77        Si     tau(  77) = (   0.5059912   0.8072476   1.3243503  )
        78        Si     tau(  78) = (   0.6069382   0.5044701   1.6609957  )
        79        Si     tau(  79) = (   0.6370349   0.4244534   1.3741369  )
        80        Si     tau(  80) = (   0.6855674   0.7078304   1.8645318  )
        81        Si     tau(  81) = (   0.0765130   0.9298841   1.2314627  )
        82        Si     tau(  82) = (   0.9863684   0.4054382   1.2235204  )
        83        Si     tau(  83) = (   0.4950631   0.2585395   1.7548401  )
        84        Si     tau(  84) = (   0.5719431   0.1160579   1.7357262  )
        85        Si     tau(  85) = (   0.3566442   0.7389475   1.7027041  )
        86        Si     tau(  86) = (   0.5887626   0.6478135   1.7482870  )
        87        Si     tau(  87) = (   0.3778403   0.4701707   1.1981005  )
        88        Si     tau(  88) = (   0.7705746   0.7745811   1.3546535  )
        89        Si     tau(  89) = (   0.6353056   0.3899359   1.2194797  )
        90        Si     tau(  90) = (   0.3199297   0.6027545   1.8036004  )
        91        Si     tau(  91) = (   0.6901246   0.5787282   1.5496775  )
        92        Si     tau(  92) = (   0.1108815   0.9857043   1.4484254  )
        93        Si     tau(  93) = (   0.0087222   0.8101075   1.4596435  )
        94        Si     tau(  94) = (   0.4662737   0.5842118   1.4387730  )
        95        Si     tau(  95) = (   0.1497603   0.1150345   1.8191784  )
        96        Si     tau(  96) = (   0.9119816   0.9073773   1.5284091  )
        97        Si     tau(  97) = (   0.5081777   0.9347421   1.4393654  )
        98        Si     tau(  98) = (   0.9733658   0.9480751   1.7929925  )
        99        Si     tau(  99) = (   0.2449909   0.7736475   1.5958723  )
       100        Si     tau( 100) = (   0.2568298   0.7840856   1.3334763  )
       101        Si     tau( 101) = (   0.1600543   0.7576293   1.4557816  )
       102        Si     tau( 102) = (   0.9190690   0.2974838   1.8287833  )
       103        Si     tau( 103) = (   0.8499270   0.3745654   1.6104514  )
       104        Si     tau( 104) = (   0.8444491   0.5369054   1.7673517  )
       105        Si     tau( 105) = (   0.1203187   0.1732756   1.6597012  )
       106        Si     tau( 106) = (   0.6321686   0.6005607   1.2681838  )
       107        Si     tau( 107) = (   0.6235724   0.8470731   1.8048529  )
       108        Si     tau( 108) = (   0.7501132   0.1202716   1.2309056  )
       109        Si     tau( 109) = (   0.2746484   0.2046900   1.8670863  )
       110        Si     tau( 110) = (   0.2273259   0.0646953   1.6216725  )
       111        Si     tau( 111) = (   0.0729274   0.4042159   1.4579120  )
       112        Si     tau( 112) = (   0.6640697   0.1601480   1.5162335  )
       113        Si     tau( 113) = (   0.1226817   0.7031938   1.6887692  )
       114        Si     tau( 114) = (   0.8406300   0.5276586   1.5875131  )
       115        Si     tau( 115) = (   0.8389500   0.3149315   1.3901795  )
       116        Si     tau( 116) = (   0.1722727   0.9211130   1.5953570  )
       117        Si     tau( 117) = (   0.0763504   0.1375521   1.3930086  )
       118        Si     tau( 118) = (   0.3256209   0.9115638   1.2548481  )
       119        Si     tau( 119) = (   0.3955849   0.7224945   1.4035300  )
       120        Si     tau( 120) = (   0.4652418   0.5499611   1.5942954  )
       121        Si     tau( 121) = (   0.1212618   0.3651412   1.3045003  )
       122        O      tau( 122) = (   0.0295168   0.4481121   1.8630498  )
       123        O      tau( 123) = (   0.8632305   0.7660730   1.8351295  )
       124        O      tau( 124) = (   0.7865379   0.5198677   1.8292109  )
       125        O      tau( 125) = (   0.7687039   0.8065522   1.2712216  )
       126        O      tau( 126) = (   0.2613316   0.2462125   1.3627201  )
       127        O      tau( 127) = (   0.4383841   0.2721051   1.5384261  )
       128        O      tau( 128) = (   0.4075804   0.9041606   1.6244717  )
       129        O      tau( 129) = (   0.2891632   0.9821156   1.2266374  )
       130        O      tau( 130) = (   0.3003666   0.1796727   1.7902854  )
       131        O      tau( 131) = (   0.5973279   0.4225163   1.2949590  )
       132        O      tau( 132) = (   0.5334428   0.5020140   1.6146071  )
       133        O      tau( 133) = (   0.2755656   0.1058719   1.6786020  )
       134        O      tau( 134) = (   0.1545595   0.1075181   1.6150265  )
       135        O      tau( 135) = (   0.1198242   0.5723265   1.5291309  )
       136        O      tau( 136) = (   0.5826608   0.7211316   1.6806210  )
       137        O      tau( 137) = (   0.4384820   0.7620469   1.6969890  )
       138        O      tau( 138) = (   0.3813441   0.2977472   1.4178316  )
       139        O      tau( 139) = (   0.9518571   0.2429557   1.5505285  )
       140        O      tau( 140) = (   0.6668767   0.5177678   1.6031137  )
       141        O      tau( 141) = (   0.1520770   0.1695411   1.3620472  )
       142        O      tau( 142) = (   0.6925009   0.7509516   1.3753791  )
       143        O      tau( 143) = (   0.1434568   0.6580895   1.2139172  )
       144        O      tau( 144) = (   0.4761486   0.9028411   1.5138988  )
       145        O      tau( 145) = (   0.0631356   0.5782061   1.8492954  )
       146        O      tau( 146) = (   0.5876332   0.4146284   1.8503125  )
       147        O      tau( 147) = (   0.1071621   0.8902567   1.6361869  )
       148        O      tau( 148) = (   0.0331486   0.1967754   1.4407710  )
       149        O      tau( 149) = (   0.9443941   0.9810288   1.5588672  )
       150        O      tau( 150) = (   0.5485694   0.5774714   1.2625723  )
       151        O      tau( 151) = (   0.6090489   0.9225244   1.8421140  )
       152        O      tau( 152) = (   0.3184350   0.7927686   1.7545505  )
       153        O      tau( 153) = (   0.2965868   0.2359092   1.6579206  )
       154        O      tau( 154) = (   0.3399948   0.4149078   1.7451441  )
       155        O      tau( 155) = (   0.6583099   0.3076783   1.2358723  )
       156        O      tau( 156) = (   0.5620926   0.7442927   1.5385442  )
       157        O      tau( 157) = (   0.5556976   0.3175372   1.7688381  )
       158        O      tau( 158) = (   0.3525972   0.6632019   1.7471104  )
       159        O      tau( 159) = (   0.9620412   0.3446718   1.7697440  )
       160        O      tau( 160) = (   0.5313272   0.1848172   1.7709556  )
       161        O      tau( 161) = (   0.9429693   0.0183272   1.3239474  )
       162        O      tau( 162) = (   0.4858005   0.9533180   1.8755890  )
       163        O      tau( 163) = (   0.3657073   0.5328581   1.8345358  )
       164        O      tau( 164) = (   0.4406081   0.5066782   1.2484323  )
       165        O      tau( 165) = (   0.3135028   0.2834622   1.8690668  )
       166        O      tau( 166) = (   0.7907911   0.8360261   1.7119523  )
       167        O      tau( 167) = (   0.7289290   0.9234833   1.2340123  )
       168        O      tau( 168) = (   0.1454692   0.2885690   1.3267456  )
       169        O      tau( 169) = (   0.3914991   0.9066251   1.7575926  )
       170        O      tau( 170) = (   0.7079875   0.2222935   1.4707635  )
       171        O      tau( 171) = (   0.9743698   0.8515159   1.5269402  )
       172        O      tau( 172) = (   0.1330105   0.5361140   1.2470617  )
       173        O      tau( 173) = (   0.5827735   0.0420994   1.2254729  )
       174        O      tau( 174) = (   0.8602910   0.6220068   1.7811976  )
       175        O      tau( 175) = (   0.5252483   0.6418342   1.4684534  )
       176        O      tau( 176) = (   0.6556139   0.6691234   1.7930720  )
       177        O      tau( 177) = (   0.9478947   0.4555202   1.2814895  )
       178        O      tau( 178) = (   0.9699578   0.0766966   1.2188133  )
       179        O      tau( 179) = (   0.5480526   0.8088247   1.7836236  )
       180        O      tau( 180) = (   0.3152477   0.7447790   1.3880620  )
       181        O      tau( 181) = (   0.1477991   0.6460434   1.7450578  )
       182        O      tau( 182) = (   0.4226375   0.0083615   1.6949577  )
       183        O      tau( 183) = (   0.5004654   0.8461638   1.2447985  )
       184        O      tau( 184) = (   0.7864920   0.8423242   1.4036977  )
       185        O      tau( 185) = (   0.9046070   0.6136339   1.3286598  )
       186        O      tau( 186) = (   0.1308852   0.5564651   1.3912596  )
       187        O      tau( 187) = (   0.0181193   0.9388870   1.8632981  )
       188        O      tau( 188) = (   0.5236768   0.3172741   1.4469420  )
       189        O      tau( 189) = (   0.6771903   0.1363695   1.2729556  )
       190        O      tau( 190) = (   0.5668565   0.7520726   1.3411952  )
       191        O      tau( 191) = (   0.4390184   0.1054952   1.8920128  )
       192        O      tau( 192) = (   0.2801127   0.0556319   1.5537880  )
       193        O      tau( 193) = (   0.9517833   0.2240015   1.8530263  )
       194        O      tau( 194) = (   0.4078786   0.5134087   1.6517908  )
       195        O      tau( 195) = (   0.6735166   0.7941076   1.8547702  )
       196        O      tau( 196) = (   0.7896414   0.2674110   1.3392843  )
       197        O      tau( 197) = (   0.9136500   0.5214282   1.5392122  )
       198        O      tau( 198) = (   0.5881526   0.4350093   1.4460280  )
       199        O      tau( 199) = (   0.7745755   0.5842257   1.3844862  )
       200        O      tau( 200) = (   0.2034896   0.9862494   1.6415920  )
       201        O      tau( 201) = (   0.1233221   0.6813655   1.4530684  )
       202        O      tau( 202) = (   0.7937827   0.3272627   1.4639956  )
       203        O      tau( 203) = (   0.4473563   0.5396589   1.5104804  )
       204        O      tau( 204) = (   0.6542799   0.3403998   1.5182787  )
       205        O      tau( 205) = (   0.8234572   0.7113307   1.3622509  )
       206        O      tau( 206) = (   0.8127487   0.4431771   1.5824090  )
       207        O      tau( 207) = (   0.5134106   0.6764784   1.7758121  )
       208        O      tau( 208) = (   0.1836556   0.7783442   1.3761575  )
       209        O      tau( 209) = (   0.8104766   0.3105590   1.6473803  )
       210        O      tau( 210) = (   0.3044033   0.9850075   1.3843284  )
       211        O      tau( 211) = (   0.1301504   0.8965179   1.7717389  )
       212        O      tau( 212) = (   0.3197141   0.1653364   1.2298596  )
       213        O      tau( 213) = (   0.4699233   0.1934200   1.4196372  )
       214        O      tau( 214) = (   0.2809558   0.8612246   1.3097159  )
       215        O      tau( 215) = (   0.4264163   0.2824703   1.8051299  )
       216        O      tau( 216) = (   0.6599679   0.6539216   1.5790006  )
       217        O      tau( 217) = (   0.7349642   0.9291111   1.6364595  )
       218        O      tau( 218) = (   0.0099961   0.4612132   1.4800917  )
       219        O      tau( 219) = (   0.5892025   0.1978638   1.5290320  )
       220        O      tau( 220) = (   0.0485841   0.8646896   1.2765110  )
       221        O      tau( 221) = (   0.9732948   0.8322736   1.3845405  )
       222        O      tau( 222) = (   0.4005127   0.1467648   1.7001924  )
       223        O      tau( 223) = (   0.8561165   0.3880932   1.3551362  )
       224        O      tau( 224) = (   0.1908703   0.7320545   1.6493092  )
       225        O      tau( 225) = (   0.5316561   0.3624401   1.5720686  )
       226        O      tau( 226) = (   0.6407674   0.0341441   1.3503554  )
       227        O      tau( 227) = (   0.2507360   0.3493753   1.4464087  )
       228        O      tau( 228) = (   0.5138994   0.8709061   1.3834646  )
       229        O      tau( 229) = (   0.9079300   0.5013233   1.4088368  )
       230        O      tau( 230) = (   0.4395504   0.1937154   1.2966161  )
       231        O      tau( 231) = (   0.2308999   0.6103161   1.2990312  )
       232        O      tau( 232) = (   0.3685013   0.9700313   1.5258447  )
       233        O      tau( 233) = (   0.8514985   0.9494698   1.6877232  )
       234        O      tau( 234) = (   0.0187499   0.4824011   1.7364241  )
       235        O      tau( 235) = (   0.2414021   0.3421124   1.5740169  )
       236        O      tau( 236) = (   0.6097970   0.4413714   1.7163163  )
       237        O      tau( 237) = (   0.4788214   0.4352721   1.7472383  )
       238        O      tau( 238) = (   0.1395403   0.9630524   1.5257738  )
       239        O      tau( 239) = (   0.3787358   0.0784353   1.3203646  )
       240        O      tau( 240) = (   0.5839692   0.9685892   1.4551464  )
       241        O      tau( 241) = (   0.9110607   0.6557788   1.2003494  )
       242        O      tau( 242) = (   0.0686474   0.1043740   1.8437037  )
       243        O      tau( 243) = (   0.1460976   0.3999842   1.5060950  )
       244        O      tau( 244) = (   0.4166165   0.3782170   1.6358330  )
       245        O      tau( 245) = (   0.0075933   0.9084354   1.7265037  )
       246        O      tau( 246) = (   0.8482460   0.9888286   1.2074661  )
       247        O      tau( 247) = (   0.6787187   0.3475581   1.3906861  )
       248        O      tau( 248) = (   0.2793975   0.6318760   1.8700688  )
       249        O      tau( 249) = (   0.1753735   0.9662414   1.3957977  )
       250        O      tau( 250) = (   0.0079684   0.6039592   1.4520956  )
       251        O      tau( 251) = (   0.6799702   0.7916690   1.6137563  )
       252        O      tau( 252) = (   0.8228944   0.4963375   1.2716413  )
       253        O      tau( 253) = (   0.1652982   0.5553089   1.6491463  )
       254        O      tau( 254) = (   0.6527640   0.8346788   1.2935381  )
       255        O      tau( 255) = (   0.0358116   0.1810737   1.6422342  )
       256        O      tau( 256) = (   0.5638762   0.0484964   1.7892635  )
       257        O      tau( 257) = (   0.7314789   0.9670683   1.4359075  )
       258        O      tau( 258) = (   0.2559548   0.8899428   1.4535926  )
       259        O      tau( 259) = (   0.7774448   0.5773609   1.5598674  )
       260        O      tau( 260) = (   0.0868638   0.6515873   1.6288983  )
       261        O      tau( 261) = (   0.2614827   0.9212168   1.7891965  )
       262        O      tau( 262) = (   0.1954831   0.1735609   1.8664394  )
       263        O      tau( 263) = (   0.9906684   0.7948073   1.8435173  )
       264        O      tau( 264) = (   0.4575167   0.9955248   1.4051103  )
       265        O      tau( 265) = (   0.7735858   0.2011661   1.2118609  )
       266        O      tau( 266) = (   0.8814090   0.9281431   1.4499689  )
       267        O      tau( 267) = (   0.4072071   0.9256292   1.2771435  )
       268        O      tau( 268) = (   0.8399764   0.8937974   1.5751596  )
       269        O      tau( 269) = (   0.9802476   0.7272430   1.4739436  )
       270        O      tau( 270) = (   0.4029974   0.6353892   1.4077172  )
       271        O      tau( 271) = (   0.5236271   0.0940762   1.6637713  )
       272        O      tau( 272) = (   0.2291142   0.8566340   1.6031926  )
       273        O      tau( 273) = (   0.1369597   0.1529802   1.7410824  )
       274        O      tau( 274) = (   0.8956842   0.4684356   1.7728116  )
       275        O      tau( 275) = (   0.0304714   0.3296381   1.4668483  )
       276        O      tau( 276) = (   0.9261533   0.1126670   1.5937994  )
       277        O      tau( 277) = (   0.3196110   0.7473434   1.6269653  )
       278        O      tau( 278) = (   0.2346612   0.4755155   1.3381933  )
       279        O      tau( 279) = (   0.0309321   0.9618656   1.4299785  )
       280        O      tau( 280) = (   0.1026240   0.4047238   1.3770124  )
       281        O      tau( 281) = (   0.0996948   0.0720356   1.4419196  )
       282        O      tau( 282) = (   0.9796419   0.7336502   1.2951357  )
       283        O      tau( 283) = (   0.4798587   0.2721799   1.6719849  )
       284        O      tau( 284) = (   0.1447462   0.5042309   1.7791641  )
       285        O      tau( 285) = (   0.6584207   0.0850578   1.4744274  )
       286        O      tau( 286) = (   0.8447302   0.2856675   1.7867899  )
       287        O      tau( 287) = (   0.9236456   0.3532967   1.8933803  )
       288        O      tau( 288) = (   0.7131244   0.4260542   1.2089447  )
       289        O      tau( 289) = (   0.1815374   0.0351118   1.8104616  )
       290        O      tau( 290) = (   0.0329975   0.6097415   1.2681351  )
       291        O      tau( 291) = (   0.8998275   0.8951096   1.8045433  )
       292        O      tau( 292) = (   0.3016404   0.4593341   1.2337882  )
       293        O      tau( 293) = (   0.2631331   0.5633327   1.7490475  )
       294        O      tau( 294) = (   0.7023044   0.1539457   1.5910141  )
       295        O      tau( 295) = (   0.5450848   0.1349270   1.3303906  )
       296        O      tau( 296) = (   0.1632620   0.2443342   1.6379519  )
       297        O      tau( 297) = (   0.1916640   0.3894955   1.2601897  )
       298        O      tau( 298) = (   0.0615898   0.0043928   1.2718305  )
       299        O      tau( 299) = (   0.3967139   0.3875856   1.8762703  )
       300        O      tau( 300) = (   0.4846187   0.5410669   1.3666698  )
       301        O      tau( 301) = (   0.8186424   0.0168112   1.5820830  )
       302        O      tau( 302) = (   0.5974300   0.5762403   1.7036424  )
       303        O      tau( 303) = (   0.4323575   0.7667648   1.3386386  )
       304        O      tau( 304) = (   0.7719883   0.9374236   1.8028857  )
       305        O      tau( 305) = (   0.7672182   0.1900179   1.6976508  )
       306        O      tau( 306) = (   0.8994379   0.0650389   1.4672678  )
       307        O      tau( 307) = (   0.4462121   0.7426137   1.4731770  )
       308        O      tau( 308) = (   0.9211726   0.3961581   1.6533343  )
       309        O      tau( 309) = (   0.2420202   0.2200105   1.5251544  )
       310        O      tau( 310) = (   0.8842963   0.6436934   1.4589679  )
       311        O      tau( 311) = (   0.6482991   0.6785877   1.2330670  )
       312        O      tau( 312) = (   0.4832983   0.6325017   1.6039613  )
       313        O      tau( 313) = (   0.7361349   0.0571749   1.8732737  )
       314        O      tau( 314) = (   0.6649925   0.8590630   1.7336776  )
       315        O      tau( 315) = (   0.9130296   0.2721061   1.4159943  )
       316        O      tau( 316) = (   0.6511009   0.5989696   1.3506902  )
       317        O      tau( 317) = (   0.8131240   0.0898692   1.2825970  )
       318        O      tau( 318) = (   0.6524595   0.1336951   1.7108949  )
       319        O      tau( 319) = (   0.6784211   0.5695802   1.4690337  )
       320        O      tau( 320) = (   0.9018920   0.2183548   1.6834522  )
       321        O      tau( 321) = (   0.9678130   0.0358255   1.7940055  )
       322        O      tau( 322) = (   0.8368182   0.5391156   1.6776043  )
       323        O      tau( 323) = (   0.7668768   0.6856661   1.8697035  )
       324        O      tau( 324) = (   0.1531671   0.9301796   1.8945654  )
       325        O      tau( 325) = (   0.2178402   0.7542098   1.5177838  )
       326        O      tau( 326) = (   0.3614324   0.0782581   1.4600024  )
       327        O      tau( 327) = (   0.4053368   0.0766386   1.5793453  )
       328        O      tau( 328) = (   0.3320739   0.8564650   1.8828345  )
       329        O      tau( 329) = (   0.0914304   0.8126101   1.4681485  )
       330        O      tau( 330) = (   0.2416337   0.7445048   1.2588964  )
       331        O      tau( 331) = (   0.8232583   0.9617889   1.3373563  )
       332        O      tau( 332) = (   0.0224173   0.1103921   1.3331986  )
       333        O      tau( 333) = (   0.0827261   0.7743688   1.7158336  )
       334        O      tau( 334) = (   0.3058372   0.3697607   1.3216954  )
       335        O      tau( 335) = (   0.6940744   0.4843818   1.3763524  )
       336        O      tau( 336) = (   0.0505520   0.3569640   1.2588409  )
       337        O      tau( 337) = (   0.6956442   0.5556100   1.2255199  )
       338        O      tau( 338) = (   0.9205918   0.8444316   1.2442634  )
       339        Al     tau( 339) = (   0.9474166   0.9984982   1.4171699  )
       340        Al     tau( 340) = (   0.7317137   0.2651324   1.2660316  )
       341        C      tau( 341) = (   0.5691377   0.4617851   2.7255665  )
       342        C      tau( 342) = (   0.4944784   0.4516561   2.7270503  )
       343        C      tau( 343) = (   0.6140474   0.4021687   2.7209402  )
       344        C      tau( 344) = (   0.4669239   0.3822075   2.7238800  )
       345        C      tau( 345) = (   0.5966869   0.5312330   2.7287369  )
       346        C      tau( 346) = (   0.4495738   0.5112736   2.7316712  )
       347        C      tau( 347) = (   0.5857528   0.3335483   2.7178266  )
       348        C      tau( 348) = (   0.5123336   0.3235869   2.7192963  )
       349        C      tau( 349) = (   0.5512823   0.5898546   2.7333152  )
       350        C      tau( 350) = (   0.4778681   0.5798945   2.7347741  )
       351        H      tau( 351) = (   0.6715984   0.4086951   2.7197143  )
       352        H      tau( 352) = (   0.4097061   0.3731626   2.7249485  )
       353        H      tau( 353) = (   0.6539041   0.5402829   2.7276740  )
       354        H      tau( 354) = (   0.3920120   0.5047463   2.7328866  )
       355        H      tau( 355) = (   0.6210717   0.2878911   2.7142621  )
       356        H      tau( 356) = (   0.4903398   0.2701488   2.7168693  )
       357        H      tau( 357) = (   0.5732767   0.6432877   2.7357365  )
       358        H      tau( 358) = (   0.4425484   0.6255570   2.7383390  )

     number of k points=     1  Gaussian smearing, width (Ry)=  0.0100
                       cart. coord. in units 2pi/alat
        k(    1) = (   0.0000000   0.0000000   0.0000000), wk =   2.0000000

     Dense  grid: 15943719 G-vectors     FFT dimensions: ( 216, 216, 675)

     Smooth grid: 13361281 G-vectors     FFT dimensions: ( 216, 216, 625)

     Estimated max dynamical RAM per process >       4.14 GB

     Estimated total dynamical RAM >     331.13 GB

     Check: negative core charge=   -0.000001

     Initial potential from superposition of free atoms

     starting charge    1871.8703, renormalised to    1872.0000

     negative rho (up, down):  4.201E-02 0.000E+00
     Starting wfcs are 1419 randomized atomic wfcs
     Checking if some PAW data can be deallocated... 

     total cpu time spent up to now is      151.0 secs

     per-process dynamical memory:  1754.1 Mb

     Self-consistent Calculation

     iteration #  1     ecut=    80.00 Ry     beta= 0.10
     Davidson diagonalization with overlap
     ethr =  1.00E-02,  avg # of iterations =  3.0

     negative rho (up, down):  4.408E-02 0.000E+00

     total cpu time spent up to now is      640.9 secs

     total energy              =  -11693.36996810 Ry
     estimated scf accuracy    <     115.61153897 Ry

     iteration #  2     ecut=    80.00 Ry     beta= 0.10
     Davidson diagonalization with overlap
     ethr =  6.18E-03,  avg # of iterations =  1.0

     negative rho (up, down):  4.581E-02 0.000E+00

     total cpu time spent up to now is      927.8 secs

     total energy              =  -11688.11081070 Ry
     estimated scf accuracy    <      84.87727784 Ry

     iteration #  3     ecut=    80.00 Ry     beta= 0.10
     Davidson diagonalization with overlap
     ethr =  4.53E-03,  avg # of iterations =  1.0

     negative rho (up, down):  4.765E-02 0.000E+00

     total cpu time spent up to now is     1214.3 secs

     total energy              =  -11681.50120373 Ry
     estimated scf accuracy    <      59.18988779 Ry

     iteration #  4     ecut=    80.00 Ry     beta= 0.10
     Davidson diagonalization with overlap
     ethr =  3.16E-03,  avg # of iterations =  2.0

     negative rho (up, down):  4.876E-02 0.000E+00

     total cpu time spent up to now is     1535.1 secs

     total energy              =  -11682.82196536 Ry
     estimated scf accuracy    <      60.37596148 Ry

     iteration #  5     ecut=    80.00 Ry     beta= 0.10
     Davidson diagonalization with overlap
     ethr =  3.16E-03,  avg # of iterations =  1.0

     negative rho (up, down):  4.988E-02 0.000E+00

     total cpu time spent up to now is     1821.1 secs

     total energy              =  -11682.19998998 Ry
     estimated scf accuracy    <      39.49934394 Ry

     iteration #  6     ecut=    80.00 Ry     beta= 0.10
     Davidson diagonalization with overlap
     ethr =  2.11E-03,  avg # of iterations =  2.0

     negative rho (up, down):  5.074E-02 0.000E+00

     total cpu time spent up to now is     2141.3 secs

     total energy              =  -11682.42866795 Ry
     estimated scf accuracy    <      26.87287098 Ry

     iteration #  7     ecut=    80.00 Ry     beta= 0.10
     Davidson diagonalization with overlap
     ethr =  1.44E-03,  avg # of iterations =  2.0

     negative rho (up, down):  5.156E-02 0.000E+00

     total cpu time spent up to now is     2462.3 secs

     total energy              =  -11682.17469765 Ry
     estimated scf accuracy    <      34.67909402 Ry

     iteration #  8     ecut=    80.00 Ry     beta= 0.10
     Davidson diagonalization with overlap
     ethr =  1.44E-03,  avg # of iterations =  2.0

     negative rho (up, down):  5.215E-02 0.000E+00

     total cpu time spent up to now is     2782.6 secs

     total energy              =  -11682.32303768 Ry
     estimated scf accuracy    <      19.21794381 Ry

     iteration #  9     ecut=    80.00 Ry     beta= 0.10
     Davidson diagonalization with overlap
     ethr =  1.03E-03,  avg # of iterations =  2.0

     negative rho (up, down):  5.274E-02 0.000E+00

     total cpu time spent up to now is     3103.2 secs

     total energy              =  -11682.16198233 Ry
     estimated scf accuracy    <      18.53955665 Ry

     iteration # 10     ecut=    80.00 Ry     beta= 0.10
     Davidson diagonalization with overlap
     ethr =  9.90E-04,  avg # of iterations =  1.0

     negative rho (up, down):  5.326E-02 0.000E+00

     total cpu time spent up to now is     3389.5 secs

     total energy              =  -11682.15443134 Ry
     estimated scf accuracy    <      11.92512233 Ry

     iteration # 11     ecut=    80.00 Ry     beta= 0.10
     Davidson diagonalization with overlap
     ethr =  6.37E-04,  avg # of iterations =  2.0

     negative rho (up, down):  5.361E-02 0.000E+00

     total cpu time spent up to now is     3711.6 secs

     total energy              =  -11682.03434434 Ry
     estimated scf accuracy    <      23.00557012 Ry

     iteration # 12     ecut=    80.00 Ry     beta= 0.10
     Davidson diagonalization with overlap
     ethr =  6.37E-04,  avg # of iterations =  2.0

     negative rho (up, down):  5.391E-02 0.000E+00

     total cpu time spent up to now is     4031.9 secs

     total energy              =  -11682.31082747 Ry
     estimated scf accuracy    <       5.22917039 Ry

     iteration # 13     ecut=    80.00 Ry     beta= 0.10
     Davidson diagonalization with overlap
     ethr =  2.79E-04,  avg # of iterations = 18.0

     negative rho (up, down):  5.430E-02 0.000E+00

     total cpu time spent up to now is     4495.5 secs

     total energy              =  -11682.22880020 Ry
     estimated scf accuracy    <       6.26608061 Ry

     iteration # 14     ecut=    80.00 Ry     beta= 0.10
     Davidson diagonalization with overlap
     ethr =  2.79E-04,  avg # of iterations =  1.0

     negative rho (up, down):  5.484E-02 0.000E+00

     total cpu time spent up to now is     4782.0 secs

     total energy              =  -11682.09454561 Ry
     estimated scf accuracy    <       4.89346742 Ry

     iteration # 15     ecut=    80.00 Ry     beta= 0.10
     Davidson diagonalization with overlap
     ethr =  2.61E-04,  avg # of iterations =  1.0

     negative rho (up, down):  5.485E-02 0.000E+00

     total cpu time spent up to now is     5068.2 secs

     total energy              =  -11681.93276131 Ry
     estimated scf accuracy    <      17.33215033 Ry

     iteration # 16     ecut=    80.00 Ry     beta= 0.10
     Davidson diagonalization with overlap
     ethr =  2.61E-04,  avg # of iterations =  2.0

     negative rho (up, down):  5.518E-02 0.000E+00

     total cpu time spent up to now is     5388.0 secs

     total energy              =  -11682.15300777 Ry
     estimated scf accuracy    <       3.79235266 Ry

     iteration # 17     ecut=    80.00 Ry     beta= 0.10
     Davidson diagonalization with overlap
     ethr =  2.03E-04,  avg # of iterations =  1.0

     negative rho (up, down):  5.583E-02 0.000E+00

     total cpu time spent up to now is     5673.1 secs

     total energy              =  -11682.07408499 Ry
     estimated scf accuracy    <       3.01126980 Ry

     iteration # 18     ecut=    80.00 Ry     beta= 0.10
     Davidson diagonalization with overlap
     ethr =  1.61E-04,  avg # of iterations =  2.0

     negative rho (up, down):  5.576E-02 0.000E+00

     total cpu time spent up to now is     5993.8 secs

     total energy              =  -11681.94733031 Ry
     estimated scf accuracy    <       9.43660629 Ry

     iteration # 19     ecut=    80.00 Ry     beta= 0.10
     Davidson diagonalization with overlap
     ethr =  1.61E-04,  avg # of iterations =  2.0

     negative rho (up, down):  5.598E-02 0.000E+00

     total cpu time spent up to now is     6315.4 secs

     total energy              =  -11682.12439418 Ry
     estimated scf accuracy    <       2.45296919 Ry

     iteration # 20     ecut=    80.00 Ry     beta= 0.10
     Davidson diagonalization with overlap
     ethr =  1.31E-04,  avg # of iterations =  1.0

     negative rho (up, down):  5.640E-02 0.000E+00

     total cpu time spent up to now is     6601.4 secs

     total energy              =  -11682.08147403 Ry
     estimated scf accuracy    <       2.75594400 Ry

     iteration # 21     ecut=    80.00 Ry     beta= 0.10
     Davidson diagonalization with overlap
     ethr =  1.31E-04,  avg # of iterations =  1.0

     negative rho (up, down):  5.653E-02 0.000E+00

     total cpu time spent up to now is     6886.8 secs

     total energy              =  -11682.01362510 Ry
     estimated scf accuracy    <       7.75062026 Ry

     iteration # 22     ecut=    80.00 Ry     beta= 0.10
     Davidson diagonalization with overlap
     ethr =  1.31E-04,  avg # of iterations =  1.0

     negative rho (up, down):  5.678E-02 0.000E+00

     total cpu time spent up to now is     7173.4 secs

     total energy              =  -11682.03424650 Ry
     estimated scf accuracy    <      11.79431815 Ry

     iteration # 23     ecut=    80.00 Ry     beta= 0.10
     Davidson diagonalization with overlap
     ethr =  1.31E-04,  avg # of iterations =  1.0

     negative rho (up, down):  5.671E-02 0.000E+00

     total cpu time spent up to now is     7459.5 secs

     total energy              =  -11682.05495601 Ry
     estimated scf accuracy    <       4.69733190 Ry

     iteration # 24     ecut=    80.00 Ry     beta= 0.10
     Davidson diagonalization with overlap
     ethr =  1.31E-04,  avg # of iterations =  1.0

     negative rho (up, down):  5.716E-02 0.000E+00

     total cpu time spent up to now is     7745.3 secs

     total energy              =  -11682.06367624 Ry
     estimated scf accuracy    <       4.83046849 Ry

     iteration # 25     ecut=    80.00 Ry     beta= 0.10
     Davidson diagonalization with overlap
     ethr =  1.31E-04,  avg # of iterations =  1.0

     negative rho (up, down):  5.733E-02 0.000E+00

     total cpu time spent up to now is     8032.7 secs

     total energy              =  -11682.08273287 Ry
     estimated scf accuracy    <       2.25519363 Ry

     iteration # 26     ecut=    80.00 Ry     beta= 0.10
     Davidson diagonalization with overlap
     ethr =  1.20E-04,  avg # of iterations =  1.0

     negative rho (up, down):  5.745E-02 0.000E+00

     total cpu time spent up to now is     8318.3 secs

     total energy              =  -11682.07834137 Ry
     estimated scf accuracy    <       1.56238170 Ry

     iteration # 27     ecut=    80.00 Ry     beta= 0.10
     Davidson diagonalization with overlap
     ethr =  8.35E-05,  avg # of iterations =  1.0

     negative rho (up, down):  5.796E-02 0.000E+00

     total cpu time spent up to now is     8604.2 secs

     total energy              =  -11682.06933541 Ry
     estimated scf accuracy    <       2.88755651 Ry

     iteration # 28     ecut=    80.00 Ry     beta= 0.10
     Davidson diagonalization with overlap
     ethr =  8.35E-05,  avg # of iterations =  1.0

     negative rho (up, down):  5.757E-02 0.000E+00

     total cpu time spent up to now is     8889.7 secs

     total energy              =  -11682.00707816 Ry
     estimated scf accuracy    <       5.54613703 Ry

     iteration # 29     ecut=    80.00 Ry     beta= 0.10
     Davidson diagonalization with overlap
     ethr =  8.35E-05,  avg # of iterations =  1.0

     negative rho (up, down):  5.771E-02 0.000E+00

     total cpu time spent up to now is     9176.0 secs

     total energy              =  -11682.08161672 Ry
     estimated scf accuracy    <       4.19508198 Ry

     iteration # 30     ecut=    80.00 Ry     beta= 0.10
     Davidson diagonalization with overlap
     ethr =  8.35E-05,  avg # of iterations =  1.0

     negative rho (up, down):  5.783E-02 0.000E+00

     total cpu time spent up to now is     9461.6 secs

     total energy              =  -11682.10183154 Ry
     estimated scf accuracy    <       0.67416524 Ry

     iteration # 31     ecut=    80.00 Ry     beta= 0.10
     Davidson diagonalization with overlap
     ethr =  3.60E-05,  avg # of iterations =  1.0

     negative rho (up, down):  5.807E-02 0.000E+00

     total cpu time spent up to now is     9748.1 secs

     total energy              =  -11682.09960852 Ry
     estimated scf accuracy    <       0.64366302 Ry

     iteration # 32     ecut=    80.00 Ry     beta= 0.10
     Davidson diagonalization with overlap
     ethr =  3.44E-05,  avg # of iterations =  1.0

     negative rho (up, down):  5.822E-02 0.000E+00

     total cpu time spent up to now is    10033.3 secs

     total energy              =  -11682.09140986 Ry
     estimated scf accuracy    <       1.04083225 Ry

     iteration # 33     ecut=    80.00 Ry     beta= 0.10
     Davidson diagonalization with overlap
     ethr =  3.44E-05,  avg # of iterations =  1.0

     negative rho (up, down):  5.813E-02 0.000E+00

     total cpu time spent up to now is    10319.0 secs

     total energy              =  -11682.09471343 Ry
     estimated scf accuracy    <       0.70781728 Ry

     iteration # 34     ecut=    80.00 Ry     beta= 0.10
     Davidson diagonalization with overlap
     ethr =  3.44E-05,  avg # of iterations =  1.0

     negative rho (up, down):  5.830E-02 0.000E+00

     total cpu time spent up to now is    10604.1 secs

     total energy              =  -11682.09462188 Ry
     estimated scf accuracy    <       1.14208779 Ry

     iteration # 35     ecut=    80.00 Ry     beta= 0.10
     Davidson diagonalization with overlap
     ethr =  3.44E-05,  avg # of iterations =  1.0

     negative rho (up, down):  5.842E-02 0.000E+00

     total cpu time spent up to now is    10889.9 secs

     total energy              =  -11682.08765572 Ry
     estimated scf accuracy    <       2.47140246 Ry

     iteration # 36     ecut=    80.00 Ry     beta= 0.10
     Davidson diagonalization with overlap
     ethr =  3.44E-05,  avg # of iterations =  1.0

     negative rho (up, down):  5.871E-02 0.000E+00

     total cpu time spent up to now is    11175.9 secs

     total energy              =  -11682.09793374 Ry
     estimated scf accuracy    <       0.58153238 Ry

     iteration # 37     ecut=    80.00 Ry     beta= 0.10
     Davidson diagonalization with overlap
     ethr =  3.11E-05,  avg # of iterations =  1.0

     negative rho (up, down):  5.934E-02 0.000E+00

     total cpu time spent up to now is    11461.6 secs

     total energy              =  -11682.08735240 Ry
     estimated scf accuracy    <       1.77046977 Ry

     iteration # 38     ecut=    80.00 Ry     beta= 0.10
     Davidson diagonalization with overlap
     ethr =  3.11E-05,  avg # of iterations =  1.0

     negative rho (up, down):  5.890E-02 0.000E+00

     total cpu time spent up to now is    11746.8 secs

     total energy              =  -11682.09153506 Ry
     estimated scf accuracy    <       0.51702023 Ry

     iteration # 39     ecut=    80.00 Ry     beta= 0.10
     Davidson diagonalization with overlap
     ethr =  2.76E-05,  avg # of iterations =  1.0

     negative rho (up, down):  5.881E-02 0.000E+00

     total cpu time spent up to now is    12032.3 secs

     total energy              =  -11682.08274937 Ry
     estimated scf accuracy    <       2.07372794 Ry

     iteration # 40     ecut=    80.00 Ry     beta= 0.10
     Davidson diagonalization with overlap
     ethr =  2.76E-05,  avg # of iterations =  1.0

     negative rho (up, down):  5.900E-02 0.000E+00

     total cpu time spent up to now is    12318.7 secs

     total energy              =  -11682.09368949 Ry
     estimated scf accuracy    <       1.35689972 Ry

     iteration # 41     ecut=    80.00 Ry     beta= 0.10
     Davidson diagonalization with overlap
     ethr =  2.76E-05,  avg # of iterations =  1.0

     negative rho (up, down):  5.932E-02 0.000E+00

     total cpu time spent up to now is    12604.0 secs

     total energy              =  -11682.10201841 Ry
     estimated scf accuracy    <       0.46516292 Ry

     iteration # 42     ecut=    80.00 Ry     beta= 0.10
     Davidson diagonalization with overlap
     ethr =  2.48E-05,  avg # of iterations =  1.0

     negative rho (up, down):  5.929E-02 0.000E+00

     total cpu time spent up to now is    12890.3 secs

     total energy              =  -11682.10248802 Ry
     estimated scf accuracy    <       0.17099022 Ry

     iteration # 43     ecut=    80.00 Ry     beta= 0.10
     Davidson diagonalization with overlap
     ethr =  9.13E-06,  avg # of iterations = 19.0

     negative rho (up, down):  5.923E-02 0.000E+00

     total cpu time spent up to now is    13314.1 secs

     total energy              =  -11682.09766456 Ry
     estimated scf accuracy    <       0.90960987 Ry

     iteration # 44     ecut=    80.00 Ry     beta= 0.10
     Davidson diagonalization with overlap
     ethr =  9.13E-06,  avg # of iterations =  1.0

     negative rho (up, down):  5.934E-02 0.000E+00

     total cpu time spent up to now is    13599.7 secs

     total energy              =  -11682.10125425 Ry
     estimated scf accuracy    <       0.65085320 Ry

     iteration # 45     ecut=    80.00 Ry     beta= 0.10
     Davidson diagonalization with overlap
     ethr =  9.13E-06,  avg # of iterations =  1.0

     negative rho (up, down):  5.928E-02 0.000E+00

     total cpu time spent up to now is    13884.5 secs

     total energy              =  -11682.10353490 Ry
     estimated scf accuracy    <       0.24046772 Ry

     iteration # 46     ecut=    80.00 Ry     beta= 0.10
     Davidson diagonalization with overlap
     ethr =  9.13E-06,  avg # of iterations =  1.0

     negative rho (up, down):  5.942E-02 0.000E+00

     total cpu time spent up to now is    14170.7 secs

     total energy              =  -11682.10512691 Ry
     estimated scf accuracy    <       0.12275620 Ry

     iteration # 47     ecut=    80.00 Ry     beta= 0.10
     Davidson diagonalization with overlap
     ethr =  6.56E-06,  avg # of iterations =  1.0

     negative rho (up, down):  5.954E-02 0.000E+00

     total cpu time spent up to now is    14456.4 secs

     total energy              =  -11682.10369442 Ry
     estimated scf accuracy    <       0.20508912 Ry

     iteration # 48     ecut=    80.00 Ry     beta= 0.10
     Davidson diagonalization with overlap
     ethr =  6.56E-06,  avg # of iterations =  1.0

     negative rho (up, down):  5.949E-02 0.000E+00

     total cpu time spent up to now is    14744.4 secs

     total energy              =  -11682.10162867 Ry
     estimated scf accuracy    <       0.48061180 Ry

     iteration # 49     ecut=    80.00 Ry     beta= 0.10
     Davidson diagonalization with overlap
     ethr =  6.56E-06,  avg # of iterations =  1.0

     negative rho (up, down):  5.949E-02 0.000E+00

     total cpu time spent up to now is    15030.0 secs

     total energy              =  -11682.10409696 Ry
     estimated scf accuracy    <       0.20891605 Ry

     iteration # 50     ecut=    80.00 Ry     beta= 0.10
     Davidson diagonalization with overlap
     ethr =  6.56E-06,  avg # of iterations =  1.0

     negative rho (up, down):  5.950E-02 0.000E+00

     total cpu time spent up to now is    15316.4 secs

     total energy              =  -11682.10440446 Ry
     estimated scf accuracy    <       0.22713143 Ry

     iteration # 51     ecut=    80.00 Ry     beta= 0.10
     Davidson diagonalization with overlap
     ethr =  6.56E-06,  avg # of iterations =  1.0

     negative rho (up, down):  5.952E-02 0.000E+00

     total cpu time spent up to now is    15602.9 secs

     total energy              =  -11682.10456182 Ry
     estimated scf accuracy    <       0.21650582 Ry

     iteration # 52     ecut=    80.00 Ry     beta= 0.10
     Davidson diagonalization with overlap
     ethr =  6.56E-06,  avg # of iterations =  1.0

     negative rho (up, down):  5.955E-02 0.000E+00

     total cpu time spent up to now is    15888.7 secs

     total energy              =  -11682.10536334 Ry
     estimated scf accuracy    <       0.12888348 Ry

     iteration # 53     ecut=    80.00 Ry     beta= 0.10
     Davidson diagonalization with overlap
     ethr =  6.56E-06,  avg # of iterations =  1.0

     negative rho (up, down):  5.957E-02 0.000E+00

     total cpu time spent up to now is    16174.7 secs

     total energy              =  -11682.10558302 Ry
     estimated scf accuracy    <       0.15805698 Ry

     iteration # 54     ecut=    80.00 Ry     beta= 0.10
     Davidson diagonalization with overlap
     ethr =  6.56E-06,  avg # of iterations =  1.0

     negative rho (up, down):  5.963E-02 0.000E+00

     total cpu time spent up to now is    16465.6 secs

     total energy              =  -11682.10697097 Ry
     estimated scf accuracy    <       0.01824735 Ry

     iteration # 55     ecut=    80.00 Ry     beta= 0.10
     Davidson diagonalization with overlap
     ethr =  9.75E-07,  avg # of iterations =  1.0

     negative rho (up, down):  5.961E-02 0.000E+00

     total cpu time spent up to now is    16751.8 secs

     total energy              =  -11682.10643867 Ry
     estimated scf accuracy    <       0.02835515 Ry

     iteration # 56     ecut=    80.00 Ry     beta= 0.10
     Davidson diagonalization with overlap
     ethr =  9.75E-07,  avg # of iterations =  1.0

     negative rho (up, down):  5.965E-02 0.000E+00

     total cpu time spent up to now is    17037.2 secs

     total energy              =  -11682.10641996 Ry
     estimated scf accuracy    <       0.09115700 Ry

     iteration # 57     ecut=    80.00 Ry     beta= 0.10
     Davidson diagonalization with overlap
     ethr =  9.75E-07,  avg # of iterations =  1.0

     negative rho (up, down):  5.967E-02 0.000E+00

     total cpu time spent up to now is    17322.2 secs

     total energy              =  -11682.10685642 Ry
     estimated scf accuracy    <       0.02843242 Ry

     iteration # 58     ecut=    80.00 Ry     beta= 0.10
     Davidson diagonalization with overlap
     ethr =  9.75E-07,  avg # of iterations =  1.0

     negative rho (up, down):  5.971E-02 0.000E+00

     total cpu time spent up to now is    17607.9 secs

     total energy              =  -11682.10691072 Ry
     estimated scf accuracy    <       0.04284101 Ry

     iteration # 59     ecut=    80.00 Ry     beta= 0.10
     Davidson diagonalization with overlap
     ethr =  9.75E-07,  avg # of iterations =  1.0

     negative rho (up, down):  5.973E-02 0.000E+00

     total cpu time spent up to now is    17893.5 secs

     total energy              =  -11682.10712476 Ry
     estimated scf accuracy    <       0.01907780 Ry

     iteration # 60     ecut=    80.00 Ry     beta= 0.10
     Davidson diagonalization with overlap
     ethr =  9.75E-07,  avg # of iterations =  1.0

     negative rho (up, down):  5.973E-02 0.000E+00

     total cpu time spent up to now is    18179.4 secs

     total energy              =  -11682.10663288 Ry
     estimated scf accuracy    <       0.10802351 Ry

     iteration # 61     ecut=    80.00 Ry     beta= 0.10
     Davidson diagonalization with overlap
     ethr =  9.75E-07,  avg # of iterations =  1.0

     negative rho (up, down):  5.980E-02 0.000E+00

     total cpu time spent up to now is    18465.5 secs

     total energy              =  -11682.10716396 Ry
     estimated scf accuracy    <       0.05783497 Ry

     iteration # 62     ecut=    80.00 Ry     beta= 0.10
     Davidson diagonalization with overlap
     ethr =  9.75E-07,  avg # of iterations =  1.0

     negative rho (up, down):  5.986E-02 0.000E+00

     total cpu time spent up to now is    18750.8 secs

     total energy              =  -11682.10699609 Ry
     estimated scf accuracy    <       0.09270908 Ry

     iteration # 63     ecut=    80.00 Ry     beta= 0.10
     Davidson diagonalization with overlap
     ethr =  9.75E-07,  avg # of iterations =  2.0

     negative rho (up, down):  5.976E-02 0.000E+00

     total cpu time spent up to now is    19070.8 secs

     total energy              =  -11682.10643762 Ry
     estimated scf accuracy    <       0.09750535 Ry

     iteration # 64     ecut=    80.00 Ry     beta= 0.10
     Davidson diagonalization with overlap
     ethr =  9.75E-07,  avg # of iterations =  1.0

     negative rho (up, down):  5.982E-02 0.000E+00

     total cpu time spent up to now is    19356.8 secs

     total energy              =  -11682.10750479 Ry
     estimated scf accuracy    <       0.02915191 Ry

     iteration # 65     ecut=    80.00 Ry     beta= 0.10
     Davidson diagonalization with overlap
     ethr =  9.75E-07,  avg # of iterations =  1.0

     negative rho (up, down):  5.983E-02 0.000E+00

     total cpu time spent up to now is    19643.1 secs

     total energy              =  -11682.10751042 Ry
     estimated scf accuracy    <       0.01481551 Ry

     iteration # 66     ecut=    80.00 Ry     beta= 0.10
     Davidson diagonalization with overlap
     ethr =  7.91E-07,  avg # of iterations =  1.0

     negative rho (up, down):  5.983E-02 0.000E+00

     total cpu time spent up to now is    19929.1 secs

     total energy              =  -11682.10730329 Ry
     estimated scf accuracy    <       0.05310903 Ry

     iteration # 67     ecut=    80.00 Ry     beta= 0.10
     Davidson diagonalization with overlap
     ethr =  7.91E-07,  avg # of iterations =  1.0

     negative rho (up, down):  5.986E-02 0.000E+00

     total cpu time spent up to now is    20214.6 secs

     total energy              =  -11682.10766946 Ry
     estimated scf accuracy    <       0.01436918 Ry

     iteration # 68     ecut=    80.00 Ry     beta= 0.10
     Davidson diagonalization with overlap
     ethr =  7.68E-07,  avg # of iterations =  1.0

     negative rho (up, down):  5.987E-02 0.000E+00

     total cpu time spent up to now is    20500.8 secs

     total energy              =  -11682.10770191 Ry
     estimated scf accuracy    <       0.01491864 Ry

     iteration # 69     ecut=    80.00 Ry     beta= 0.10
     Davidson diagonalization with overlap
     ethr =  7.68E-07,  avg # of iterations =  1.0

     negative rho (up, down):  5.990E-02 0.000E+00

     total cpu time spent up to now is    20787.1 secs

     total energy              =  -11682.10785244 Ry
     estimated scf accuracy    <       0.01013148 Ry

     iteration # 70     ecut=    80.00 Ry     beta= 0.10
     Davidson diagonalization with overlap
     ethr =  5.41E-07,  avg # of iterations =  1.0

     negative rho (up, down):  5.990E-02 0.000E+00

     total cpu time spent up to now is    21073.4 secs

     total energy              =  -11682.10771002 Ry
     estimated scf accuracy    <       0.02010385 Ry

     iteration # 71     ecut=    80.00 Ry     beta= 0.10
     Davidson diagonalization with overlap
     ethr =  5.41E-07,  avg # of iterations =  1.0

     negative rho (up, down):  5.995E-02 0.000E+00

     total cpu time spent up to now is    21358.9 secs

     total energy              =  -11682.10790424 Ry
     estimated scf accuracy    <       0.02261608 Ry

     iteration # 72     ecut=    80.00 Ry     beta= 0.10
     Davidson diagonalization with overlap
     ethr =  5.41E-07,  avg # of iterations =  1.0

     negative rho (up, down):  6.000E-02 0.000E+00

     total cpu time spent up to now is    21645.2 secs

     total energy              =  -11682.10797798 Ry
     estimated scf accuracy    <       0.02374196 Ry

     iteration # 73     ecut=    80.00 Ry     beta= 0.10
     Davidson diagonalization with overlap
     ethr =  5.41E-07,  avg # of iterations =  1.0

     negative rho (up, down):  5.990E-02 0.000E+00

     total cpu time spent up to now is    21930.8 secs

     total energy              =  -11682.10757693 Ry
     estimated scf accuracy    <       0.02247655 Ry

     iteration # 74     ecut=    80.00 Ry     beta= 0.10
     Davidson diagonalization with overlap
     ethr =  5.41E-07,  avg # of iterations =  1.0

     negative rho (up, down):  5.997E-02 0.000E+00

     total cpu time spent up to now is    22216.3 secs

     total energy              =  -11682.10784476 Ry
     estimated scf accuracy    <       0.03662729 Ry

     iteration # 75     ecut=    80.00 Ry     beta= 0.10
     Davidson diagonalization with overlap
     ethr =  5.41E-07,  avg # of iterations =  1.0

     negative rho (up, down):  6.000E-02 0.000E+00

     total cpu time spent up to now is    22503.0 secs

     total energy              =  -11682.10802680 Ry
     estimated scf accuracy    <       0.00898102 Ry

     iteration # 76     ecut=    80.00 Ry     beta= 0.10
     Davidson diagonalization with overlap
     ethr =  4.80E-07,  avg # of iterations =  1.0

     negative rho (up, down):  5.998E-02 0.000E+00

     total cpu time spent up to now is    22788.3 secs

     total energy              =  -11682.10780082 Ry
     estimated scf accuracy    <       0.03913887 Ry

     iteration # 77     ecut=    80.00 Ry     beta= 0.10
     Davidson diagonalization with overlap
     ethr =  4.80E-07,  avg # of iterations =  1.0

     negative rho (up, down):  6.001E-02 0.000E+00

     total cpu time spent up to now is    23074.2 secs

     total energy              =  -11682.10802887 Ry
     estimated scf accuracy    <       0.01553095 Ry

     iteration # 78     ecut=    80.00 Ry     beta= 0.10
     Davidson diagonalization with overlap
     ethr =  4.80E-07,  avg # of iterations =  1.0

     negative rho (up, down):  6.000E-02 0.000E+00

     total cpu time spent up to now is    23360.4 secs

     total energy              =  -11682.10803345 Ry
     estimated scf accuracy    <       0.01048393 Ry

     iteration # 79     ecut=    80.00 Ry     beta= 0.10
     Davidson diagonalization with overlap
     ethr =  4.80E-07,  avg # of iterations =  1.0

     negative rho (up, down):  6.003E-02 0.000E+00

     total cpu time spent up to now is    23646.1 secs

     total energy              =  -11682.10815478 Ry
     estimated scf accuracy    <       0.00705918 Ry

     iteration # 80     ecut=    80.00 Ry     beta= 0.10
     Davidson diagonalization with overlap
     ethr =  3.77E-07,  avg # of iterations =  1.0

     negative rho (up, down):  6.002E-02 0.000E+00

     total cpu time spent up to now is    23931.9 secs

     total energy              =  -11682.10812965 Ry
     estimated scf accuracy    <       0.00723221 Ry

     iteration # 81     ecut=    80.00 Ry     beta= 0.10
     Davidson diagonalization with overlap
     ethr =  3.77E-07,  avg # of iterations =  1.0

     negative rho (up, down):  6.005E-02 0.000E+00

     total cpu time spent up to now is    24229.1 secs

     total energy              =  -11682.10821459 Ry
     estimated scf accuracy    <       0.00727917 Ry

     iteration # 82     ecut=    80.00 Ry     beta= 0.10
     Davidson diagonalization with overlap
     ethr =  3.77E-07,  avg # of iterations =  1.0

     negative rho (up, down):  6.008E-02 0.000E+00

     total cpu time spent up to now is    24515.0 secs

     total energy              =  -11682.10826616 Ry
     estimated scf accuracy    <       0.00483625 Ry

     iteration # 83     ecut=    80.00 Ry     beta= 0.10
     Davidson diagonalization with overlap
     ethr =  2.58E-07,  avg # of iterations =  1.0

     negative rho (up, down):  6.004E-02 0.000E+00

     total cpu time spent up to now is    24801.6 secs

     total energy              =  -11682.10812547 Ry
     estimated scf accuracy    <       0.00406293 Ry

     iteration # 84     ecut=    80.00 Ry     beta= 0.10
     Davidson diagonalization with overlap
     ethr =  2.17E-07,  avg # of iterations =  1.0

     negative rho (up, down):  6.008E-02 0.000E+00

     total cpu time spent up to now is    25088.4 secs

     total energy              =  -11682.10807624 Ry
     estimated scf accuracy    <       0.03692548 Ry

     iteration # 85     ecut=    80.00 Ry     beta= 0.10
     Davidson diagonalization with overlap
     ethr =  2.17E-07,  avg # of iterations =  1.0

     negative rho (up, down):  6.010E-02 0.000E+00

     total cpu time spent up to now is    25374.7 secs

     total energy              =  -11682.10827959 Ry
     estimated scf accuracy    <       0.00485025 Ry

     iteration # 86     ecut=    80.00 Ry     beta= 0.10
     Davidson diagonalization with overlap
     ethr =  2.17E-07,  avg # of iterations =  1.0

     negative rho (up, down):  6.010E-02 0.000E+00

     total cpu time spent up to now is    25659.6 secs

     total energy              =  -11682.10823319 Ry
     estimated scf accuracy    <       0.01111247 Ry

     iteration # 87     ecut=    80.00 Ry     beta= 0.10
     Davidson diagonalization with overlap
     ethr =  2.17E-07,  avg # of iterations =  1.0

     negative rho (up, down):  6.013E-02 0.000E+00

     total cpu time spent up to now is    25945.9 secs

     total energy              =  -11682.10827737 Ry
     estimated scf accuracy    <       0.00909603 Ry

     iteration # 88     ecut=    80.00 Ry     beta= 0.10
     Davidson diagonalization with overlap
     ethr =  2.17E-07,  avg # of iterations =  1.0

     negative rho (up, down):  6.010E-02 0.000E+00

     total cpu time spent up to now is    26231.4 secs

     total energy              =  -11682.10825691 Ry
     estimated scf accuracy    <       0.00551028 Ry

     iteration # 89     ecut=    80.00 Ry     beta= 0.10
     Davidson diagonalization with overlap
     ethr =  2.17E-07,  avg # of iterations =  1.0

     negative rho (up, down):  6.012E-02 0.000E+00

     total cpu time spent up to now is    26517.5 secs

     total energy              =  -11682.10831336 Ry
     estimated scf accuracy    <       0.00554888 Ry

     iteration # 90     ecut=    80.00 Ry     beta= 0.10
     Davidson diagonalization with overlap
     ethr =  2.17E-07,  avg # of iterations =  1.0

     negative rho (up, down):  6.012E-02 0.000E+00

     total cpu time spent up to now is    26803.4 secs

     total energy              =  -11682.10830185 Ry
     estimated scf accuracy    <       0.00471770 Ry

     iteration # 91     ecut=    80.00 Ry     beta= 0.10
     Davidson diagonalization with overlap
     ethr =  2.17E-07,  avg # of iterations =  1.0

     negative rho (up, down):  6.013E-02 0.000E+00

     total cpu time spent up to now is    27089.8 secs

     total energy              =  -11682.10833968 Ry
     estimated scf accuracy    <       0.00579934 Ry

     iteration # 92     ecut=    80.00 Ry     beta= 0.10
     Davidson diagonalization with overlap
     ethr =  2.17E-07,  avg # of iterations =  1.0

     negative rho (up, down):  6.015E-02 0.000E+00

     total cpu time spent up to now is    27375.0 secs

     total energy              =  -11682.10837898 Ry
     estimated scf accuracy    <       0.00170899 Ry

     iteration # 93     ecut=    80.00 Ry     beta= 0.10
     Davidson diagonalization with overlap
     ethr =  9.13E-08,  avg # of iterations =  1.0

     negative rho (up, down):  6.015E-02 0.000E+00

     total cpu time spent up to now is    27661.4 secs

     total energy              =  -11682.10836937 Ry
     estimated scf accuracy    <       0.00104342 Ry

     iteration # 94     ecut=    80.00 Ry     beta= 0.10
     Davidson diagonalization with overlap
     ethr =  5.57E-08,  avg # of iterations =  1.0

     negative rho (up, down):  6.015E-02 0.000E+00

     total cpu time spent up to now is    27947.5 secs

     total energy              =  -11682.10833236 Ry
     estimated scf accuracy    <       0.01094723 Ry

     iteration # 95     ecut=    80.00 Ry     beta= 0.10
     Davidson diagonalization with overlap
     ethr =  5.57E-08,  avg # of iterations =  1.0

     negative rho (up, down):  6.017E-02 0.000E+00

     total cpu time spent up to now is    28234.3 secs

     total energy              =  -11682.10840112 Ry
     estimated scf accuracy    <       0.00149501 Ry

     iteration # 96     ecut=    80.00 Ry     beta= 0.10
     Davidson diagonalization with overlap
     ethr =  5.57E-08,  avg # of iterations =  1.0

     negative rho (up, down):  6.018E-02 0.000E+00

     total cpu time spent up to now is    28520.4 secs

     total energy              =  -11682.10840412 Ry
     estimated scf accuracy    <       0.00221012 Ry

     iteration # 97     ecut=    80.00 Ry     beta= 0.10
     Davidson diagonalization with overlap
     ethr =  5.57E-08,  avg # of iterations =  1.0

     negative rho (up, down):  6.019E-02 0.000E+00

     total cpu time spent up to now is    28807.0 secs

     total energy              =  -11682.10840940 Ry
     estimated scf accuracy    <       0.00285300 Ry

     iteration # 98     ecut=    80.00 Ry     beta= 0.10
     Davidson diagonalization with overlap
     ethr =  5.57E-08,  avg # of iterations =  1.0

     negative rho (up, down):  6.018E-02 0.000E+00

     total cpu time spent up to now is    29093.0 secs

     total energy              =  -11682.10839679 Ry
     estimated scf accuracy    <       0.00184324 Ry

     iteration # 99     ecut=    80.00 Ry     beta= 0.10
     Davidson diagonalization with overlap
     ethr =  5.57E-08,  avg # of iterations =  1.0

     negative rho (up, down):  6.019E-02 0.000E+00

     total cpu time spent up to now is    29378.6 secs

     total energy              =  -11682.10839845 Ry
     estimated scf accuracy    <       0.00423092 Ry

     iteration #100     ecut=    80.00 Ry     beta= 0.10
     Davidson diagonalization with overlap
     ethr =  5.57E-08,  avg # of iterations =  1.0

     negative rho (up, down):  6.019E-02 0.000E+00

     total cpu time spent up to now is    29676.4 secs

     total energy              =  -11682.10840587 Ry
     estimated scf accuracy    <       0.00272707 Ry

     iteration #101     ecut=    80.00 Ry     beta= 0.10
     Davidson diagonalization with overlap
     ethr =  5.57E-08,  avg # of iterations =  1.0

     negative rho (up, down):  6.020E-02 0.000E+00

     total cpu time spent up to now is    29962.2 secs

     total energy              =  -11682.10840957 Ry
     estimated scf accuracy    <       0.00527154 Ry

     iteration #102     ecut=    80.00 Ry     beta= 0.10
     Davidson diagonalization with overlap
     ethr =  5.57E-08,  avg # of iterations =  1.0

     negative rho (up, down):  6.020E-02 0.000E+00

     total cpu time spent up to now is    30248.3 secs

     total energy              =  -11682.10843612 Ry
     estimated scf accuracy    <       0.00130956 Ry

     iteration #103     ecut=    80.00 Ry     beta= 0.10
     Davidson diagonalization with overlap
     ethr =  5.57E-08,  avg # of iterations =  1.0

     negative rho (up, down):  6.021E-02 0.000E+00

     total cpu time spent up to now is    30534.3 secs

     total energy              =  -11682.10845087 Ry
     estimated scf accuracy    <       0.00056608 Ry

     iteration #104     ecut=    80.00 Ry     beta= 0.10
     Davidson diagonalization with overlap
     ethr =  3.02E-08,  avg # of iterations =  1.0

     negative rho (up, down):  6.021E-02 0.000E+00

     total cpu time spent up to now is    30822.2 secs

     total energy              =  -11682.10842907 Ry
     estimated scf accuracy    <       0.00369325 Ry

     iteration #105     ecut=    80.00 Ry     beta= 0.10
     Davidson diagonalization with overlap
     ethr =  3.02E-08,  avg # of iterations =  1.0

     negative rho (up, down):  6.022E-02 0.000E+00

     total cpu time spent up to now is    31108.3 secs

     total energy              =  -11682.10845483 Ry
     estimated scf accuracy    <       0.00062460 Ry

     iteration #106     ecut=    80.00 Ry     beta= 0.10
     Davidson diagonalization with overlap
     ethr =  3.02E-08,  avg # of iterations =  1.0

     negative rho (up, down):  6.022E-02 0.000E+00

     total cpu time spent up to now is    31395.0 secs

     total energy              =  -11682.10846125 Ry
     estimated scf accuracy    <       0.00053707 Ry

     iteration #107     ecut=    80.00 Ry     beta= 0.10
     Davidson diagonalization with overlap
     ethr =  2.87E-08,  avg # of iterations =  1.0

     negative rho (up, down):  6.023E-02 0.000E+00

     total cpu time spent up to now is    31680.8 secs

     total energy              =  -11682.10846378 Ry
     estimated scf accuracy    <       0.00079687 Ry

     iteration #108     ecut=    80.00 Ry     beta= 0.10
     Davidson diagonalization with overlap
     ethr =  2.87E-08,  avg # of iterations =  1.0

     negative rho (up, down):  6.024E-02 0.000E+00

     total cpu time spent up to now is    31967.2 secs

     total energy              =  -11682.10846568 Ry
     estimated scf accuracy    <       0.00055242 Ry

     iteration #109     ecut=    80.00 Ry     beta= 0.10
     Davidson diagonalization with overlap
     ethr =  2.87E-08,  avg # of iterations =  1.0

     negative rho (up, down):  6.024E-02 0.000E+00

     total cpu time spent up to now is    32252.9 secs

     total energy              =  -11682.10846069 Ry
     estimated scf accuracy    <       0.00173131 Ry

     iteration #110     ecut=    80.00 Ry     beta= 0.10
     Davidson diagonalization with overlap
     ethr =  2.87E-08,  avg # of iterations =  1.0

     negative rho (up, down):  6.025E-02 0.000E+00

     total cpu time spent up to now is    32539.0 secs

     total energy              =  -11682.10846736 Ry
     estimated scf accuracy    <       0.00121856 Ry

     iteration #111     ecut=    80.00 Ry     beta= 0.10
     Davidson diagonalization with overlap
     ethr =  2.87E-08,  avg # of iterations =  1.0

     negative rho (up, down):  6.025E-02 0.000E+00

     total cpu time spent up to now is    32825.1 secs

     total energy              =  -11682.10845653 Ry
     estimated scf accuracy    <       0.00376629 Ry

     iteration #112     ecut=    80.00 Ry     beta= 0.10
     Davidson diagonalization with overlap
     ethr =  2.87E-08,  avg # of iterations =  1.0

     negative rho (up, down):  6.024E-02 0.000E+00

     total cpu time spent up to now is    33111.9 secs

     total energy              =  -11682.10846972 Ry
     estimated scf accuracy    <       0.00092494 Ry

     iteration #113     ecut=    80.00 Ry     beta= 0.10
     Davidson diagonalization with overlap
     ethr =  2.87E-08,  avg # of iterations =  1.0

     negative rho (up, down):  6.026E-02 0.000E+00

     total cpu time spent up to now is    33398.8 secs

     total energy              =  -11682.10848771 Ry
     estimated scf accuracy    <       0.00047330 Ry

     iteration #114     ecut=    80.00 Ry     beta= 0.10
     Davidson diagonalization with overlap
     ethr =  2.53E-08,  avg # of iterations =  1.0

     negative rho (up, down):  6.025E-02 0.000E+00

     total cpu time spent up to now is    33686.4 secs

     total energy              =  -11682.10846914 Ry
     estimated scf accuracy    <       0.00193446 Ry

     iteration #115     ecut=    80.00 Ry     beta= 0.10
     Davidson diagonalization with overlap
     ethr =  2.53E-08,  avg # of iterations =  1.0

     negative rho (up, down):  6.026E-02 0.000E+00

     total cpu time spent up to now is    33973.1 secs

     total energy              =  -11682.10848178 Ry
     estimated scf accuracy    <       0.00059749 Ry

     iteration #116     ecut=    80.00 Ry     beta= 0.10
     Davidson diagonalization with overlap
     ethr =  2.53E-08,  avg # of iterations =  1.0

     negative rho (up, down):  6.026E-02 0.000E+00

     total cpu time spent up to now is    34259.1 secs

     total energy              =  -11682.10848778 Ry
     estimated scf accuracy    <       0.00033741 Ry

     iteration #117     ecut=    80.00 Ry     beta= 0.10
     Davidson diagonalization with overlap
     ethr =  1.80E-08,  avg # of iterations =  1.0

     negative rho (up, down):  6.026E-02 0.000E+00

     total cpu time spent up to now is    34545.1 secs

     total energy              =  -11682.10848897 Ry
     estimated scf accuracy    <       0.00039294 Ry

     iteration #118     ecut=    80.00 Ry     beta= 0.10
     Davidson diagonalization with overlap
     ethr =  1.80E-08,  avg # of iterations =  1.0

     negative rho (up, down):  6.027E-02 0.000E+00

     total cpu time spent up to now is    34831.6 secs

     total energy              =  -11682.10849402 Ry
     estimated scf accuracy    <       0.00019103 Ry

     iteration #119     ecut=    80.00 Ry     beta= 0.10
     Davidson diagonalization with overlap
     ethr =  1.02E-08,  avg # of iterations =  1.0

     negative rho (up, down):  6.028E-02 0.000E+00

     total cpu time spent up to now is    35117.7 secs

     total energy              =  -11682.10849239 Ry
     estimated scf accuracy    <       0.00051257 Ry

     iteration #120     ecut=    80.00 Ry     beta= 0.10
     Davidson diagonalization with overlap
     ethr =  1.02E-08,  avg # of iterations =  1.0

     negative rho (up, down):  6.028E-02 0.000E+00

     total cpu time spent up to now is    35403.0 secs

     total energy              =  -11682.10849777 Ry
     estimated scf accuracy    <       0.00042663 Ry

     iteration #121     ecut=    80.00 Ry     beta= 0.10
     Davidson diagonalization with overlap
     ethr =  1.02E-08,  avg # of iterations =  1.0

     negative rho (up, down):  6.028E-02 0.000E+00

     total cpu time spent up to now is    35688.3 secs

     total energy              =  -11682.10849218 Ry
     estimated scf accuracy    <       0.00118979 Ry

     iteration #122     ecut=    80.00 Ry     beta= 0.10
     Davidson diagonalization with overlap
     ethr =  1.02E-08,  avg # of iterations =  1.0

     negative rho (up, down):  6.028E-02 0.000E+00

     total cpu time spent up to now is    35973.6 secs

     total energy              =  -11682.10849280 Ry
     estimated scf accuracy    <       0.00048056 Ry

     iteration #123     ecut=    80.00 Ry     beta= 0.10
     Davidson diagonalization with overlap
     ethr =  1.02E-08,  avg # of iterations =  1.0

     negative rho (up, down):  6.030E-02 0.000E+00

     total cpu time spent up to now is    36259.2 secs

     total energy              =  -11682.10850448 Ry
     estimated scf accuracy    <       0.00037595 Ry

     iteration #124     ecut=    80.00 Ry     beta= 0.10
     Davidson diagonalization with overlap
     ethr =  1.02E-08,  avg # of iterations =  1.0

     negative rho (up, down):  6.029E-02 0.000E+00

     total cpu time spent up to now is    36545.7 secs

     total energy              =  -11682.10849563 Ry
     estimated scf accuracy    <       0.00075245 Ry

     iteration #125     ecut=    80.00 Ry     beta= 0.10
     Davidson diagonalization with overlap
     ethr =  1.02E-08,  avg # of iterations =  1.0

     negative rho (up, down):  6.029E-02 0.000E+00

     total cpu time spent up to now is    36832.2 secs

     total energy              =  -11682.10849689 Ry
     estimated scf accuracy    <       0.00070471 Ry

     iteration #126     ecut=    80.00 Ry     beta= 0.10
     Davidson diagonalization with overlap
     ethr =  1.02E-08,  avg # of iterations =  1.0

     negative rho (up, down):  6.029E-02 0.000E+00

     total cpu time spent up to now is    37117.9 secs

     total energy              =  -11682.10850209 Ry
     estimated scf accuracy    <       0.00041149 Ry

     iteration #127     ecut=    80.00 Ry     beta= 0.10
     Davidson diagonalization with overlap
     ethr =  1.02E-08,  avg # of iterations =  1.0

     negative rho (up, down):  6.029E-02 0.000E+00

     total cpu time spent up to now is    37404.8 secs

     total energy              =  -11682.10850274 Ry
     estimated scf accuracy    <       0.00033716 Ry

     iteration #128     ecut=    80.00 Ry     beta= 0.10
     Davidson diagonalization with overlap
     ethr =  1.02E-08,  avg # of iterations =  1.0

     negative rho (up, down):  6.030E-02 0.000E+00

     total cpu time spent up to now is    37690.6 secs

     total energy              =  -11682.10850711 Ry
     estimated scf accuracy    <       0.00012723 Ry

     iteration #129     ecut=    80.00 Ry     beta= 0.10
     Davidson diagonalization with overlap
     ethr =  6.80E-09,  avg # of iterations =  1.0

     negative rho (up, down):  6.030E-02 0.000E+00

     total cpu time spent up to now is    37976.5 secs

     total energy              =  -11682.10850672 Ry
     estimated scf accuracy    <       0.00017482 Ry

     iteration #130     ecut=    80.00 Ry     beta= 0.10
     Davidson diagonalization with overlap
     ethr =  6.80E-09,  avg # of iterations =  1.0

     negative rho (up, down):  6.031E-02 0.000E+00

     total cpu time spent up to now is    38263.4 secs

     total energy              =  -11682.10850941 Ry
     estimated scf accuracy    <       0.00016596 Ry

     iteration #131     ecut=    80.00 Ry     beta= 0.10
     Davidson diagonalization with overlap
     ethr =  6.80E-09,  avg # of iterations =  1.0

     negative rho (up, down):  6.031E-02 0.000E+00

     total cpu time spent up to now is    38550.3 secs

     total energy              =  -11682.10850816 Ry
     estimated scf accuracy    <       0.00027151 Ry

     iteration #132     ecut=    80.00 Ry     beta= 0.10
     Davidson diagonalization with overlap
     ethr =  6.80E-09,  avg # of iterations =  1.0

     negative rho (up, down):  6.030E-02 0.000E+00

     total cpu time spent up to now is    38836.7 secs

     total energy              =  -11682.10850774 Ry
     estimated scf accuracy    <       0.00019307 Ry

     iteration #133     ecut=    80.00 Ry     beta= 0.10
     Davidson diagonalization with overlap
     ethr =  6.80E-09,  avg # of iterations =  1.0

     negative rho (up, down):  6.032E-02 0.000E+00

     total cpu time spent up to now is    39122.9 secs

     total energy              =  -11682.10851205 Ry
     estimated scf accuracy    <       0.00020282 Ry

     iteration #134     ecut=    80.00 Ry     beta= 0.10
     Davidson diagonalization with overlap
     ethr =  6.80E-09,  avg # of iterations =  1.0

     negative rho (up, down):  6.032E-02 0.000E+00

     total cpu time spent up to now is    39408.5 secs

     total energy              =  -11682.10851115 Ry
     estimated scf accuracy    <       0.00017314 Ry

     iteration #135     ecut=    80.00 Ry     beta= 0.10
     Davidson diagonalization with overlap
     ethr =  6.80E-09,  avg # of iterations =  1.0

     negative rho (up, down):  6.031E-02 0.000E+00

     total cpu time spent up to now is    39695.6 secs

     total energy              =  -11682.10850770 Ry
     estimated scf accuracy    <       0.00062239 Ry

     iteration #136     ecut=    80.00 Ry     beta= 0.10
     Davidson diagonalization with overlap
     ethr =  6.80E-09,  avg # of iterations =  1.0

     negative rho (up, down):  6.032E-02 0.000E+00

     total cpu time spent up to now is    39981.5 secs

     total energy              =  -11682.10851072 Ry
     estimated scf accuracy    <       0.00032795 Ry

     iteration #137     ecut=    80.00 Ry     beta= 0.10
     Davidson diagonalization with overlap
     ethr =  6.80E-09,  avg # of iterations =  1.0

     negative rho (up, down):  6.032E-02 0.000E+00

     total cpu time spent up to now is    40267.3 secs

     total energy              =  -11682.10851132 Ry
     estimated scf accuracy    <       0.00017940 Ry

     iteration #138     ecut=    80.00 Ry     beta= 0.10
     Davidson diagonalization with overlap
     ethr =  6.80E-09,  avg # of iterations =  1.0

     negative rho (up, down):  6.032E-02 0.000E+00

     total cpu time spent up to now is    40553.4 secs

     total energy              =  -11682.10851370 Ry
     estimated scf accuracy    <       0.00011204 Ry

     iteration #139     ecut=    80.00 Ry     beta= 0.10
     Davidson diagonalization with overlap
     ethr =  5.99E-09,  avg # of iterations =  1.0

     negative rho (up, down):  6.032E-02 0.000E+00

     total cpu time spent up to now is    40839.6 secs

     total energy              =  -11682.10851357 Ry
     estimated scf accuracy    <       0.00010561 Ry

     iteration #140     ecut=    80.00 Ry     beta= 0.10
     Davidson diagonalization with overlap
     ethr =  5.64E-09,  avg # of iterations =  1.0

     negative rho (up, down):  6.032E-02 0.000E+00

     total cpu time spent up to now is    41127.4 secs

     total energy              =  -11682.10851505 Ry
     estimated scf accuracy    <       0.00008627 Ry

     iteration #141     ecut=    80.00 Ry     beta= 0.10
     Davidson diagonalization with overlap
     ethr =  4.61E-09,  avg # of iterations =  1.0

     negative rho (up, down):  6.032E-02 0.000E+00

     total cpu time spent up to now is    41413.3 secs

     total energy              =  -11682.10851474 Ry
     estimated scf accuracy    <       0.00008834 Ry

     iteration #142     ecut=    80.00 Ry     beta= 0.10
     Davidson diagonalization with overlap
     ethr =  4.61E-09,  avg # of iterations =  1.0

     negative rho (up, down):  6.032E-02 0.000E+00

     total cpu time spent up to now is    41699.7 secs

     total energy              =  -11682.10851487 Ry
     estimated scf accuracy    <       0.00007114 Ry

     iteration #143     ecut=    80.00 Ry     beta= 0.10
     Davidson diagonalization with overlap
     ethr =  3.80E-09,  avg # of iterations =  1.0

     negative rho (up, down):  6.033E-02 0.000E+00

     total cpu time spent up to now is    41985.8 secs

     total energy              =  -11682.10851629 Ry
     estimated scf accuracy    <       0.00006775 Ry

     iteration #144     ecut=    80.00 Ry     beta= 0.10
     Davidson diagonalization with overlap
     ethr =  3.62E-09,  avg # of iterations =  1.0

     negative rho (up, down):  6.033E-02 0.000E+00

     total cpu time spent up to now is    42272.4 secs

     total energy              =  -11682.10851688 Ry
     estimated scf accuracy    <       0.00004093 Ry

     iteration #145     ecut=    80.00 Ry     beta= 0.10
     Davidson diagonalization with overlap
     ethr =  2.19E-09,  avg # of iterations =  1.0

     negative rho (up, down):  6.033E-02 0.000E+00

     total cpu time spent up to now is    42559.4 secs

     total energy              =  -11682.10851579 Ry
     estimated scf accuracy    <       0.00017228 Ry

     iteration #146     ecut=    80.00 Ry     beta= 0.10
     Davidson diagonalization with overlap
     ethr =  2.19E-09,  avg # of iterations =  1.0

     negative rho (up, down):  6.033E-02 0.000E+00

     total cpu time spent up to now is    42845.7 secs

     total energy              =  -11682.10851583 Ry
     estimated scf accuracy    <       0.00015316 Ry

     iteration #147     ecut=    80.00 Ry     beta= 0.10
     Davidson diagonalization with overlap
     ethr =  2.19E-09,  avg # of iterations =  1.0

     negative rho (up, down):  6.033E-02 0.000E+00

     total cpu time spent up to now is    43132.5 secs

     total energy              =  -11682.10851625 Ry
     estimated scf accuracy    <       0.00009948 Ry

     iteration #148     ecut=    80.00 Ry     beta= 0.10
     Davidson diagonalization with overlap
     ethr =  2.19E-09,  avg # of iterations =  1.0

     negative rho (up, down):  6.034E-02 0.000E+00

     total cpu time spent up to now is    43422.0 secs

     total energy              =  -11682.10851707 Ry
     estimated scf accuracy    <       0.00009609 Ry

     iteration #149     ecut=    80.00 Ry     beta= 0.10
     Davidson diagonalization with overlap
     ethr =  2.19E-09,  avg # of iterations =  1.0

     negative rho (up, down):  6.034E-02 0.000E+00

     total cpu time spent up to now is    43708.0 secs

     total energy              =  -11682.10851717 Ry
     estimated scf accuracy    <       0.00006791 Ry

     iteration #150     ecut=    80.00 Ry     beta= 0.10
     Davidson diagonalization with overlap
     ethr =  2.19E-09,  avg # of iterations =  1.0

     negative rho (up, down):  6.034E-02 0.000E+00

     total cpu time spent up to now is    43994.0 secs

     total energy              =  -11682.10851767 Ry
     estimated scf accuracy    <       0.00007496 Ry

     iteration #151     ecut=    80.00 Ry     beta= 0.10
     Davidson diagonalization with overlap
     ethr =  2.19E-09,  avg # of iterations =  1.0

     negative rho (up, down):  6.034E-02 0.000E+00

     total cpu time spent up to now is    44280.4 secs

     total energy              =  -11682.10851775 Ry
     estimated scf accuracy    <       0.00004870 Ry

     iteration #152     ecut=    80.00 Ry     beta= 0.10
     Davidson diagonalization with overlap
     ethr =  2.19E-09,  avg # of iterations =  1.0

     negative rho (up, down):  6.034E-02 0.000E+00

     total cpu time spent up to now is    44567.3 secs

     total energy              =  -11682.10851794 Ry
     estimated scf accuracy    <       0.00003930 Ry

     iteration #153     ecut=    80.00 Ry     beta= 0.10
     Davidson diagonalization with overlap
     ethr =  2.10E-09,  avg # of iterations =  1.0

     negative rho (up, down):  6.034E-02 0.000E+00

     total cpu time spent up to now is    44853.5 secs

     total energy              =  -11682.10851842 Ry
     estimated scf accuracy    <       0.00002914 Ry

     iteration #154     ecut=    80.00 Ry     beta= 0.10
     Davidson diagonalization with overlap
     ethr =  1.56E-09,  avg # of iterations =  1.0

     negative rho (up, down):  6.034E-02 0.000E+00

     total cpu time spent up to now is    45139.9 secs

     total energy              =  -11682.10851883 Ry
     estimated scf accuracy    <       0.00001338 Ry

     iteration #155     ecut=    80.00 Ry     beta= 0.10
     Davidson diagonalization with overlap
     ethr =  7.15E-10,  avg # of iterations =  1.0

     negative rho (up, down):  6.034E-02 0.000E+00

     total cpu time spent up to now is    45426.4 secs

     total energy              =  -11682.10851891 Ry
     estimated scf accuracy    <       0.00002205 Ry

     iteration #156     ecut=    80.00 Ry     beta= 0.10
     Davidson diagonalization with overlap
     ethr =  7.15E-10,  avg # of iterations =  1.0

     negative rho (up, down):  6.034E-02 0.000E+00

     total cpu time spent up to now is    45713.3 secs

     total energy              =  -11682.10851862 Ry
     estimated scf accuracy    <       0.00004759 Ry

     iteration #157     ecut=    80.00 Ry     beta= 0.10
     Davidson diagonalization with overlap
     ethr =  7.15E-10,  avg # of iterations =  1.0

     negative rho (up, down):  6.034E-02 0.000E+00

     total cpu time spent up to now is    45999.9 secs

     total energy              =  -11682.10851890 Ry
     estimated scf accuracy    <       0.00004078 Ry

     iteration #158     ecut=    80.00 Ry     beta= 0.10
     Davidson diagonalization with overlap
     ethr =  7.15E-10,  avg # of iterations =  1.0

     negative rho (up, down):  6.035E-02 0.000E+00

     total cpu time spent up to now is    46287.5 secs

     total energy              =  -11682.10851909 Ry
     estimated scf accuracy    <       0.00004486 Ry

     iteration #159     ecut=    80.00 Ry     beta= 0.10
     Davidson diagonalization with overlap
     ethr =  7.15E-10,  avg # of iterations =  1.0

     negative rho (up, down):  6.035E-02 0.000E+00

     total cpu time spent up to now is    46573.9 secs

     total energy              =  -11682.10851917 Ry
     estimated scf accuracy    <       0.00003353 Ry

     iteration #160     ecut=    80.00 Ry     beta= 0.10
     Davidson diagonalization with overlap
     ethr =  7.15E-10,  avg # of iterations =  1.0

     negative rho (up, down):  6.035E-02 0.000E+00

     total cpu time spent up to now is    46860.0 secs

     total energy              =  -11682.10851919 Ry
     estimated scf accuracy    <       0.00005099 Ry

     iteration #161     ecut=    80.00 Ry     beta= 0.10
     Davidson diagonalization with overlap
     ethr =  7.15E-10,  avg # of iterations =  1.0

     negative rho (up, down):  6.035E-02 0.000E+00

     total cpu time spent up to now is    47146.1 secs

     total energy              =  -11682.10851926 Ry
     estimated scf accuracy    <       0.00003400 Ry

     iteration #162     ecut=    80.00 Ry     beta= 0.10
     Davidson diagonalization with overlap
     ethr =  7.15E-10,  avg # of iterations =  1.0

     negative rho (up, down):  6.035E-02 0.000E+00

     total cpu time spent up to now is    47433.1 secs

     total energy              =  -11682.10851938 Ry
     estimated scf accuracy    <       0.00003964 Ry

     iteration #163     ecut=    80.00 Ry     beta= 0.10
     Davidson diagonalization with overlap
     ethr =  7.15E-10,  avg # of iterations =  1.0

     negative rho (up, down):  6.035E-02 0.000E+00

     total cpu time spent up to now is    47720.3 secs

     total energy              =  -11682.10851957 Ry
     estimated scf accuracy    <       0.00002259 Ry

     iteration #164     ecut=    80.00 Ry     beta= 0.10
     Davidson diagonalization with overlap
     ethr =  7.15E-10,  avg # of iterations =  1.0

     negative rho (up, down):  6.035E-02 0.000E+00

     total cpu time spent up to now is    48006.3 secs

     total energy              =  -11682.10851983 Ry
     estimated scf accuracy    <       0.00000916 Ry

     iteration #165     ecut=    80.00 Ry     beta= 0.10
     Davidson diagonalization with overlap
     ethr =  4.89E-10,  avg # of iterations =  1.0

     negative rho (up, down):  6.035E-02 0.000E+00

     total cpu time spent up to now is    48292.4 secs

     total energy              =  -11682.10851996 Ry
     estimated scf accuracy    <       0.00000876 Ry

     iteration #166     ecut=    80.00 Ry     beta= 0.10
     Davidson diagonalization with overlap
     ethr =  4.68E-10,  avg # of iterations =  1.0

     negative rho (up, down):  6.035E-02 0.000E+00

     total cpu time spent up to now is    48579.2 secs

     total energy              =  -11682.10851990 Ry
     estimated scf accuracy    <       0.00001116 Ry

     iteration #167     ecut=    80.00 Ry     beta= 0.10
     Davidson diagonalization with overlap
     ethr =  4.68E-10,  avg # of iterations =  1.0

     negative rho (up, down):  6.035E-02 0.000E+00

     total cpu time spent up to now is    48865.5 secs

     total energy              =  -11682.10852006 Ry
     estimated scf accuracy    <       0.00001411 Ry

     iteration #168     ecut=    80.00 Ry     beta= 0.10
     Davidson diagonalization with overlap
     ethr =  4.68E-10,  avg # of iterations =  1.0

     negative rho (up, down):  6.035E-02 0.000E+00

     total cpu time spent up to now is    49152.7 secs

     total energy              =  -11682.10852011 Ry
     estimated scf accuracy    <       0.00001406 Ry

     iteration #169     ecut=    80.00 Ry     beta= 0.10
     Davidson diagonalization with overlap
     ethr =  4.68E-10,  avg # of iterations =  1.0

     negative rho (up, down):  6.035E-02 0.000E+00

     total cpu time spent up to now is    49438.6 secs

     total energy              =  -11682.10852019 Ry
     estimated scf accuracy    <       0.00001253 Ry

     iteration #170     ecut=    80.00 Ry     beta= 0.10
     Davidson diagonalization with overlap
     ethr =  4.68E-10,  avg # of iterations =  1.0

     negative rho (up, down):  6.035E-02 0.000E+00

     total cpu time spent up to now is    49724.9 secs

     total energy              =  -11682.10852008 Ry
     estimated scf accuracy    <       0.00002370 Ry

     iteration #171     ecut=    80.00 Ry     beta= 0.10
     Davidson diagonalization with overlap
     ethr =  4.68E-10,  avg # of iterations =  1.0

     negative rho (up, down):  6.035E-02 0.000E+00

     total cpu time spent up to now is    50011.0 secs

     total energy              =  -11682.10852017 Ry
     estimated scf accuracy    <       0.00002084 Ry

     iteration #172     ecut=    80.00 Ry     beta= 0.10
     Davidson diagonalization with overlap
     ethr =  4.68E-10,  avg # of iterations =  1.0

     negative rho (up, down):  6.035E-02 0.000E+00

     total cpu time spent up to now is    50296.7 secs

     total energy              =  -11682.10852024 Ry
     estimated scf accuracy    <       0.00003118 Ry

     iteration #173     ecut=    80.00 Ry     beta= 0.10
     Davidson diagonalization with overlap
     ethr =  4.68E-10,  avg # of iterations =  1.0

     negative rho (up, down):  6.035E-02 0.000E+00

     total cpu time spent up to now is    50582.5 secs

     total energy              =  -11682.10852018 Ry
     estimated scf accuracy    <       0.00001899 Ry

     iteration #174     ecut=    80.00 Ry     beta= 0.10
     Davidson diagonalization with overlap
     ethr =  4.68E-10,  avg # of iterations =  1.0

     negative rho (up, down):  6.035E-02 0.000E+00

     total cpu time spent up to now is    50869.2 secs

     total energy              =  -11682.10852038 Ry
     estimated scf accuracy    <       0.00000938 Ry

     iteration #175     ecut=    80.00 Ry     beta= 0.10
     Davidson diagonalization with overlap
     ethr =  4.68E-10,  avg # of iterations =  1.0

     negative rho (up, down):  6.035E-02 0.000E+00

     total cpu time spent up to now is    51156.0 secs

     total energy              =  -11682.10852049 Ry
     estimated scf accuracy    <       0.00000608 Ry

     iteration #176     ecut=    80.00 Ry     beta= 0.10
     Davidson diagonalization with overlap
     ethr =  3.25E-10,  avg # of iterations =  1.0

     negative rho (up, down):  6.035E-02 0.000E+00

     total cpu time spent up to now is    51442.5 secs

     total energy              =  -11682.10852047 Ry
     estimated scf accuracy    <       0.00000552 Ry

     iteration #177     ecut=    80.00 Ry     beta= 0.10
     Davidson diagonalization with overlap
     ethr =  2.95E-10,  avg # of iterations =  1.0

     negative rho (up, down):  6.036E-02 0.000E+00

     total cpu time spent up to now is    51728.6 secs

     total energy              =  -11682.10852056 Ry
     estimated scf accuracy    <       0.00000598 Ry

     iteration #178     ecut=    80.00 Ry     beta= 0.10
     Davidson diagonalization with overlap
     ethr =  2.95E-10,  avg # of iterations =  1.0

     negative rho (up, down):  6.036E-02 0.000E+00

     total cpu time spent up to now is    52014.9 secs

     total energy              =  -11682.10852058 Ry
     estimated scf accuracy    <       0.00000485 Ry

     iteration #179     ecut=    80.00 Ry     beta= 0.10
     Davidson diagonalization with overlap
     ethr =  2.59E-10,  avg # of iterations =  1.0

     negative rho (up, down):  6.036E-02 0.000E+00

     total cpu time spent up to now is    52300.3 secs

     total energy              =  -11682.10852065 Ry
     estimated scf accuracy    <       0.00000456 Ry

     iteration #180     ecut=    80.00 Ry     beta= 0.10
     Davidson diagonalization with overlap
     ethr =  2.43E-10,  avg # of iterations =  1.0

     negative rho (up, down):  6.036E-02 0.000E+00

     total cpu time spent up to now is    52586.9 secs

     total energy              =  -11682.10852060 Ry
     estimated scf accuracy    <       0.00000795 Ry

     iteration #181     ecut=    80.00 Ry     beta= 0.10
     Davidson diagonalization with overlap
     ethr =  2.43E-10,  avg # of iterations =  1.0

     negative rho (up, down):  6.036E-02 0.000E+00

     total cpu time spent up to now is    52872.8 secs

     total energy              =  -11682.10852067 Ry
     estimated scf accuracy    <       0.00000975 Ry

     iteration #182     ecut=    80.00 Ry     beta= 0.10
     Davidson diagonalization with overlap
     ethr =  2.43E-10,  avg # of iterations =  1.0

     negative rho (up, down):  6.036E-02 0.000E+00

     total cpu time spent up to now is    53158.7 secs

     total energy              =  -11682.10852071 Ry
     estimated scf accuracy    <       0.00001560 Ry

     iteration #183     ecut=    80.00 Ry     beta= 0.10
     Davidson diagonalization with overlap
     ethr =  2.43E-10,  avg # of iterations =  1.0

     negative rho (up, down):  6.036E-02 0.000E+00

     total cpu time spent up to now is    53444.8 secs

     total energy              =  -11682.10852062 Ry
     estimated scf accuracy    <       0.00000874 Ry

     iteration #184     ecut=    80.00 Ry     beta= 0.10
     Davidson diagonalization with overlap
     ethr =  2.43E-10,  avg # of iterations =  1.0

     negative rho (up, down):  6.036E-02 0.000E+00

     total cpu time spent up to now is    53731.0 secs

     total energy              =  -11682.10852069 Ry
     estimated scf accuracy    <       0.00000909 Ry

     iteration #185     ecut=    80.00 Ry     beta= 0.10
     Davidson diagonalization with overlap
     ethr =  2.43E-10,  avg # of iterations =  1.0

     negative rho (up, down):  6.036E-02 0.000E+00

     total cpu time spent up to now is    54017.6 secs

     total energy              =  -11682.10852076 Ry
     estimated scf accuracy    <       0.00000615 Ry

     iteration #186     ecut=    80.00 Ry     beta= 0.10
     Davidson diagonalization with overlap
     ethr =  2.43E-10,  avg # of iterations =  1.0

     negative rho (up, down):  6.036E-02 0.000E+00

     total cpu time spent up to now is    54304.1 secs

     total energy              =  -11682.10852076 Ry
     estimated scf accuracy    <       0.00000421 Ry

     iteration #187     ecut=    80.00 Ry     beta= 0.10
     Davidson diagonalization with overlap
     ethr =  2.25E-10,  avg # of iterations =  1.0

     negative rho (up, down):  6.036E-02 0.000E+00

     total cpu time spent up to now is    54590.3 secs

     total energy              =  -11682.10852081 Ry
     estimated scf accuracy    <       0.00000505 Ry

     iteration #188     ecut=    80.00 Ry     beta= 0.10
     Davidson diagonalization with overlap
     ethr =  2.25E-10,  avg # of iterations =  1.0

     negative rho (up, down):  6.036E-02 0.000E+00

     total cpu time spent up to now is    54876.9 secs

     total energy              =  -11682.10852082 Ry
     estimated scf accuracy    <       0.00000298 Ry

     iteration #189     ecut=    80.00 Ry     beta= 0.10
     Davidson diagonalization with overlap
     ethr =  1.59E-10,  avg # of iterations =  1.0

     negative rho (up, down):  6.036E-02 0.000E+00

     total cpu time spent up to now is    55163.8 secs

     total energy              =  -11682.10852087 Ry
     estimated scf accuracy    <       0.00000233 Ry

     iteration #190     ecut=    80.00 Ry     beta= 0.10
     Davidson diagonalization with overlap
     ethr =  1.24E-10,  avg # of iterations =  1.0

     negative rho (up, down):  6.036E-02 0.000E+00

     total cpu time spent up to now is    55449.7 secs

     total energy              =  -11682.10852085 Ry
     estimated scf accuracy    <       0.00000272 Ry

     iteration #191     ecut=    80.00 Ry     beta= 0.10
     Davidson diagonalization with overlap
     ethr =  1.24E-10,  avg # of iterations =  1.0

     negative rho (up, down):  6.036E-02 0.000E+00

     total cpu time spent up to now is    55735.6 secs

     total energy              =  -11682.10852090 Ry
     estimated scf accuracy    <       0.00000367 Ry

     iteration #192     ecut=    80.00 Ry     beta= 0.10
     Davidson diagonalization with overlap
     ethr =  1.24E-10,  avg # of iterations =  1.0

     negative rho (up, down):  6.036E-02 0.000E+00

     total cpu time spent up to now is    56022.2 secs

     total energy              =  -11682.10852092 Ry
     estimated scf accuracy    <       0.00000463 Ry

     iteration #193     ecut=    80.00 Ry     beta= 0.10
     Davidson diagonalization with overlap
     ethr =  1.24E-10,  avg # of iterations =  1.0

     negative rho (up, down):  6.036E-02 0.000E+00

     total cpu time spent up to now is    56308.5 secs

     total energy              =  -11682.10852088 Ry
     estimated scf accuracy    <       0.00000269 Ry

     iteration #194     ecut=    80.00 Ry     beta= 0.10
     Davidson diagonalization with overlap
     ethr =  1.24E-10,  avg # of iterations =  1.0

     negative rho (up, down):  6.036E-02 0.000E+00

     total cpu time spent up to now is    56596.0 secs

     total energy              =  -11682.10852087 Ry
     estimated scf accuracy    <       0.00000642 Ry

     iteration #195     ecut=    80.00 Ry     beta= 0.10
     Davidson diagonalization with overlap
     ethr =  1.24E-10,  avg # of iterations =  1.0

     negative rho (up, down):  6.036E-02 0.000E+00

     total cpu time spent up to now is    56882.9 secs

     total energy              =  -11682.10852092 Ry
     estimated scf accuracy    <       0.00000511 Ry

     iteration #196     ecut=    80.00 Ry     beta= 0.10
     Davidson diagonalization with overlap
     ethr =  1.24E-10,  avg # of iterations =  1.0

     negative rho (up, down):  6.036E-02 0.000E+00

     total cpu time spent up to now is    57168.7 secs

     total energy              =  -11682.10852093 Ry
     estimated scf accuracy    <       0.00000281 Ry

     iteration #197     ecut=    80.00 Ry     beta= 0.10
     Davidson diagonalization with overlap
     ethr =  1.24E-10,  avg # of iterations =  1.0

     negative rho (up, down):  6.036E-02 0.000E+00

     total cpu time spent up to now is    57455.0 secs

     total energy              =  -11682.10852094 Ry
     estimated scf accuracy    <       0.00000500 Ry

     iteration #198     ecut=    80.00 Ry     beta= 0.10
     Davidson diagonalization with overlap
     ethr =  1.24E-10,  avg # of iterations =  1.0

     negative rho (up, down):  6.036E-02 0.000E+00

     total cpu time spent up to now is    57740.7 secs

     total energy              =  -11682.10852095 Ry
     estimated scf accuracy    <       0.00000231 Ry

     iteration #199     ecut=    80.00 Ry     beta= 0.10
     Davidson diagonalization with overlap
     ethr =  1.23E-10,  avg # of iterations =  1.0

     negative rho (up, down):  6.036E-02 0.000E+00

     total cpu time spent up to now is    58027.6 secs

     total energy              =  -11682.10852097 Ry
     estimated scf accuracy    <       0.00000186 Ry

     iteration #200     ecut=    80.00 Ry     beta= 0.10
     Davidson diagonalization with overlap
     ethr =  9.93E-11,  avg # of iterations =  1.0

     negative rho (up, down):  6.036E-02 0.000E+00

     total cpu time spent up to now is    58313.6 secs

     total energy              =  -11682.10852097 Ry
     estimated scf accuracy    <       0.00000134 Ry

     iteration #201     ecut=    80.00 Ry     beta= 0.10
     Davidson diagonalization with overlap
     ethr =  7.16E-11,  avg # of iterations =  1.0

     negative rho (up, down):  6.036E-02 0.000E+00

     total cpu time spent up to now is    58601.3 secs

     total energy              =  -11682.10852099 Ry
     estimated scf accuracy    <       0.00000155 Ry

     iteration #202     ecut=    80.00 Ry     beta= 0.10
     Davidson diagonalization with overlap
     ethr =  7.16E-11,  avg # of iterations =  1.0

     negative rho (up, down):  6.036E-02 0.000E+00

     total cpu time spent up to now is    58887.9 secs

     total energy              =  -11682.10852100 Ry
     estimated scf accuracy    <       0.00000126 Ry

     iteration #203     ecut=    80.00 Ry     beta= 0.10
     Davidson diagonalization with overlap
     ethr =  6.72E-11,  avg # of iterations =  1.0

     negative rho (up, down):  6.036E-02 0.000E+00

     total cpu time spent up to now is    59174.0 secs

     total energy              =  -11682.10852100 Ry
     estimated scf accuracy    <       0.00000077 Ry

     iteration #204     ecut=    80.00 Ry     beta= 0.10
     Davidson diagonalization with overlap
     ethr =  4.12E-11,  avg # of iterations =  1.0

     negative rho (up, down):  6.036E-02 0.000E+00

     total cpu time spent up to now is    59460.3 secs

     total energy              =  -11682.10852099 Ry
     estimated scf accuracy    <       0.00000277 Ry

     iteration #205     ecut=    80.00 Ry     beta= 0.10
     Davidson diagonalization with overlap
     ethr =  4.12E-11,  avg # of iterations =  1.0

     negative rho (up, down):  6.036E-02 0.000E+00

     total cpu time spent up to now is    59746.5 secs

     total energy              =  -11682.10852100 Ry
     estimated scf accuracy    <       0.00000267 Ry

     iteration #206     ecut=    80.00 Ry     beta= 0.10
     Davidson diagonalization with overlap
     ethr =  4.12E-11,  avg # of iterations =  1.0

     negative rho (up, down):  6.036E-02 0.000E+00

     total cpu time spent up to now is    60033.4 secs

     total energy              =  -11682.10852101 Ry
     estimated scf accuracy    <       0.00000130 Ry

     iteration #207     ecut=    80.00 Ry     beta= 0.10
     Davidson diagonalization with overlap
     ethr =  4.12E-11,  avg # of iterations =  1.0

     negative rho (up, down):  6.036E-02 0.000E+00

     total cpu time spent up to now is    60320.6 secs

     total energy              =  -11682.10852101 Ry
     estimated scf accuracy    <       0.00000306 Ry

     iteration #208     ecut=    80.00 Ry     beta= 0.10
     Davidson diagonalization with overlap
     ethr =  4.12E-11,  avg # of iterations =  1.0

     negative rho (up, down):  6.036E-02 0.000E+00

     total cpu time spent up to now is    60606.7 secs

     total energy              =  -11682.10852101 Ry
     estimated scf accuracy    <       0.00000135 Ry

     iteration #209     ecut=    80.00 Ry     beta= 0.10
     Davidson diagonalization with overlap
     ethr =  4.12E-11,  avg # of iterations =  1.0

     negative rho (up, down):  6.036E-02 0.000E+00

     total cpu time spent up to now is    60892.2 secs

     total energy              =  -11682.10852102 Ry
     estimated scf accuracy    <       0.00000172 Ry

     iteration #210     ecut=    80.00 Ry     beta= 0.10
     Davidson diagonalization with overlap
     ethr =  4.12E-11,  avg # of iterations =  1.0

     negative rho (up, down):  6.036E-02 0.000E+00

     total cpu time spent up to now is    61177.9 secs

     total energy              =  -11682.10852102 Ry
     estimated scf accuracy    <       0.00000098 Ry

     iteration #211     ecut=    80.00 Ry     beta= 0.10
     Davidson diagonalization with overlap
     ethr =  4.12E-11,  avg # of iterations =  1.0

     negative rho (up, down):  6.036E-02 0.000E+00

     total cpu time spent up to now is    61464.4 secs

     total energy              =  -11682.10852103 Ry
     estimated scf accuracy    <       0.00000127 Ry

     iteration #212     ecut=    80.00 Ry     beta= 0.10
     Davidson diagonalization with overlap
     ethr =  4.12E-11,  avg # of iterations =  1.0

     negative rho (up, down):  6.036E-02 0.000E+00

     total cpu time spent up to now is    61750.3 secs

     total energy              =  -11682.10852104 Ry
     estimated scf accuracy    <       0.00000066 Ry

     iteration #213     ecut=    80.00 Ry     beta= 0.10
     Davidson diagonalization with overlap
     ethr =  3.55E-11,  avg # of iterations =  1.0

     negative rho (up, down):  6.037E-02 0.000E+00

     total cpu time spent up to now is    62036.0 secs

     total energy              =  -11682.10852104 Ry
     estimated scf accuracy    <       0.00000029 Ry

     iteration #214     ecut=    80.00 Ry     beta= 0.10
     Davidson diagonalization with overlap
     ethr =  1.54E-11,  avg # of iterations =  1.0

     negative rho (up, down):  6.037E-02 0.000E+00

     total cpu time spent up to now is    62322.8 secs

     total energy              =  -11682.10852104 Ry
     estimated scf accuracy    <       0.00000085 Ry

     iteration #215     ecut=    80.00 Ry     beta= 0.10
     Davidson diagonalization with overlap
     ethr =  1.54E-11,  avg # of iterations =  1.0

     negative rho (up, down):  6.037E-02 0.000E+00

     total cpu time spent up to now is    62608.9 secs

     total energy              =  -11682.10852104 Ry
     estimated scf accuracy    <       0.00000093 Ry

     iteration #216     ecut=    80.00 Ry     beta= 0.10
     Davidson diagonalization with overlap
     ethr =  1.54E-11,  avg # of iterations =  1.0

     negative rho (up, down):  6.037E-02 0.000E+00

     total cpu time spent up to now is    62895.2 secs

     total energy              =  -11682.10852105 Ry
     estimated scf accuracy    <       0.00000043 Ry

     iteration #217     ecut=    80.00 Ry     beta= 0.10
     Davidson diagonalization with overlap
     ethr =  1.54E-11,  avg # of iterations =  1.0

     negative rho (up, down):  6.037E-02 0.000E+00

     total cpu time spent up to now is    63180.4 secs

     total energy              =  -11682.10852104 Ry
     estimated scf accuracy    <       0.00000108 Ry

     iteration #218     ecut=    80.00 Ry     beta= 0.10
     Davidson diagonalization with overlap
     ethr =  1.54E-11,  avg # of iterations =  1.0

     negative rho (up, down):  6.037E-02 0.000E+00

     total cpu time spent up to now is    63466.4 secs

     total energy              =  -11682.10852104 Ry
     estimated scf accuracy    <       0.00000056 Ry

     iteration #219     ecut=    80.00 Ry     beta= 0.10
     Davidson diagonalization with overlap
     ethr =  1.54E-11,  avg # of iterations =  1.0

     negative rho (up, down):  6.037E-02 0.000E+00

     total cpu time spent up to now is    63752.3 secs

     total energy              =  -11682.10852104 Ry
     estimated scf accuracy    <       0.00000128 Ry

     iteration #220     ecut=    80.00 Ry     beta= 0.10
     Davidson diagonalization with overlap
     ethr =  1.54E-11,  avg # of iterations =  1.0

     negative rho (up, down):  6.037E-02 0.000E+00

     total cpu time spent up to now is    64037.5 secs

     total energy              =  -11682.10852105 Ry
     estimated scf accuracy    <       0.00000074 Ry

     iteration #221     ecut=    80.00 Ry     beta= 0.10
     Davidson diagonalization with overlap
     ethr =  1.54E-11,  avg # of iterations =  1.0

     negative rho (up, down):  6.037E-02 0.000E+00

     total cpu time spent up to now is    64323.8 secs

     total energy              =  -11682.10852105 Ry
     estimated scf accuracy    <       0.00000142 Ry

     iteration #222     ecut=    80.00 Ry     beta= 0.10
     Davidson diagonalization with overlap
     ethr =  1.54E-11,  avg # of iterations =  1.0

     negative rho (up, down):  6.037E-02 0.000E+00

     total cpu time spent up to now is    64610.0 secs

     total energy              =  -11682.10852105 Ry
     estimated scf accuracy    <       0.00000062 Ry

     iteration #223     ecut=    80.00 Ry     beta= 0.10
     Davidson diagonalization with overlap
     ethr =  1.54E-11,  avg # of iterations =  1.0

     negative rho (up, down):  6.037E-02 0.000E+00

     total cpu time spent up to now is    64896.5 secs

     total energy              =  -11682.10852105 Ry
     estimated scf accuracy    <       0.00000017 Ry

     iteration #224     ecut=    80.00 Ry     beta= 0.10
     Davidson diagonalization with overlap
     ethr =  9.15E-12,  avg # of iterations =  1.0

     negative rho (up, down):  6.037E-02 0.000E+00

     total cpu time spent up to now is    65182.3 secs

     total energy              =  -11682.10852105 Ry
     estimated scf accuracy    <       0.00000033 Ry

     iteration #225     ecut=    80.00 Ry     beta= 0.10
     Davidson diagonalization with overlap
     ethr =  9.15E-12,  avg # of iterations =  1.0

     negative rho (up, down):  6.037E-02 0.000E+00

     total cpu time spent up to now is    65468.6 secs

     total energy              =  -11682.10852106 Ry
     estimated scf accuracy    <       0.00000035 Ry

     iteration #226     ecut=    80.00 Ry     beta= 0.10
     Davidson diagonalization with overlap
     ethr =  9.15E-12,  avg # of iterations =  1.0

     negative rho (up, down):  6.037E-02 0.000E+00

     total cpu time spent up to now is    65754.6 secs

     total energy              =  -11682.10852106 Ry
     estimated scf accuracy    <       0.00000014 Ry

     iteration #227     ecut=    80.00 Ry     beta= 0.10
     Davidson diagonalization with overlap
     ethr =  7.61E-12,  avg # of iterations =  1.0

     negative rho (up, down):  6.037E-02 0.000E+00

     total cpu time spent up to now is    66040.0 secs

     total energy              =  -11682.10852106 Ry
     estimated scf accuracy    <       0.00000030 Ry

     iteration #228     ecut=    80.00 Ry     beta= 0.10
     Davidson diagonalization with overlap
     ethr =  7.61E-12,  avg # of iterations =  1.0

     negative rho (up, down):  6.037E-02 0.000E+00

     total cpu time spent up to now is    66326.0 secs

     total energy              =  -11682.10852106 Ry
     estimated scf accuracy    <       0.00000019 Ry

     iteration #229     ecut=    80.00 Ry     beta= 0.10
     Davidson diagonalization with overlap
     ethr =  7.61E-12,  avg # of iterations =  1.0

     negative rho (up, down):  6.037E-02 0.000E+00

     total cpu time spent up to now is    66611.9 secs

     total energy              =  -11682.10852105 Ry
     estimated scf accuracy    <       0.00000063 Ry

     iteration #230     ecut=    80.00 Ry     beta= 0.10
     Davidson diagonalization with overlap
     ethr =  7.61E-12,  avg # of iterations =  1.0

     negative rho (up, down):  6.037E-02 0.000E+00

     total cpu time spent up to now is    66898.1 secs

     total energy              =  -11682.10852106 Ry
     estimated scf accuracy    <       0.00000041 Ry

     iteration #231     ecut=    80.00 Ry     beta= 0.10
     Davidson diagonalization with overlap
     ethr =  7.61E-12,  avg # of iterations =  1.0

     negative rho (up, down):  6.037E-02 0.000E+00

     total cpu time spent up to now is    67184.4 secs

     total energy              =  -11682.10852105 Ry
     estimated scf accuracy    <       0.00000101 Ry

     iteration #232     ecut=    80.00 Ry     beta= 0.10
     Davidson diagonalization with overlap
     ethr =  7.61E-12,  avg # of iterations =  1.0

     negative rho (up, down):  6.037E-02 0.000E+00

     total cpu time spent up to now is    67470.8 secs

     total energy              =  -11682.10852106 Ry
     estimated scf accuracy    <       0.00000050 Ry

     iteration #233     ecut=    80.00 Ry     beta= 0.10
     Davidson diagonalization with overlap
     ethr =  7.61E-12,  avg # of iterations =  1.0

     negative rho (up, down):  6.037E-02 0.000E+00

     total cpu time spent up to now is    67757.2 secs

     total energy              =  -11682.10852106 Ry
     estimated scf accuracy    <       0.00000015 Ry

     iteration #234     ecut=    80.00 Ry     beta= 0.10
     Davidson diagonalization with overlap
     ethr =  7.61E-12,  avg # of iterations =  1.0

     negative rho (up, down):  6.037E-02 0.000E+00

     total cpu time spent up to now is    68042.9 secs

     total energy              =  -11682.10852106 Ry
     estimated scf accuracy    <       0.00000022 Ry

     iteration #235     ecut=    80.00 Ry     beta= 0.10
     Davidson diagonalization with overlap
     ethr =  7.61E-12,  avg # of iterations =  1.0

     negative rho (up, down):  6.037E-02 0.000E+00

     total cpu time spent up to now is    68328.9 secs

     total energy              =  -11682.10852106 Ry
     estimated scf accuracy    <       0.00000024 Ry

     iteration #236     ecut=    80.00 Ry     beta= 0.10
     Davidson diagonalization with overlap
     ethr =  7.61E-12,  avg # of iterations =  1.0

     negative rho (up, down):  6.037E-02 0.000E+00

     total cpu time spent up to now is    68615.1 secs

     total energy              =  -11682.10852106 Ry
     estimated scf accuracy    <       0.00000009 Ry

     iteration #237     ecut=    80.00 Ry     beta= 0.10
     Davidson diagonalization with overlap
     ethr =  4.58E-12,  avg # of iterations =  1.0

     negative rho (up, down):  6.037E-02 0.000E+00

     total cpu time spent up to now is    68901.4 secs

     total energy              =  -11682.10852106 Ry
     estimated scf accuracy    <       0.00000011 Ry

     iteration #238     ecut=    80.00 Ry     beta= 0.10
     Davidson diagonalization with overlap
     ethr =  4.58E-12,  avg # of iterations =  1.0

     negative rho (up, down):  6.037E-02 0.000E+00

     total cpu time spent up to now is    69189.1 secs

     total energy              =  -11682.10852106 Ry
     estimated scf accuracy    <       0.00000007 Ry

     iteration #239     ecut=    80.00 Ry     beta= 0.10
     Davidson diagonalization with overlap
     ethr =  3.68E-12,  avg # of iterations =  1.0

     negative rho (up, down):  6.037E-02 0.000E+00

     total cpu time spent up to now is    69474.4 secs

     total energy              =  -11682.10852106 Ry
     estimated scf accuracy    <       0.00000021 Ry

     iteration #240     ecut=    80.00 Ry     beta= 0.10
     Davidson diagonalization with overlap
     ethr =  3.68E-12,  avg # of iterations =  1.0

     negative rho (up, down):  6.037E-02 0.000E+00

     total cpu time spent up to now is    69762.0 secs

     total energy              =  -11682.10852106 Ry
     estimated scf accuracy    <       0.00000016 Ry

     iteration #241     ecut=    80.00 Ry     beta= 0.10
     Davidson diagonalization with overlap
     ethr =  3.68E-12,  avg # of iterations =  1.0

     negative rho (up, down):  6.037E-02 0.000E+00

     total cpu time spent up to now is    70048.2 secs

     total energy              =  -11682.10852106 Ry
     estimated scf accuracy    <       0.00000037 Ry

     iteration #242     ecut=    80.00 Ry     beta= 0.10
     Davidson diagonalization with overlap
     ethr =  3.68E-12,  avg # of iterations =  1.0

     negative rho (up, down):  6.037E-02 0.000E+00

     total cpu time spent up to now is    70335.1 secs

     total energy              =  -11682.10852106 Ry
     estimated scf accuracy    <       0.00000027 Ry

     iteration #243     ecut=    80.00 Ry     beta= 0.10
     Davidson diagonalization with overlap
     ethr =  3.68E-12,  avg # of iterations =  1.0

     negative rho (up, down):  6.037E-02 0.000E+00

     total cpu time spent up to now is    70621.2 secs

     total energy              =  -11682.10852106 Ry
     estimated scf accuracy    <       0.00000013 Ry

     iteration #244     ecut=    80.00 Ry     beta= 0.10
     Davidson diagonalization with overlap
     ethr =  3.68E-12,  avg # of iterations =  1.0

     negative rho (up, down):  6.037E-02 0.000E+00

     total cpu time spent up to now is    70907.2 secs

     total energy              =  -11682.10852106 Ry
     estimated scf accuracy    <       0.00000016 Ry

     iteration #245     ecut=    80.00 Ry     beta= 0.10
     Davidson diagonalization with overlap
     ethr =  3.68E-12,  avg # of iterations =  1.0

     negative rho (up, down):  6.037E-02 0.000E+00

     total cpu time spent up to now is    71193.0 secs

     total energy              =  -11682.10852106 Ry
     estimated scf accuracy    <       0.00000023 Ry

     iteration #246     ecut=    80.00 Ry     beta= 0.10
     Davidson diagonalization with overlap
     ethr =  3.68E-12,  avg # of iterations =  1.0

     negative rho (up, down):  6.037E-02 0.000E+00

     total cpu time spent up to now is    71478.4 secs

     total energy              =  -11682.10852106 Ry
     estimated scf accuracy    <       0.00000009 Ry

     iteration #247     ecut=    80.00 Ry     beta= 0.10
     Davidson diagonalization with overlap
     ethr =  3.68E-12,  avg # of iterations =  1.0

     negative rho (up, down):  6.037E-02 0.000E+00

     total cpu time spent up to now is    71765.7 secs

     total energy              =  -11682.10852106 Ry
     estimated scf accuracy    <       0.00000008 Ry

     iteration #248     ecut=    80.00 Ry     beta= 0.10
     Davidson diagonalization with overlap
     ethr =  3.68E-12,  avg # of iterations =  1.0

     negative rho (up, down):  6.037E-02 0.000E+00

     total cpu time spent up to now is    72051.8 secs

     total energy              =  -11682.10852106 Ry
     estimated scf accuracy    <       0.00000004 Ry

     iteration #249     ecut=    80.00 Ry     beta= 0.10
     Davidson diagonalization with overlap
     ethr =  1.88E-12,  avg # of iterations =  1.0

     negative rho (up, down):  6.037E-02 0.000E+00

     total cpu time spent up to now is    72337.3 secs

     total energy              =  -11682.10852106 Ry
     estimated scf accuracy    <       0.00000007 Ry

     iteration #250     ecut=    80.00 Ry     beta= 0.10
     Davidson diagonalization with overlap
     ethr =  1.88E-12,  avg # of iterations =  1.0

     negative rho (up, down):  6.037E-02 0.000E+00

     total cpu time spent up to now is    72623.8 secs

     total energy              =  -11682.10852106 Ry
     estimated scf accuracy    <       0.00000005 Ry

     iteration #251     ecut=    80.00 Ry     beta= 0.10
     Davidson diagonalization with overlap
     ethr =  1.88E-12,  avg # of iterations =  1.0

     negative rho (up, down):  6.037E-02 0.000E+00

     total cpu time spent up to now is    72909.9 secs

     total energy              =  -11682.10852106 Ry
     estimated scf accuracy    <       0.00000010 Ry

     iteration #252     ecut=    80.00 Ry     beta= 0.10
     Davidson diagonalization with overlap
     ethr =  1.88E-12,  avg # of iterations =  1.0

     negative rho (up, down):  6.037E-02 0.000E+00

     total cpu time spent up to now is    73196.5 secs

     total energy              =  -11682.10852106 Ry
     estimated scf accuracy    <       0.00000011 Ry

     iteration #253     ecut=    80.00 Ry     beta= 0.10
     Davidson diagonalization with overlap
     ethr =  1.88E-12,  avg # of iterations =  1.0

     negative rho (up, down):  6.037E-02 0.000E+00

     total cpu time spent up to now is    73482.5 secs

     total energy              =  -11682.10852106 Ry
     estimated scf accuracy    <       0.00000009 Ry

     iteration #254     ecut=    80.00 Ry     beta= 0.10
     Davidson diagonalization with overlap
     ethr =  1.88E-12,  avg # of iterations =  1.0

     negative rho (up, down):  6.037E-02 0.000E+00

     total cpu time spent up to now is    73769.2 secs

     total energy              =  -11682.10852106 Ry
     estimated scf accuracy    <       0.00000008 Ry

     iteration #255     ecut=    80.00 Ry     beta= 0.10
     Davidson diagonalization with overlap
     ethr =  1.88E-12,  avg # of iterations =  1.0

     negative rho (up, down):  6.037E-02 0.000E+00

     total cpu time spent up to now is    74054.6 secs

     total energy              =  -11682.10852106 Ry
     estimated scf accuracy    <       0.00000014 Ry

     iteration #256     ecut=    80.00 Ry     beta= 0.10
     Davidson diagonalization with overlap
     ethr =  1.88E-12,  avg # of iterations =  1.0

     negative rho (up, down):  6.037E-02 0.000E+00

     total cpu time spent up to now is    74340.4 secs

     total energy              =  -11682.10852106 Ry
     estimated scf accuracy    <       0.00000010 Ry

     iteration #257     ecut=    80.00 Ry     beta= 0.10
     Davidson diagonalization with overlap
     ethr =  1.88E-12,  avg # of iterations =  1.0

     negative rho (up, down):  6.037E-02 0.000E+00

     total cpu time spent up to now is    74626.4 secs

     total energy              =  -11682.10852105 Ry
     estimated scf accuracy    <       0.00000007 Ry

     iteration #258     ecut=    80.00 Ry     beta= 0.10
     Davidson diagonalization with overlap
     ethr =  1.88E-12,  avg # of iterations =  1.0

     negative rho (up, down):  6.037E-02 0.000E+00

     total cpu time spent up to now is    74913.5 secs

     total energy              =  -11682.10852106 Ry
     estimated scf accuracy    <       0.00000003 Ry

     iteration #259     ecut=    80.00 Ry     beta= 0.10
     Davidson diagonalization with overlap
     ethr =  1.55E-12,  avg # of iterations =  1.0

     negative rho (up, down):  6.037E-02 0.000E+00

     total cpu time spent up to now is    75200.5 secs

     total energy              =  -11682.10852105 Ry
     estimated scf accuracy    <       0.00000004 Ry

     iteration #260     ecut=    80.00 Ry     beta= 0.10
     Davidson diagonalization with overlap
     ethr =  1.55E-12,  avg # of iterations =  1.0

     negative rho (up, down):  6.037E-02 0.000E+00

     total cpu time spent up to now is    75486.7 secs

     total energy              =  -11682.10852105 Ry
     estimated scf accuracy    <       0.00000002 Ry

     iteration #261     ecut=    80.00 Ry     beta= 0.10
     Davidson diagonalization with overlap
     ethr =  1.22E-12,  avg # of iterations =  1.0

     negative rho (up, down):  6.037E-02 0.000E+00

     total cpu time spent up to now is    75772.5 secs

     total energy              =  -11682.10852105 Ry
     estimated scf accuracy    <       0.00000003 Ry

     iteration #262     ecut=    80.00 Ry     beta= 0.10
     Davidson diagonalization with overlap
     ethr =  1.22E-12,  avg # of iterations =  1.0

     negative rho (up, down):  6.037E-02 0.000E+00

     total cpu time spent up to now is    76059.2 secs

     total energy              =  -11682.10852105 Ry
     estimated scf accuracy    <       0.00000004 Ry

     iteration #263     ecut=    80.00 Ry     beta= 0.10
     Davidson diagonalization with overlap
     ethr =  1.22E-12,  avg # of iterations =  1.0

     negative rho (up, down):  6.037E-02 0.000E+00

     total cpu time spent up to now is    76344.8 secs

     total energy              =  -11682.10852105 Ry
     estimated scf accuracy    <       0.00000004 Ry

     iteration #264     ecut=    80.00 Ry     beta= 0.10
     Davidson diagonalization with overlap
     ethr =  1.22E-12,  avg # of iterations =  1.0

     negative rho (up, down):  6.037E-02 0.000E+00

     total cpu time spent up to now is    76631.4 secs

     total energy              =  -11682.10852105 Ry
     estimated scf accuracy    <       0.00000002 Ry

     iteration #265     ecut=    80.00 Ry     beta= 0.10
     Davidson diagonalization with overlap
     ethr =  1.22E-12,  avg # of iterations =  1.0

     negative rho (up, down):  6.037E-02 0.000E+00

     total cpu time spent up to now is    76917.1 secs

     total energy              =  -11682.10852105 Ry
     estimated scf accuracy    <       0.00000005 Ry

     iteration #266     ecut=    80.00 Ry     beta= 0.10
     Davidson diagonalization with overlap
     ethr =  1.22E-12,  avg # of iterations =  1.0

     negative rho (up, down):  6.037E-02 0.000E+00

     total cpu time spent up to now is    77203.1 secs

     total energy              =  -11682.10852105 Ry
     estimated scf accuracy    <       0.00000006 Ry

     iteration #267     ecut=    80.00 Ry     beta= 0.10
     Davidson diagonalization with overlap
     ethr =  1.22E-12,  avg # of iterations =  1.0

     negative rho (up, down):  6.037E-02 0.000E+00

     total cpu time spent up to now is    77489.9 secs

     total energy              =  -11682.10852105 Ry
     estimated scf accuracy    <       0.00000005 Ry

     iteration #268     ecut=    80.00 Ry     beta= 0.10
     Davidson diagonalization with overlap
     ethr =  1.22E-12,  avg # of iterations =  1.0

     negative rho (up, down):  6.037E-02 0.000E+00

     total cpu time spent up to now is    77775.4 secs

     total energy              =  -11682.10852105 Ry
     estimated scf accuracy    <       0.00000003 Ry

     iteration #269     ecut=    80.00 Ry     beta= 0.10
     Davidson diagonalization with overlap
     ethr =  1.22E-12,  avg # of iterations =  1.0

     negative rho (up, down):  6.037E-02 0.000E+00

     total cpu time spent up to now is    78062.3 secs

     total energy              =  -11682.10852105 Ry
     estimated scf accuracy    <       0.00000003 Ry

     iteration #270     ecut=    80.00 Ry     beta= 0.10
     Davidson diagonalization with overlap
     ethr =  1.22E-12,  avg # of iterations =  1.0

     negative rho (up, down):  6.037E-02 0.000E+00

     total cpu time spent up to now is    78348.4 secs

     total energy              =  -11682.10852105 Ry
     estimated scf accuracy    <       0.00000002 Ry

     iteration #271     ecut=    80.00 Ry     beta= 0.10
     Davidson diagonalization with overlap
     ethr =  9.89E-13,  avg # of iterations =  1.0

     negative rho (up, down):  6.037E-02 0.000E+00

     total cpu time spent up to now is    78634.5 secs

     total energy              =  -11682.10852105 Ry
     estimated scf accuracy    <       0.00000001 Ry

     iteration #272     ecut=    80.00 Ry     beta= 0.10
     Davidson diagonalization with overlap
     ethr =  7.83E-13,  avg # of iterations =  1.0

     negative rho (up, down):  6.037E-02 0.000E+00

     total cpu time spent up to now is    78920.4 secs

     total energy              =  -11682.10852105 Ry
     estimated scf accuracy    <       0.00000002 Ry

     iteration #273     ecut=    80.00 Ry     beta= 0.10
     Davidson diagonalization with overlap
     ethr =  7.83E-13,  avg # of iterations =  1.0

     negative rho (up, down):  6.037E-02 0.000E+00

     total cpu time spent up to now is    79206.0 secs

     total energy              =  -11682.10852105 Ry
     estimated scf accuracy    <       0.00000001 Ry

     iteration #274     ecut=    80.00 Ry     beta= 0.10
     Davidson diagonalization with overlap
     ethr =  7.55E-13,  avg # of iterations =  1.0

     negative rho (up, down):  6.037E-02 0.000E+00

     total cpu time spent up to now is    79491.5 secs

     End of self-consistent calculation

          k = 0.0000 0.0000 0.0000 (****** PWs)   bands (ev):

   -57.9710 -56.2002 -55.8628 -55.8327 -55.6220 -55.5894 -55.0314 -55.0014
   -54.7597 -54.5056 -53.8714 -29.8976 -29.8803 -29.8424 -28.1509 -28.1082
   -28.0671 -27.7961 -27.7885 -27.7693 -27.7508 -27.7486 -27.7278 -27.5571
   -27.5552 -27.5274 -27.4914 -27.4900 -27.4629 -27.1319 -27.0022 -26.9543
   -26.9421 -26.9074 -26.8933 -26.8729 -26.7520 -26.7006 -26.6600 -26.4819
   -26.4432 -26.3881 -26.2582 -26.1257 -25.8763 -25.8223 -25.7941 -25.7761
   -25.7687 -25.7587 -25.6152 -25.5823 -25.5618 -25.5560 -25.4541 -25.3670
   -25.2986 -25.2390 -25.1900 -25.1326 -25.1099 -25.0569 -25.0328 -25.0151
   -25.0044 -24.9946 -24.9491 -24.9080 -24.8978 -24.8870 -24.8517 -24.8514
   -24.8022 -24.7873 -24.7591 -24.7357 -24.7092 -24.6698 -24.6472 -24.6275
   -24.6097 -24.6070 -24.5725 -24.5517 -24.5367 -24.5125 -24.4899 -24.4552
   -24.4419 -24.4073 -24.4037 -24.3801 -24.3651 -24.3372 -24.3281 -24.3054
   -24.2942 -24.2676 -24.2592 -24.2460 -24.2174 -24.2118 -24.1859 -24.1752
   -24.1524 -24.1261 -24.1066 -24.0988 -24.0825 -24.0628 -24.0500 -24.0218
   -23.9919 -23.9773 -23.9643 -23.9431 -23.9278 -23.9007 -23.8717 -23.8681
   -23.8144 -23.7936 -23.7901 -23.7746 -23.7576 -23.7422 -23.7333 -23.7213
   -23.7055 -23.7002 -23.6934 -23.6851 -23.6763 -23.6674 -23.6366 -23.6233
   -23.6091 -23.6032 -23.5888 -23.5640 -23.5572 -23.5447 -23.5256 -23.5149
   -23.5043 -23.4904 -23.4746 -23.4445 -23.4164 -23.4062 -23.3900 -23.3878
   -23.3604 -23.3466 -23.3430 -23.3095 -23.3025 -23.2905 -23.2797 -23.2614
   -23.2500 -23.2222 -23.2141 -23.1953 -23.1859 -23.1566 -23.1475 -23.1267
   -23.1250 -23.1014 -23.0907 -23.0823 -23.0623 -23.0528 -23.0511 -23.0373
   -23.0196 -23.0119 -22.9960 -22.9591 -22.9314 -22.9121 -22.9061 -22.8905
   -22.8810 -22.8598 -22.8457 -22.8334 -22.8294 -22.8015 -22.7935 -22.7763
   -22.7679 -22.7509 -22.7138 -22.7052 -22.7025 -22.6983 -22.6655 -22.6608
   -22.6402 -22.5643 -22.5275 -22.5198 -22.4751 -22.4536 -22.3997 -22.3950
   -22.3900 -22.3855 -22.3810 -22.3274 -22.2654 -22.2451 -22.2387 -22.2194
   -22.2084 -22.1740 -22.1127 -22.0303 -21.9856 -21.9773 -21.9359 -21.8383
   -21.6511 -21.5814 -21.5770 -21.5586 -21.5070 -21.4530 -21.4282 -21.3939
   -21.3265 -21.3073 -20.6506 -20.5970 -20.5636 -20.5551 -20.5543 -20.5257
   -20.5239 -20.4712 -20.4704 -20.3616 -20.3493 -20.1636 -20.0805 -20.0721
   -20.0142 -19.8287 -19.7353 -19.7330 -19.7307 -19.7188 -19.7131 -19.7115
   -19.7100 -19.6818 -19.6758 -19.6661 -19.6032 -18.8863 -18.5226 -17.6618
   -16.9061 -16.1108 -15.3465 -15.2111 -15.1477 -15.0764 -14.9689 -14.8896
   -14.8547 -14.7839 -14.7488 -14.7050 -14.6563 -14.5892 -14.5807 -14.5301
   -14.5053 -14.4192 -14.3402 -14.2862 -14.2091 -14.1803 -14.1274 -14.0988
   -14.0297 -14.0064 -13.9950 -13.9571 -13.9194 -13.9032 -13.8787 -13.8136
   -13.7951 -13.7500 -13.7424 -13.6874 -13.6589 -13.6045 -13.5354 -13.5218
   -13.4790 -13.4440 -13.4402 -13.4206 -13.3727 -13.3214 -13.2968 -13.2855
   -13.2212 -13.2171 -13.2102 -13.1521 -13.1287 -13.0875 -13.0802 -13.0510
   -13.0071 -12.9902 -12.9606 -12.9265 -12.9033 -12.8835 -12.8488 -12.8255
   -12.8006 -12.7716 -12.7331 -12.7231 -12.6662 -12.6468 -12.6264 -12.5493
   -12.5385 -12.5177 -12.4816 -12.4409 -12.4130 -12.3734 -12.3594 -12.3256
   -12.3161 -12.2980 -12.2899 -12.2274 -12.2097 -12.1655 -12.1447 -12.1243
   -12.0824 -12.0398 -12.0208 -11.9980 -11.9768 -11.9466 -11.9149 -11.8863
   -11.8647 -11.8515 -11.8257 -11.8068 -11.7825 -11.7479 -11.7392 -11.7025
   -11.7001 -11.6914 -11.6447 -11.6335 -11.5994 -11.5961 -11.5806 -11.5657
   -11.5428 -11.5348 -11.5161 -11.4937 -11.4801 -11.4636 -11.4597 -11.4430
   -11.4234 -11.4118 -11.3839 -11.3743 -11.3699 -11.3310 -11.3107 -11.2941
   -11.2724 -11.2644 -11.2472 -11.2133 -11.1949 -11.1706 -11.1643 -11.1536
   -11.1425 -11.1380 -11.1184 -11.0971 -11.0832 -11.0680 -11.0637 -11.0375
   -10.9893 -10.9858 -10.9601 -10.9488 -10.9260 -10.8998 -10.8914 -10.8792
   -10.8747 -10.8587 -10.8529 -10.8504 -10.8255 -10.8217 -10.8105 -10.7784
   -10.7760 -10.7394 -10.7180 -10.7080 -10.6910 -10.6892 -10.6599 -10.6518
   -10.6135 -10.5805 -10.5744 -10.5618 -10.5462 -10.5351 -10.5174 -10.4880
   -10.4730 -10.4597 -10.4288 -10.3885 -10.3777 -10.3316 -10.3087 -10.2945
   -10.2800 -10.2320 -10.2100 -10.2049 -10.1811 -10.1628 -10.1096 -10.0740
   -10.0714 -10.0462 -10.0284  -9.9899  -9.9609  -9.9103  -9.8962  -9.8743
    -9.8591  -9.8346  -9.8096  -9.7957  -9.7838  -9.7626  -9.7390  -9.7175
    -9.6658  -9.6468  -9.5897  -9.5852  -9.5678  -9.5407  -9.5278  -9.5119
    -9.4950  -9.4820  -9.4650  -9.4512  -9.4181  -9.3965  -9.3714  -9.3630
    -9.3375  -9.3340  -9.3332  -9.3233  -9.3105  -9.3054  -9.3015  -9.2890
    -9.2443  -9.2286  -9.2218  -9.1875  -9.1779  -9.1686  -9.1461  -9.1389
    -9.1202  -9.1063  -9.0769  -9.0572  -9.0416  -9.0166  -9.0148  -8.9745
    -8.9661  -8.9406  -8.9098  -8.9080  -8.8803  -8.8644  -8.8553  -8.8467
    -8.8375  -8.8228  -8.8043  -8.7829  -8.7705  -8.7616  -8.7375  -8.7325
    -8.7208  -8.7085  -8.6991  -8.6838  -8.6640  -8.6593  -8.6568  -8.6422
    -8.6376  -8.6206  -8.5923  -8.5860  -8.5696  -8.5691  -8.5603  -8.5504
    -8.5468  -8.5404  -8.5325  -8.5140  -8.5097  -8.4991  -8.4888  -8.4741
    -8.4630  -8.4552  -8.4429  -8.4318  -8.4159  -8.3945  -8.3901  -8.3836
    -8.3725  -8.3656  -8.3598  -8.3448  -8.3315  -8.3262  -8.3113  -8.3033
    -8.2961  -8.2841  -8.2683  -8.2622  -8.2485  -8.2470  -8.2344  -8.2213
    -8.2142  -8.2021  -8.1926  -8.1759  -8.1712  -8.1629  -8.1451  -8.1401
    -8.1394  -8.1276  -8.1075  -8.0890  -8.0814  -8.0708  -8.0620  -8.0480
    -8.0359  -8.0344  -8.0272  -8.0187  -8.0041  -7.9970  -7.9957  -7.9874
    -7.9791  -7.9583  -7.9484  -7.9422  -7.9386  -7.9157  -7.9111  -7.9078
    -7.8841  -7.8804  -7.8677  -7.8575  -7.8500  -7.8380  -7.8337  -7.8217
    -7.8205  -7.8050  -7.7999  -7.7906  -7.7761  -7.7722  -7.7619  -7.7486
    -7.7450  -7.7384  -7.7324  -7.7172  -7.7147  -7.7013  -7.6929  -7.6784
    -7.6727  -7.6709  -7.6521  -7.6449  -7.6394  -7.6253  -7.6208  -7.6126
    -7.5976  -7.5953  -7.5835  -7.5736  -7.5708  -7.5525  -7.5498  -7.5370
    -7.5339  -7.5118  -7.5047  -7.5006  -7.4918  -7.4811  -7.4665  -7.4649
    -7.4494  -7.4447  -7.4397  -7.4239  -7.4168  -7.4056  -7.3999  -7.3908
    -7.3844  -7.3761  -7.3714  -7.3630  -7.3568  -7.3265  -7.3128  -7.2981
    -7.2912  -7.2889  -7.2844  -7.2733  -7.2602  -7.2542  -7.2460  -7.2303
    -7.2234  -7.2102  -7.2021  -7.1872  -7.1839  -7.1817  -7.1735  -7.1621
    -7.1524  -7.1392  -7.1299  -7.1180  -7.1115  -7.0930  -7.0832  -7.0761
    -7.0628  -7.0598  -7.0475  -7.0378  -7.0270  -7.0193  -7.0075  -7.0032
    -6.9925  -6.9883  -6.9802  -6.9641  -6.9571  -6.9521  -6.9355  -6.9225
    -6.9053  -6.8968  -6.8865  -6.8739  -6.8636  -6.8530  -6.8431  -6.8402
    -6.8274  -6.8239  -6.8078  -6.7888  -6.7823  -6.7747  -6.7657  -6.7543
    -6.7428  -6.7327  -6.7226  -6.7156  -6.7067  -6.6956  -6.6848  -6.6800
    -6.6727  -6.6592  -6.6509  -6.6364  -6.6257  -6.6196  -6.6063  -6.5995
    -6.5968  -6.5886  -6.5872  -6.5824  -6.5548  -6.5525  -6.5322  -6.5138
    -6.5042  -6.4909  -6.4847  -6.4798  -6.4757  -6.4673  -6.4519  -6.4472
    -6.4453  -6.4342  -6.4309  -6.4190  -6.4056  -6.4009  -6.3873  -6.3781
    -6.3726  -6.3540  -6.3493  -6.3452  -6.3280  -6.3187  -6.3048  -6.2961
    -6.2815  -6.2785  -6.2653  -6.2529  -6.2453  -6.2382  -6.2241  -6.2186
    -6.2114  -6.1924  -6.1797  -6.1746  -6.1650  -6.1421  -6.1402  -6.1070
    -6.0966  -6.0828  -6.0753  -6.0614  -6.0561  -6.0351  -6.0319  -6.0101
    -5.9934  -5.9865  -5.9723  -5.9549  -5.9495  -5.9390  -5.9380  -5.9240
    -5.9156  -5.9065  -5.8845  -5.8777  -5.8658  -5.8461  -5.8415  -5.8377
    -5.8269  -5.8104  -5.7953  -5.7810  -5.7748  -5.7664  -5.7452  -5.7269
    -5.7245  -5.7191  -5.7158  -5.7000  -5.6854  -5.6820  -5.6753  -5.6526
    -5.6482  -5.6264  -5.6049  -5.6044  -5.5984  -5.5847  -5.5724  -5.5659
    -5.5422  -5.5160  -5.4955  -5.4785  -5.4657  -5.4551  -5.4459  -5.4366
    -5.4085  -5.3953  -5.3884  -5.3745  -5.3430  -5.3389  -5.3353  -5.3327
    -5.3253  -5.3129  -5.2772  -5.2666  -5.2506  -5.2306  -5.2186  -5.2091
    -5.1711  -5.1524  -5.1389  -5.1125  -5.0702  -5.0638  -5.0526  -5.0300
    -5.0045  -4.9686  -4.8732  -4.8541  -4.8399  -4.8378  -4.8269  -4.8127
    -4.7632  -4.7480  -4.7243  -4.7136  -4.6847  -4.6635  -4.6092  -4.6038
    -4.5853  -4.5074  -4.4811  -4.4587  -4.4536  -4.4470  -4.4402  -4.4268
    -4.3435  -4.2527  -4.2076  -4.2035  -4.1447  -4.1085  -4.0470  -4.0384
    -4.0302  -4.0178  -4.0107  -3.9744  -3.9576  -3.9354  -3.9213  -3.9122
    -3.9023  -3.8958  -3.8850  -3.8511  -3.8488  -3.8425  -3.8320  -3.8262
    -3.8220  -3.8181  -3.8117  -3.8033  -3.7995  -3.7973  -3.7888  -3.7857
    -3.7816  -3.7776  -3.7627  -3.7477  -3.7417  -3.7351  -3.7254  -3.7214
    -3.7118  -3.7108  -3.6790  -3.6671  -3.6497  -3.6310  -3.6305  -3.6171
    -3.5339  -3.4506  -3.3908  -3.3448  -3.3162  -3.2848  -3.1841  -3.1098
    -2.7391  -2.6260  -2.2159  -1.9870  -1.5591  -0.6247  -0.6153  -0.4703
    -0.4229  -0.4080  -0.2702  -0.2497  -0.1703  -0.1088  -0.0281   0.0009
     0.0428   0.1542   0.2492   0.3372   0.3894   0.4679   0.5360   0.6278
     0.6791   0.7107   0.7397   0.7719   0.8292   0.8797   0.9394   0.9650
     0.9824   1.0248   1.0603   1.0976   1.1397   1.1494   1.2060   1.2138
     1.2466   1.2523   1.2809   1.3085   1.3426   1.3663   1.3761   1.3952
     1.4217   1.4430   1.4557   1.4872   1.4945   1.5291   1.5614   1.5929
     1.6165   1.6225   1.6301   1.6499   1.6529   1.6887   1.7047   1.7393
     1.7417   1.7467   1.7705   1.7985   1.8284   1.8392   1.8669   1.8764
     1.9024   1.9045   1.9201   1.9402   1.9416   1.9688   1.9811   1.9897
     2.0067   2.0408   2.0508   2.0680   2.0744   2.0794   2.0934   2.1076
     2.1116   2.1168   2.1332   2.1383   2.1577   2.1670   2.1738   2.1797
     2.1832   2.2041   2.2158   2.2255   2.2321   2.2454   2.2638   2.2740
     2.2864   2.3047   2.3178   2.3249   2.3374   2.3420   2.3546   2.3603
     2.3741   2.3896   2.4000   2.4129   2.4399   2.4514   2.4651   2.4692
     2.4843   2.4890   2.4978   2.5078   2.5107   2.5191   2.5258   2.5318
     2.5405   2.5501   2.5583   2.5710   2.5816   2.5979   2.6105   2.6262
     2.6291   2.6416   2.6465   2.6523   2.6629   2.6728   2.6782   2.6865
     2.6995   2.7095   2.7145   2.7164   2.7234   2.7336   2.7628   2.7695
     2.7761   2.7833   2.7938   2.7992   2.8044   2.8171   2.8292   2.8400
     2.8506   2.8588   2.8661   2.8736   2.8835   2.8947   2.9069   2.9097
     2.9223   2.9335   2.9478

     the Fermi energy is    -3.6857 ev

!    total energy              =  -11682.10852104 Ry
     estimated scf accuracy    <          7.2E-09 Ry
     smearing contrib. (-TS)   =      -0.11109607 Ry
     internal energy E=F+TS    =  -11681.99742496 Ry

     The total energy is F=E-TS. E is the sum of the following terms:
     one-electron contribution = -355257.15824243 Ry
     hartree contribution      =  178091.67758540 Ry
     xc contribution           =   -2470.90042268 Ry
     ewald contribution        =  170314.08789579 Ry
     one-center paw contrib.   =   -2359.70424104 Ry

     convergence has been achieved in 274 iterations

     negative rho (up, down):  6.037E-02 0.000E+00

     Forces acting on atoms (cartesian axes, Ry/au):

     atom    1 type  1   force =     0.01198406    0.01352505    0.05502807
     atom    2 type  1   force =     0.02841109    0.02471150   -0.00054090
     atom    3 type  1   force =     0.00761793    0.00107920   -0.00350320
     atom    4 type  1   force =    -0.01246626   -0.01523120   -0.01031359
     atom    5 type  1   force =     0.01477668   -0.02240164   -0.02715396
     atom    6 type  1   force =     0.00353902   -0.00144203    0.00441034
     atom    7 type  1   force =    -0.00855756    0.01201890    0.01157346
     atom    8 type  1   force =    -0.01213110   -0.03103584    0.00331279
     atom    9 type  1   force =    -0.00149479    0.00641921    0.01347209
     atom   10 type  1   force =     0.01827997   -0.00173010    0.01752016
     atom   11 type  1   force =    -0.01122053   -0.00524652   -0.01233576
     atom   12 type  2   force =     0.00698668    0.12279855   -0.04037781
     atom   13 type  2   force =     0.13701658    0.10114377   -0.00131524
     atom   14 type  2   force =     0.08061625    0.03199076   -0.06292617
     atom   15 type  2   force =     0.14639677   -0.03948848   -0.15268110
     atom   16 type  2   force =     0.02151595    0.03840489    0.04014739
     atom   17 type  2   force =     0.15429818    0.01488242    0.25423260
     atom   18 type  2   force =    -0.01245735   -0.04668061   -0.04951311
     atom   19 type  2   force =    -0.01079027    0.03868640   -0.10072721
     atom   20 type  2   force =    -0.02587575   -0.01331055   -0.04185830
     atom   21 type  2   force =    -0.05465542    0.13497572   -0.03943399
     atom   22 type  2   force =     0.03590456   -0.13328952    0.09280444
     atom   23 type  2   force =    -0.03935430   -0.06826753   -0.05873164
     atom   24 type  2   force =     0.03246380    0.02646573    0.01007219
     atom   25 type  2   force =     0.06547193    0.00667700    0.07195438
     atom   26 type  2   force =    -0.01661196   -0.00971923   -0.01115811
     atom   27 type  2   force =     0.04174855    0.11808461   -0.07355882
     atom   28 type  2   force =    -0.00195493   -0.05838202   -0.01145684
     atom   29 type  2   force =    -0.03142186   -0.05047217    0.08149382
     atom   30 type  2   force =     0.03235969   -0.03168544   -0.03950767
     atom   31 type  2   force =     0.03576184    0.02203872    0.00215146
     atom   32 type  2   force =    -0.00990893   -0.06578243    0.08799651
     atom   33 type  2   force =    -0.05571511    0.01799753   -0.05552535
     atom   34 type  2   force =     0.06103520   -0.02691679   -0.02233531
     atom   35 type  3   force =    -0.01333683   -0.07804362    0.00314936
     atom   36 type  3   force =    -0.16413973    0.08787770   -0.04851003
     atom   37 type  3   force =    -0.06764122    0.03585188   -0.01401078
     atom   38 type  3   force =    -0.05432636   -0.00011537   -0.00935966
     atom   39 type  3   force =     0.07412914    0.00716340    0.01035038
     atom   40 type  3   force =     0.08660266    0.02281885   -0.04332414
     atom   41 type  3   force =    -0.10887106   -0.09033551   -0.13250714
     atom   42 type  3   force =     0.01231329   -0.06063901    0.06454086
     atom   43 type  3   force =     0.01842156   -0.02238350   -0.04845073
     atom   44 type  3   force =     0.06109744    0.10569876    0.04114391
     atom   45 type  3   force =    -0.03198435   -0.00099120   -0.03161966
     atom   46 type  3   force =    -0.03606444    0.12398447    0.05995774
     atom   47 type  3   force =    -0.05599085    0.00760996   -0.14722595
     atom   48 type  3   force =    -0.02873327   -0.12200292   -0.13762446
     atom   49 type  3   force =     0.06192711    0.18244883    0.05225630
     atom   50 type  3   force =     0.04362723   -0.02224422   -0.09784872
     atom   51 type  3   force =    -0.01921359    0.04789247    0.07049067
     atom   52 type  3   force =    -0.12126613   -0.10604089    0.11968835
     atom   53 type  3   force =    -0.12312531   -0.10980854   -0.05502519
     atom   54 type  3   force =    -0.03662007   -0.02306324    0.10075552
     atom   55 type  3   force =    -0.15017487    0.03115997    0.03094240
     atom   56 type  3   force =    -0.02252940    0.01129615    0.12181664
     atom   57 type  3   force =     0.00706656   -0.09507494   -0.04895950
     atom   58 type  3   force =     0.06048589   -0.00824476    0.04788128
     atom   59 type  3   force =    -0.03555759   -0.01079167    0.03875431
     atom   60 type  3   force =     0.07906032   -0.07456101   -0.00360769
     atom   61 type  3   force =     0.01537603    0.19123922    0.03552308
     atom   62 type  3   force =    -0.01924555   -0.01655601   -0.00622200
     atom   63 type  3   force =     0.01628704    0.01194111   -0.00645935
     atom   64 type  3   force =     0.00306195    0.05907194    0.08268023
     atom   65 type  3   force =    -0.00851480    0.02325398    0.02053009
     atom   66 type  3   force =    -0.01586864    0.00339334   -0.01874926
     atom   67 type  3   force =     0.03114468    0.00050374    0.10239227
     atom   68 type  3   force =    -0.06507424   -0.03466203    0.07987874
     atom   69 type  3   force =     0.04501829    0.03719790    0.03189643
     atom   70 type  3   force =    -0.05032728   -0.06708856   -0.05576108
     atom   71 type  3   force =     0.04856836   -0.03740593    0.05233577
     atom   72 type  3   force =     0.01421739    0.11140508    0.19920406
     atom   73 type  3   force =    -0.07871481    0.05108536   -0.07639789
     atom   74 type  3   force =     0.00524365   -0.06456411   -0.04793897
     atom   75 type  3   force =    -0.06319000    0.00866187   -0.00233810
     atom   76 type  3   force =     0.04450658   -0.10611671   -0.06059938
     atom   77 type  3   force =    -0.03077030    0.07733807    0.03341830
     atom   78 type  3   force =    -0.09865086   -0.02066847   -0.06893139
     atom   79 type  3   force =    -0.00395937   -0.04283542    0.03501936
     atom   80 type  3   force =    -0.03225552    0.03945857   -0.00563554
     atom   81 type  3   force =     0.03039973    0.01868304   -0.03957101
     atom   82 type  3   force =    -0.04205174    0.01728959   -0.05458780
     atom   83 type  3   force =    -0.05137472    0.09469309    0.02420686
     atom   84 type  3   force =    -0.02494772    0.04022124   -0.04061871
     atom   85 type  3   force =    -0.01134623   -0.09866847    0.07699807
     atom   86 type  3   force =    -0.02817313   -0.07917096   -0.10461816
     atom   87 type  3   force =     0.02207848   -0.00716632   -0.06795151
     atom   88 type  3   force =    -0.00063207    0.05376437   -0.11884596
     atom   89 type  3   force =    -0.04836917   -0.02070446    0.06496653
     atom   90 type  3   force =     0.05356463   -0.04782414   -0.04637162
     atom   91 type  3   force =     0.06648042    0.04065606   -0.01539406
     atom   92 type  3   force =    -0.00909528   -0.00578350   -0.02090976
     atom   93 type  3   force =    -0.08709178   -0.10492029   -0.00533808
     atom   94 type  3   force =     0.07174880    0.08985340    0.05018243
     atom   95 type  3   force =    -0.01091157   -0.01083859   -0.06939396
     atom   96 type  3   force =    -0.09371144   -0.01180705    0.15325573
     atom   97 type  3   force =    -0.02817067   -0.04657047   -0.00176972
     atom   98 type  3   force =     0.10424755    0.01091818    0.09544988
     atom   99 type  3   force =    -0.05542016   -0.00676228    0.03646785
     atom  100 type  3   force =     0.02261067   -0.07810685    0.07966529
     atom  101 type  3   force =    -0.06017476    0.02729092   -0.01092611
     atom  102 type  3   force =     0.03049656    0.01738734    0.03134770
     atom  103 type  3   force =     0.04700540    0.03117534    0.09740118
     atom  104 type  3   force =    -0.08252400   -0.07723742   -0.00515878
     atom  105 type  3   force =     0.02907809    0.05418402   -0.00668187
     atom  106 type  3   force =     0.03808498    0.11414587   -0.01558011
     atom  107 type  3   force =    -0.02801946   -0.00316625    0.02798351
     atom  108 type  3   force =     0.04688071   -0.00964965    0.04589780
     atom  109 type  3   force =     0.10963183    0.02008503   -0.03972323
     atom  110 type  3   force =     0.13935075    0.00800647   -0.06096430
     atom  111 type  3   force =    -0.02031334   -0.01791586    0.01759310
     atom  112 type  3   force =    -0.06700859    0.09520745   -0.01074889
     atom  113 type  3   force =     0.02127407   -0.01983725   -0.05626206
     atom  114 type  3   force =    -0.03894144    0.02176068    0.08106732
     atom  115 type  3   force =     0.01339824   -0.02838501    0.07649431
     atom  116 type  3   force =     0.08472066    0.00791569   -0.04837711
     atom  117 type  3   force =    -0.06875196    0.00338698    0.03770844
     atom  118 type  3   force =    -0.11852698    0.11186403    0.02564456
     atom  119 type  3   force =     0.07046797   -0.00675266    0.03241648
     atom  120 type  3   force =     0.00917468    0.02808466    0.10528801
     atom  121 type  3   force =     0.12981754    0.07610411    0.01614989
     atom  122 type  4   force =     0.03951150    0.01290666    0.02869502
     atom  123 type  4   force =    -0.06148002   -0.03992821   -0.00968168
     atom  124 type  4   force =     0.00364624    0.02429691   -0.04618148
     atom  125 type  4   force =     0.01813935   -0.00575545   -0.00426543
     atom  126 type  4   force =    -0.13130665   -0.14924837   -0.01135366
     atom  127 type  4   force =    -0.09949730   -0.12885823   -0.07370907
     atom  128 type  4   force =     0.01054501   -0.04945996    0.05956619
     atom  129 type  4   force =     0.00891237   -0.06163916   -0.01139387
     atom  130 type  4   force =     0.00883438   -0.02168450    0.00921657
     atom  131 type  4   force =     0.00670384   -0.01823851   -0.01316803
     atom  132 type  4   force =     0.04933109   -0.03836714   -0.01676178
     atom  133 type  4   force =    -0.03659223   -0.05919469    0.03630800
     atom  134 type  4   force =    -0.09349880    0.00758258   -0.04008006
     atom  135 type  4   force =     0.02241959   -0.02686997    0.12459142
     atom  136 type  4   force =     0.01785039   -0.01012429   -0.01831809
     atom  137 type  4   force =     0.05389370    0.04127645   -0.03415991
     atom  138 type  4   force =     0.01582246    0.00196446   -0.01527684
     atom  139 type  4   force =    -0.00676524    0.02800929   -0.02071237
     atom  140 type  4   force =     0.02153830   -0.06866865    0.02202069
     atom  141 type  4   force =     0.05840307   -0.01205329    0.00217515
     atom  142 type  4   force =    -0.10496515   -0.05312256    0.04675845
     atom  143 type  4   force =    -0.15008435   -0.03706917   -0.09749549
     atom  144 type  4   force =    -0.00563813   -0.01755582    0.02994724
     atom  145 type  4   force =    -0.04004519    0.03675985    0.01613976
     atom  146 type  4   force =    -0.02198862    0.01692874   -0.02252882
     atom  147 type  4   force =    -0.13172408   -0.04976176    0.03206809
     atom  148 type  4   force =     0.01366818   -0.02073318   -0.01293984
     atom  149 type  4   force =     0.06869611    0.03543198    0.01729622
     atom  150 type  4   force =    -0.06343360   -0.05299081   -0.01996067
     atom  151 type  4   force =     0.05091445    0.03690352    0.02456286
     atom  152 type  4   force =    -0.05806774    0.02461857    0.01508839
     atom  153 type  4   force =     0.07628115    0.01868301    0.07642290
     atom  154 type  4   force =    -0.09650623    0.00591381    0.00659885
     atom  155 type  4   force =    -0.01257149   -0.01430434   -0.00922012
     atom  156 type  4   force =    -0.05023005    0.04124999   -0.02246689
     atom  157 type  4   force =     0.04244233   -0.01073504   -0.00373020
     atom  158 type  4   force =     0.01338606    0.01212265   -0.02431508
     atom  159 type  4   force =     0.06700655    0.00745740   -0.05894531
     atom  160 type  4   force =     0.03938409   -0.08928143    0.01391925
     atom  161 type  4   force =     0.00298410   -0.02879887    0.07144758
     atom  162 type  4   force =     0.05272856    0.09495081    0.01522577
     atom  163 type  4   force =    -0.01538988    0.05823224   -0.01556965
     atom  164 type  4   force =     0.02449807    0.02902033    0.06696037
     atom  165 type  4   force =    -0.07484131    0.00984766    0.04938664
     atom  166 type  4   force =    -0.00159020   -0.10198314    0.00497614
     atom  167 type  4   force =    -0.03908714   -0.03994978   -0.01511429
     atom  168 type  4   force =     0.01697331   -0.18441873    0.05852793
     atom  169 type  4   force =     0.05237491    0.04497325   -0.09519820
     atom  170 type  4   force =     0.02788770   -0.04779215   -0.03582295
     atom  171 type  4   force =     0.01258408   -0.01692221    0.00344711
     atom  172 type  4   force =    -0.07000097    0.01238584   -0.04382035
     atom  173 type  4   force =    -0.03893629    0.00695912   -0.02538900
     atom  174 type  4   force =     0.05688291    0.08600324    0.01830014
     atom  175 type  4   force =     0.01311635    0.04181484    0.00305022
     atom  176 type  4   force =     0.03787676   -0.00544027    0.02526902
     atom  177 type  4   force =     0.06407894   -0.00447294   -0.00822353
     atom  178 type  4   force =    -0.00366883    0.03661864    0.04552562
     atom  179 type  4   force =    -0.01193860    0.02843784    0.00307629
     atom  180 type  4   force =    -0.05735673    0.00565003   -0.00722175
     atom  181 type  4   force =     0.00000436   -0.00050311    0.09596676
     atom  182 type  4   force =    -0.02451314   -0.06136577    0.05016843
     atom  183 type  4   force =    -0.03320619    0.10698328   -0.05872589
     atom  184 type  4   force =     0.01827236   -0.01126076    0.05177311
     atom  185 type  4   force =     0.04930920   -0.03491131   -0.01729855
     atom  186 type  4   force =    -0.01141106   -0.01728252    0.00172054
     atom  187 type  4   force =    -0.02765101   -0.01187506    0.05042129
     atom  188 type  4   force =    -0.02036061   -0.01785924   -0.04714248
     atom  189 type  4   force =    -0.01980878    0.03517895   -0.00048343
     atom  190 type  4   force =     0.05861128   -0.03610291    0.00664347
     atom  191 type  4   force =    -0.01862741   -0.00332432   -0.00642494
     atom  192 type  4   force =    -0.03514275    0.02414364   -0.03098493
     atom  193 type  4   force =     0.03629433   -0.06467501    0.02192040
     atom  194 type  4   force =    -0.04962076    0.00127733   -0.00628508
     atom  195 type  4   force =    -0.01035307   -0.00591150    0.01821784
     atom  196 type  4   force =     0.00238512   -0.02552156   -0.06107354
     atom  197 type  4   force =     0.00924055    0.01572895   -0.00009153
     atom  198 type  4   force =    -0.03842121    0.04139403   -0.01356935
     atom  199 type  4   force =     0.00810884   -0.02590748    0.00623781
     atom  200 type  4   force =    -0.00958758   -0.03602884    0.05784579
     atom  201 type  4   force =    -0.01077303   -0.04755820   -0.02853074
     atom  202 type  4   force =     0.01616167    0.01501481    0.04158030
     atom  203 type  4   force =    -0.05687989   -0.05914900   -0.10307111
     atom  204 type  4   force =    -0.00238778    0.01816130    0.06244993
     atom  205 type  4   force =     0.01019082    0.07387307   -0.01370437
     atom  206 type  4   force =    -0.04070512   -0.03142962   -0.04466710
     atom  207 type  4   force =    -0.00476075   -0.03031842    0.03542823
     atom  208 type  4   force =    -0.00080512    0.01181995   -0.01008410
     atom  209 type  4   force =    -0.04448794    0.03165002   -0.05082834
     atom  210 type  4   force =    -0.01134519    0.01307301   -0.05116980
     atom  211 type  4   force =    -0.00055142   -0.03486275   -0.05655223
     atom  212 type  4   force =     0.04269040   -0.03963801   -0.03309181
     atom  213 type  4   force =     0.04284890   -0.14884347   -0.08359897
     atom  214 type  4   force =     0.05174802    0.06495146   -0.05766613
     atom  215 type  4   force =    -0.02669598   -0.02922316    0.00518473
     atom  216 type  4   force =    -0.02212715    0.07576937    0.04092107
     atom  217 type  4   force =    -0.02416535    0.03766011   -0.04189302
     atom  218 type  4   force =     0.01492339    0.02516289   -0.00786145
     atom  219 type  4   force =    -0.04400264   -0.04015970   -0.00917833
     atom  220 type  4   force =     0.01257837   -0.04150596    0.02298539
     atom  221 type  4   force =    -0.00425116    0.03039091    0.06496612
     atom  222 type  4   force =     0.10394226   -0.01658256    0.00584665
     atom  223 type  4   force =     0.02174579    0.08581583   -0.05088526
     atom  224 type  4   force =     0.03970287    0.02491896   -0.01336247
     atom  225 type  4   force =     0.06108661    0.04951445   -0.00337888
     atom  226 type  4   force =     0.02008485   -0.02509010    0.02085235
     atom  227 type  4   force =    -0.02258960    0.05201038    0.04183971
     atom  228 type  4   force =     0.00321013   -0.01707612   -0.02722468
     atom  229 type  4   force =     0.01366722    0.00007535    0.05421450
     atom  230 type  4   force =     0.05291321    0.04904802   -0.00149214
     atom  231 type  4   force =     0.04261152   -0.02084381    0.07113753
     atom  232 type  4   force =     0.04275623   -0.06427502   -0.00877673
     atom  233 type  4   force =     0.03887881    0.05820938    0.02899155
     atom  234 type  4   force =    -0.03301053   -0.05979197   -0.11440119
     atom  235 type  4   force =    -0.01906176    0.15893339   -0.01445799
     atom  236 type  4   force =     0.08810596   -0.01638144   -0.04577937
     atom  237 type  4   force =     0.00622218    0.00679064    0.01215462
     atom  238 type  4   force =    -0.01092693   -0.01290642    0.04264625
     atom  239 type  4   force =     0.01919003   -0.03609969    0.00733704
     atom  240 type  4   force =     0.07764000    0.03085146    0.02821881
     atom  241 type  4   force =     0.03122672   -0.01970253   -0.00491086
     atom  242 type  4   force =    -0.20380155   -0.02968002    0.07895904
     atom  243 type  4   force =     0.02977514    0.00103911    0.02048106
     atom  244 type  4   force =    -0.05116761   -0.00159959   -0.04531181
     atom  245 type  4   force =    -0.01910592   -0.02916667   -0.09476853
     atom  246 type  4   force =     0.02444022   -0.00899198   -0.03123002
     atom  247 type  4   force =    -0.00637741   -0.01713283   -0.06720151
     atom  248 type  4   force =    -0.01646437    0.03025173    0.05882865
     atom  249 type  4   force =     0.03809575    0.02612049   -0.06221385
     atom  250 type  4   force =    -0.08196822   -0.01669031    0.00423103
     atom  251 type  4   force =    -0.00779523   -0.00392113   -0.01947537
     atom  252 type  4   force =    -0.07120312    0.01911742   -0.05253409
     atom  253 type  4   force =     0.00126638   -0.04522734   -0.11031063
     atom  254 type  4   force =    -0.09099954    0.01338162   -0.01473728
     atom  255 type  4   force =     0.01625398   -0.01882791    0.02041347
     atom  256 type  4   force =     0.03191989   -0.00805026    0.03526261
     atom  257 type  4   force =     0.02693022   -0.02500566    0.03379575
     atom  258 type  4   force =     0.00067112    0.01268869   -0.02908301
     atom  259 type  4   force =     0.04800289    0.01503337   -0.00891417
     atom  260 type  4   force =    -0.04569542   -0.01157348   -0.06089892
     atom  261 type  4   force =     0.04149790    0.02793973   -0.03942620
     atom  262 type  4   force =    -0.05542822   -0.01090922    0.04589479
     atom  263 type  4   force =     0.09666723   -0.02642882    0.01775643
     atom  264 type  4   force =    -0.04573284    0.04260928   -0.02251188
     atom  265 type  4   force =     0.02488083    0.01511101   -0.03966283
     atom  266 type  4   force =     0.02701206    0.02036542   -0.04799988
     atom  267 type  4   force =     0.07752627   -0.00409702   -0.04290193
     atom  268 type  4   force =     0.02718532   -0.04396389   -0.03137209
     atom  269 type  4   force =    -0.01663170   -0.06669643    0.00511324
     atom  270 type  4   force =    -0.07175107   -0.01325069   -0.02962806
     atom  271 type  4   force =     0.06966559    0.01181644    0.00873639
     atom  272 type  4   force =     0.02761721    0.05489367   -0.01275721
     atom  273 type  4   force =     0.00244934   -0.00629159    0.04774098
     atom  274 type  4   force =    -0.02439317    0.00274171    0.02712664
     atom  275 type  4   force =    -0.01182536   -0.02057624    0.01821610
     atom  276 type  4   force =     0.04365410    0.07912762    0.06967436
     atom  277 type  4   force =     0.02662861   -0.01173880   -0.07655281
     atom  278 type  4   force =    -0.02158564    0.06310266    0.04437412
     atom  279 type  4   force =    -0.01201772   -0.02157627    0.00405915
     atom  280 type  4   force =    -0.02691893    0.05673397    0.00961286
     atom  281 type  4   force =     0.04153468    0.03154914    0.04330534
     atom  282 type  4   force =     0.03673744   -0.05135922    0.01537204
     atom  283 type  4   force =     0.00389007   -0.06522965   -0.03210387
     atom  284 type  4   force =     0.07186613   -0.05371998   -0.03047816
     atom  285 type  4   force =     0.01850913   -0.01658637    0.01461510
     atom  286 type  4   force =    -0.11848632   -0.02982284   -0.06913159
     atom  287 type  4   force =    -0.01622422   -0.00173515    0.04449127
     atom  288 type  4   force =     0.06712382   -0.00380985   -0.05576899
     atom  289 type  4   force =     0.02104861    0.09130923   -0.02689337
     atom  290 type  4   force =     0.10190021   -0.05825781   -0.11028258
     atom  291 type  4   force =    -0.03016932    0.01410624   -0.01573980
     atom  292 type  4   force =    -0.01947387   -0.01130491    0.01437461
     atom  293 type  4   force =    -0.00654765   -0.02629555   -0.04963789
     atom  294 type  4   force =     0.08009447   -0.02996574    0.16784646
     atom  295 type  4   force =    -0.05386098    0.06400921    0.06798831
     atom  296 type  4   force =    -0.05992251    0.01919305    0.03734918
     atom  297 type  4   force =    -0.01779221    0.01402255   -0.02421783
     atom  298 type  4   force =     0.01307967    0.01330243    0.01797500
     atom  299 type  4   force =    -0.06684771   -0.14500516   -0.02685434
     atom  300 type  4   force =    -0.01170349   -0.05288752   -0.03407881
     atom  301 type  4   force =    -0.07376331    0.03966557    0.02584995
     atom  302 type  4   force =     0.00574928    0.12646238    0.11051765
     atom  303 type  4   force =    -0.01420837   -0.02292397   -0.03985564
     atom  304 type  4   force =    -0.03902621   -0.00156668    0.01111406
     atom  305 type  4   force =    -0.03631614   -0.01652249    0.00702870
     atom  306 type  4   force =     0.00811349    0.01576973   -0.05868470
     atom  307 type  4   force =     0.02343133    0.02016427    0.04236967
     atom  308 type  4   force =     0.00972916    0.00088091   -0.05119050
     atom  309 type  4   force =     0.00197364   -0.02058151    0.01392902
     atom  310 type  4   force =     0.09236216   -0.00427115    0.11082254
     atom  311 type  4   force =    -0.03272874   -0.01337539    0.01155719
     atom  312 type  4   force =    -0.02337508    0.02161167    0.01459913
     atom  313 type  4   force =     0.01429958   -0.08718843    0.01947225
     atom  314 type  4   force =    -0.04567254    0.01305410   -0.02392855
     atom  315 type  4   force =    -0.01722521   -0.00382646   -0.02787882
     atom  316 type  4   force =    -0.00558944   -0.00388771    0.01814224
     atom  317 type  4   force =    -0.00177118    0.06900186    0.03999546
     atom  318 type  4   force =     0.04035091    0.00254035   -0.01754612
     atom  319 type  4   force =    -0.02971370   -0.01473299   -0.06110368
     atom  320 type  4   force =     0.04262968   -0.01853991   -0.02674219
     atom  321 type  4   force =    -0.02604991    0.12866450    0.03794442
     atom  322 type  4   force =     0.02388993    0.01092110   -0.06530751
     atom  323 type  4   force =     0.03553040   -0.03558658    0.04990529
     atom  324 type  4   force =     0.05217088    0.00488136   -0.02323311
     atom  325 type  4   force =     0.03440917   -0.02324321   -0.02832552
     atom  326 type  4   force =    -0.00823599    0.11664690    0.05599998
     atom  327 type  4   force =     0.04743029    0.04959601   -0.03978116
     atom  328 type  4   force =     0.02052498    0.00099905   -0.01994656
     atom  329 type  4   force =     0.10558358    0.01069556    0.01855316
     atom  330 type  4   force =     0.02370004   -0.03657692   -0.05447666
     atom  331 type  4   force =     0.03238053    0.04218362   -0.00806913
     atom  332 type  4   force =     0.02197609    0.05072505   -0.01244918
     atom  333 type  4   force =    -0.05389543   -0.05589608    0.02742199
     atom  334 type  4   force =     0.02377600    0.04554180   -0.02794045
     atom  335 type  4   force =     0.06794216    0.02175806   -0.02189590
     atom  336 type  4   force =    -0.03942479   -0.03108338   -0.04391401
     atom  337 type  4   force =    -0.00473982   -0.00473902   -0.02315281
     atom  338 type  4   force =    -0.05726822    0.04317582   -0.01898879
     atom  339 type  5   force =    -0.02046874    0.02373468    0.03466652
     atom  340 type  5   force =     0.00642965   -0.02889985    0.02820132
     atom  341 type  6   force =     0.02465005    0.00339301   -0.00068613
     atom  342 type  6   force =    -0.02448842   -0.00333836    0.00066632
     atom  343 type  6   force =     0.00402714   -0.04082051   -0.00240224
     atom  344 type  6   force =     0.00703535   -0.04050767   -0.00238645
     atom  345 type  6   force =    -0.00680664    0.04060243    0.00260128
     atom  346 type  6   force =    -0.00425845    0.04083654    0.00270559
     atom  347 type  6   force =     0.02796880    0.02135337    0.00079170
     atom  348 type  6   force =    -0.03261723    0.01312824    0.00180561
     atom  349 type  6   force =     0.03269745   -0.01316506   -0.00158929
     atom  350 type  6   force =    -0.02826306   -0.02137579   -0.00034157
     atom  351 type  7   force =     0.00292493    0.00575000    0.00007096
     atom  352 type  7   force =    -0.00419706    0.00478061    0.00021294
     atom  353 type  7   force =     0.00420734   -0.00479088   -0.00056508
     atom  354 type  7   force =    -0.00267082   -0.00570169   -0.00041319
     atom  355 type  7   force =     0.00388894   -0.00324015   -0.00049940
     atom  356 type  7   force =    -0.00285729   -0.00405695   -0.00033460
     atom  357 type  7   force =     0.00291115    0.00420052   -0.00001234
     atom  358 type  7   force =    -0.00386031    0.00317614    0.00010758

     Total force =     1.686391     Total SCF correction =     0.000163


     Computing stress (Cartesian axis) and pressure


     negative rho (up, down):  6.037E-02 0.000E+00
          total   stress  (Ry/bohr**3)                   (kbar)     P=        7.98
   0.00005261   0.00000155  -0.00000302            7.74        0.23       -0.44
   0.00000155   0.00006102   0.00000346            0.23        8.98        0.51
  -0.00000302   0.00000346   0.00004917           -0.44        0.51        7.23


     Writing all to output data dir ./outputs/pwscf.save/ :
     XML data file, charge density, pseudopotentials, collected wavefunctions
 
     init_run     :    146.51s CPU    150.54s WALL (       1 calls)
     electrons    :  77965.80s CPU  79342.89s WALL (       1 calls)
     forces       :     93.51s CPU     96.52s WALL (       1 calls)
     stress       :    353.63s CPU    358.50s WALL (       1 calls)

     Called by init_run:
     wfcinit      :    130.50s CPU    133.25s WALL (       1 calls)
     potinit      :      1.20s CPU      1.29s WALL (       1 calls)
     hinit0       :      1.43s CPU      1.48s WALL (       1 calls)

     Called by electrons:
     c_bands      :  65152.96s CPU  65957.58s WALL (     274 calls)
     sum_band     :  11519.51s CPU  11840.69s WALL (     274 calls)
     v_of_rho     :    125.05s CPU    129.96s WALL (     275 calls)
     newd         :    926.91s CPU   1168.20s WALL (     275 calls)
     PAW_pot      :    155.19s CPU    156.46s WALL (     275 calls)
     mix_rho      :     69.47s CPU     72.10s WALL (     274 calls)

     Called by c_bands:
     init_us_2    :    603.34s CPU    611.41s WALL (     550 calls)
     cegterg      :  64339.12s CPU  65129.73s WALL (     274 calls)

     Called by *egterg:
     cdiaghg      :    917.25s CPU    924.79s WALL (     596 calls)
     h_psi        :  35905.80s CPU  36270.88s WALL (     597 calls)
     s_psi        :  10787.27s CPU  10884.14s WALL (     597 calls)
     g_psi        :     41.44s CPU     41.97s WALL (     322 calls)

     Called by h_psi:
     h_psi:calbec :  10782.68s CPU  10850.41s WALL (     597 calls)
     vloc_psi     :  14287.92s CPU  14434.39s WALL (     597 calls)
                                        0.00s GPU  (     597 calls)
     add_vuspsi   :  10768.26s CPU  10854.97s WALL (     597 calls)

     General routines
     calbec       :  16458.28s CPU  16561.18s WALL (     888 calls)
     fft          :    133.41s CPU    139.07s WALL (    3598 calls)
     ffts         :     11.43s CPU     11.85s WALL (     549 calls)
     fftw         :  13843.47s CPU  13973.42s WALL ( 1546680 calls)
     interpolate  :     15.78s CPU     16.41s WALL (     275 calls)
 
     Parallel routines
 
     PWSCF        :     21h49m CPU     22h14m WALL

 
   This run was terminated on:  12:59:14  15Mar2026            

=------------------------------------------------------------------------------=
   JOB DONE.
=------------------------------------------------------------------------------=
