
     Program PWSCF v.7.5 starts on 13Mar2026 at  5:45:15 

     This program is part of the open-source Quantum ESPRESSO suite
     for quantum simulation of materials; please cite
         "P. Giannozzi et al., J. Phys.:Condens. Matter 21 395502 (2009);
         "P. Giannozzi et al., J. Phys.:Condens. Matter 29 465901 (2017);
         "P. Giannozzi et al., J. Chem. Phys. 152 154105 (2020);
          URL http://www.quantum-espresso.org", 
     in publications or presentations arising from this work. More details at
     http://www.quantum-espresso.org/quote

     Parallel version (MPI), running on    80 processors

     MPI processes distributed on     4 nodes
     79095 MiB available memory on the printing compute node when the environment starts
 
     Reading input from NaphthaleneOnGlassSite3Snapshot22.in
Warning: card &CELL ignored
Warning: card &FCP ignored
Warning: card &RISM ignored

     Current dimensions of program PWSCF are:
     Max number of different atomic species (ntypx) = 10
     Max number of k-points (npk) =  40000
     Max angular momentum in pseudopotentials (lmaxx) =  4
     file Na.paw.z_9.ld1.psl.v1.0.0-low.upf: wavefunction(s)  2P renormalized
     file O.pbe-n-kjpaw_psl.0.1.UPF: wavefunction(s)  2P renormalized
     file Al.pbe-n-kjpaw_psl.1.0.0.UPF: wavefunction(s)  3S 3P renormalized
     file C.pbe-n-kjpaw_psl.1.0.0.UPF: wavefunction(s)  2S 2P renormalized
 
     R & G space division:  proc/nbgrp/npool/nimage =      80
     Subspace diagonalization in iterative solution of the eigenvalue problem:
     one sub-group per band group will be used
     custom distributed-memory algorithm (size of sub-group:  8*  8 procs)

 
     Parallelization info
     --------------------
     sticks:   dense  smooth     PW     G-vecs:    dense   smooth      PW
     Min         450     400    100               199276   167008   20874
     Max         451     401    101               199303   167021   20885
     Sum       36073   32057   8021             15943719 13361281 1670237
 
     Using Slab Decomposition
 


     bravais-lattice index     =            0
     lattice parameter (alat)  =      35.4885  a.u.
     unit-cell volume          =  138228.4306 (a.u.)^3
     number of atoms/cell      =          358
     number of atomic types    =            7
     number of electrons       =      1872.00
     number of Kohn-Sham states=         1123
     kinetic-energy cutoff     =      80.0000  Ry
     charge density cutoff     =     360.0000  Ry
     scf convergence threshold =      1.0E-08
     mixing beta               =       0.1000
     number of iterations used =            8  plain     mixing
     Exchange-correlation= PBE
                           (   1   4   3   4   0   0   0)

     celldm(1)=  35.488539  celldm(2)=   0.000000  celldm(3)=   0.000000
     celldm(4)=   0.000000  celldm(5)=   0.000000  celldm(6)=   0.000000

     crystal axes: (cart. coord. in units of alat)
               a(1) = (   1.000000   0.000000   0.000000 )  
               a(2) = (   0.000000   1.000000   0.000000 )  
               a(3) = (   0.000000   0.000000   3.092666 )  

     reciprocal axes: (cart. coord. in units 2 pi/alat)
               b(1) = (  1.000000  0.000000  0.000000 )  
               b(2) = (  0.000000  1.000000  0.000000 )  
               b(3) = (  0.000000  0.000000  0.323346 )  


     PseudoPot. # 1 for Na read from file:
     /home/sabeel/VOCC_Simulation/pseudopotentials/SSSP_Precision/Na.paw.z_9.ld1.psl.v1.0.0-low.upf
     MD5 check sum: 32bccecb13d7399e6c7dae6fe6685ff0
     Pseudo is Projector augmented-wave + core cor, Zval =  9.0
     Generated using &quot;atomic&quot; code by A. Dal Corso  v.6.3MaX
     Shape of augmentation charge: PSQ
     Using radial grid of 1121 points,  4 beta functions with: 
                l(1) =   0
                l(2) =   0
                l(3) =   1
                l(4) =   1
     Q(r) pseudized with 0 coefficients 


     PseudoPot. # 2 for B  read from file:
     /home/sabeel/VOCC_Simulation/pseudopotentials/SSSP_Precision/B_pbe_v1.01.uspp.F.UPF
     MD5 check sum: d081ebb89d0c768e112975f650467a00
     Pseudo is Ultrasoft + core correction, Zval =  3.0
     Generated by new atomic code, or converted to UPF format
     Using radial grid of  781 points,  4 beta functions with: 
                l(1) =   0
                l(2) =   0
                l(3) =   1
                l(4) =   1
     Q(r) pseudized with  8 coefficients,  rinner =    1.100   1.100   1.100


     PseudoPot. # 3 for Si read from file:
     /home/sabeel/VOCC_Simulation/pseudopotentials/SSSP_Precision/Si.pbe-n-rrkjus_psl.1.0.0.UPF
     MD5 check sum: 0b0bb1205258b0d07b9f9672cf965d36
     Pseudo is Ultrasoft + core correction, Zval =  4.0
     Generated using "atomic" code by A. Dal Corso  v.5.1
     Using radial grid of 1141 points,  6 beta functions with: 
                l(1) =   0
                l(2) =   0
                l(3) =   1
                l(4) =   1
                l(5) =   2
                l(6) =   2
     Q(r) pseudized with 0 coefficients 


     PseudoPot. # 4 for O  read from file:
     /home/sabeel/VOCC_Simulation/pseudopotentials/SSSP_Precision/O.pbe-n-kjpaw_psl.0.1.UPF
     MD5 check sum: 0234752ac141de4415c5fc33072bef88
     Pseudo is Projector augmented-wave + core cor, Zval =  6.0
     Generated using "atomic" code by A. Dal Corso  v.5.0.99 svn rev. 10869
     Shape of augmentation charge: BESSEL
     Using radial grid of 1095 points,  4 beta functions with: 
                l(1) =   0
                l(2) =   0
                l(3) =   1
                l(4) =   1
     Q(r) pseudized with 0 coefficients 


     PseudoPot. # 5 for Al read from file:
     /home/sabeel/VOCC_Simulation/pseudopotentials/SSSP_Precision/Al.pbe-n-kjpaw_psl.1.0.0.UPF
     MD5 check sum: cfc449ca30b5f3223ec38ddd88ac046d
     Pseudo is Projector augmented-wave + core cor, Zval =  3.0
     Generated using "atomic" code by A. Dal Corso  v.5.1
     Shape of augmentation charge: PSQ
     Using radial grid of 1135 points,  6 beta functions with: 
                l(1) =   0
                l(2) =   0
                l(3) =   1
                l(4) =   1
                l(5) =   2
                l(6) =   2
     Q(r) pseudized with 0 coefficients 


     PseudoPot. # 6 for C  read from file:
     /home/sabeel/VOCC_Simulation/pseudopotentials/SSSP_Precision/C.pbe-n-kjpaw_psl.1.0.0.UPF
     MD5 check sum: 5d2aebdfa2cae82b50a7e79e9516da0f
     Pseudo is Projector augmented-wave + core cor, Zval =  4.0
     Generated using "atomic" code by A. Dal Corso  v.5.1
     Shape of augmentation charge: PSQ
     Using radial grid of 1073 points,  4 beta functions with: 
                l(1) =   0
                l(2) =   0
                l(3) =   1
                l(4) =   1
     Q(r) pseudized with 0 coefficients 


     PseudoPot. # 7 for H  read from file:
     /home/sabeel/VOCC_Simulation/pseudopotentials/SSSP_Precision/H_ONCV_PBE-1.0.oncvpsp.upf
     MD5 check sum: 1790becc920ee074925cf490c71280fe
     Pseudo is Norm-conserving, Zval =  1.0
     Generated using ONCVPSP code by D. R. Hamann
     Using radial grid of 1166 points,  2 beta functions with: 
                l(1) =   0
                l(2) =   0

     atomic species   valence    mass     pseudopotential
     Na                9.00    22.98977     Na( 1.00)
     B                 3.00    10.81000     B ( 1.00)
     Si                4.00    28.08500     Si( 1.00)
     O                 6.00    15.99900     O ( 1.00)
     Al                3.00    26.98154     Al( 1.00)
     C                 4.00    12.01100     C ( 1.00)
     H                 1.00     1.00800     H ( 1.00)

     No symmetry found



   Cartesian axes

     site n.     atom                  positions (alat units)
         1        Na     tau(   1) = (   0.2476327   0.1287261   1.4401902  )
         2        Na     tau(   2) = (   0.2347070   0.3964799   1.8357059  )
         3        Na     tau(   3) = (   0.2580766   0.4457236   1.6551511  )
         4        Na     tau(   4) = (   0.0484944   0.0277893   1.6277847  )
         5        Na     tau(   5) = (   0.2352313   0.0813062   1.2863150  )
         6        Na     tau(   6) = (   0.0747243   0.2371463   1.1982473  )
         7        Na     tau(   7) = (   0.1133306   0.7698962   1.8611434  )
         8        Na     tau(   8) = (   0.9037110   0.1954209   1.2700780  )
         9        Na     tau(   9) = (   0.5181841   0.1014052   1.4940734  )
        10        Na     tau(  10) = (   0.3803624   0.0140251   1.8302637  )
        11        Na     tau(  11) = (   0.3545179   0.4989222   1.3772145  )
        12        B      tau(  12) = (   0.9565860   0.6559989   1.4661680  )
        13        B      tau(  13) = (   0.3779039   0.3190213   1.8506233  )
        14        B      tau(  14) = (   0.6357433   0.7757670   1.3375748  )
        15        B      tau(  15) = (   0.9958362   0.0827877   1.8476266  )
        16        B      tau(  16) = (   0.6987179   0.5586979   1.3943070  )
        17        B      tau(  17) = (   0.0903279   0.5997535   1.2200041  )
        18        B      tau(  18) = (   0.9460845   0.5017876   1.4754679  )
        19        B      tau(  19) = (   0.0032347   0.0527127   1.2839437  )
        20        B      tau(  20) = (   0.1241012   0.5940167   1.6016841  )
        21        B      tau(  21) = (   0.4174729   0.9198072   1.5541475  )
        22        B      tau(  22) = (   0.4638227   0.9107282   1.2322731  )
        23        B      tau(  23) = (   0.5096053   0.7092947   1.5000083  )
        24        B      tau(  24) = (   0.4035376   0.9367665   1.6900270  )
        25        B      tau(  25) = (   0.7132674   0.8560217   1.2558196  )
        26        B      tau(  26) = (   0.2579773   0.4217781   1.2874388  )
        27        B      tau(  27) = (   0.1862793   0.2338812   1.3576537  )
        28        B      tau(  28) = (   0.2134919   0.3664862   1.5073156  )
        29        B      tau(  29) = (   0.3546252   0.0462610   1.5293894  )
        30        B      tau(  30) = (   0.8082206   0.9504483   1.6218439  )
        31        B      tau(  31) = (   0.4915043   0.5408159   1.2913026  )
        32        B      tau(  32) = (   0.2471486   0.9450605   1.4099193  )
        33        B      tau(  33) = (   0.7089246   0.1566090   1.6669558  )
        34        B      tau(  34) = (   0.4858908   0.1745693   1.3498737  )
        35        Si     tau(  35) = (   0.5740761   0.3686341   1.4981594  )
        36        Si     tau(  36) = (   0.9600416   0.6521543   1.2713743  )
        37        Si     tau(  37) = (   0.8029666   0.9237355   1.4090604  )
        38        Si     tau(  38) = (   0.6589027   0.0111466   1.4303706  )
        39        Si     tau(  39) = (   0.7148031   0.8518694   1.6658713  )
        40        Si     tau(  40) = (   0.4062844   0.4370669   1.7000479  )
        41        Si     tau(  41) = (   0.8652299   0.0194200   1.2866760  )
        42        Si     tau(  42) = (   0.8792462   0.4724358   1.3313926  )
        43        Si     tau(  43) = (   0.9761010   0.8191325   1.3004490  )
        44        Si     tau(  44) = (   0.0927580   0.6000365   1.4532062  )
        45        Si     tau(  45) = (   0.8492038   0.6801733   1.8429896  )
        46        Si     tau(  46) = (   0.7648638   0.9759642   1.8781504  )
        47        Si     tau(  47) = (   0.8282769   0.9005504   1.7531841  )
        48        Si     tau(  48) = (   0.2400871   0.2615564   1.6009290  )
        49        Si     tau(  49) = (   0.0782160   0.8578516   1.7113893  )
        50        Si     tau(  50) = (   0.1793983   0.5421597   1.3229395  )
        51        Si     tau(  51) = (   0.3045589   0.3154693   1.3856788  )
        52        Si     tau(  52) = (   0.1868342   0.9496617   1.8144358  )
        53        Si     tau(  53) = (   0.5597482   0.9942014   1.8563540  )
        54        Si     tau(  54) = (   0.3283405   0.8654915   1.7979255  )
        55        Si     tau(  55) = (   0.3944303   0.1342286   1.2558232  )
        56        Si     tau(  56) = (   0.5556116   0.4029995   1.7688172  )
        57        Si     tau(  57) = (   0.8886951   0.0519111   1.5515978  )
        58        Si     tau(  58) = (   0.9177874   0.8266438   1.8602018  )
        59        Si     tau(  59) = (   0.5141592   0.7513592   1.7304853  )
        60        Si     tau(  60) = (   0.6200680   0.7296116   1.5975635  )
        61        Si     tau(  61) = (   0.4531771   0.2653855   1.4551164  )
        62        Si     tau(  62) = (   0.9530092   0.1910999   1.6203079  )
        63        Si     tau(  63) = (   0.9806318   0.2594417   1.4695044  )
        64        Si     tau(  64) = (   0.1810221   0.5658568   1.7318917  )
        65        Si     tau(  65) = (   0.2276537   0.6624309   1.2309086  )
        66        Si     tau(  66) = (   0.7086066   0.3068958   1.4624957  )
        67        Si     tau(  67) = (   0.7573617   0.5008676   1.2102682  )
        68        Si     tau(  68) = (   0.0630774   0.5052222   1.8068999  )
        69        Si     tau(  69) = (   0.9531780   0.4208941   1.7332624  )
        70        Si     tau(  70) = (   0.8429520   0.6341042   1.3864806  )
        71        Si     tau(  71) = (   0.8255070   0.2513717   1.7092992  )
        72        Si     tau(  72) = (   0.4660404   0.3166643   1.5999861  )
        73        Si     tau(  73) = (   0.3218087   0.1696541   1.7095271  )
        74        Si     tau(  74) = (   0.6054871   0.0864265   1.2929813  )
        75        Si     tau(  75) = (   0.4402609   0.0821865   1.6559030  )
        76        Si     tau(  76) = (   0.3770531   0.0317907   1.3941734  )
        77        Si     tau(  77) = (   0.5059912   0.8072476   1.3243503  )
        78        Si     tau(  78) = (   0.6069382   0.5044701   1.6609957  )
        79        Si     tau(  79) = (   0.6370349   0.4244534   1.3741369  )
        80        Si     tau(  80) = (   0.6855674   0.7078304   1.8645318  )
        81        Si     tau(  81) = (   0.0765130   0.9298841   1.2314627  )
        82        Si     tau(  82) = (   0.9863684   0.4054382   1.2235204  )
        83        Si     tau(  83) = (   0.4950631   0.2585395   1.7548401  )
        84        Si     tau(  84) = (   0.5719431   0.1160579   1.7357262  )
        85        Si     tau(  85) = (   0.3566442   0.7389475   1.7027041  )
        86        Si     tau(  86) = (   0.5887626   0.6478135   1.7482870  )
        87        Si     tau(  87) = (   0.3778403   0.4701707   1.1981005  )
        88        Si     tau(  88) = (   0.7705746   0.7745811   1.3546535  )
        89        Si     tau(  89) = (   0.6353056   0.3899359   1.2194797  )
        90        Si     tau(  90) = (   0.3199297   0.6027545   1.8036004  )
        91        Si     tau(  91) = (   0.6901246   0.5787282   1.5496775  )
        92        Si     tau(  92) = (   0.1108815   0.9857043   1.4484254  )
        93        Si     tau(  93) = (   0.0087222   0.8101075   1.4596435  )
        94        Si     tau(  94) = (   0.4662737   0.5842118   1.4387730  )
        95        Si     tau(  95) = (   0.1497603   0.1150345   1.8191784  )
        96        Si     tau(  96) = (   0.9119816   0.9073773   1.5284091  )
        97        Si     tau(  97) = (   0.5081777   0.9347421   1.4393654  )
        98        Si     tau(  98) = (   0.9733658   0.9480751   1.7929925  )
        99        Si     tau(  99) = (   0.2449909   0.7736475   1.5958723  )
       100        Si     tau( 100) = (   0.2568298   0.7840856   1.3334763  )
       101        Si     tau( 101) = (   0.1600543   0.7576293   1.4557816  )
       102        Si     tau( 102) = (   0.9190690   0.2974838   1.8287833  )
       103        Si     tau( 103) = (   0.8499270   0.3745654   1.6104514  )
       104        Si     tau( 104) = (   0.8444491   0.5369054   1.7673517  )
       105        Si     tau( 105) = (   0.1203187   0.1732756   1.6597012  )
       106        Si     tau( 106) = (   0.6321686   0.6005607   1.2681838  )
       107        Si     tau( 107) = (   0.6235724   0.8470731   1.8048529  )
       108        Si     tau( 108) = (   0.7501132   0.1202716   1.2309056  )
       109        Si     tau( 109) = (   0.2746484   0.2046900   1.8670863  )
       110        Si     tau( 110) = (   0.2273259   0.0646953   1.6216725  )
       111        Si     tau( 111) = (   0.0729274   0.4042159   1.4579120  )
       112        Si     tau( 112) = (   0.6640697   0.1601480   1.5162335  )
       113        Si     tau( 113) = (   0.1226817   0.7031938   1.6887692  )
       114        Si     tau( 114) = (   0.8406300   0.5276586   1.5875131  )
       115        Si     tau( 115) = (   0.8389500   0.3149315   1.3901795  )
       116        Si     tau( 116) = (   0.1722727   0.9211130   1.5953570  )
       117        Si     tau( 117) = (   0.0763504   0.1375521   1.3930086  )
       118        Si     tau( 118) = (   0.3256209   0.9115638   1.2548481  )
       119        Si     tau( 119) = (   0.3955849   0.7224945   1.4035300  )
       120        Si     tau( 120) = (   0.4652418   0.5499611   1.5942954  )
       121        Si     tau( 121) = (   0.1212618   0.3651412   1.3045003  )
       122        O      tau( 122) = (   0.0295168   0.4481121   1.8630498  )
       123        O      tau( 123) = (   0.8632305   0.7660730   1.8351295  )
       124        O      tau( 124) = (   0.7865379   0.5198677   1.8292109  )
       125        O      tau( 125) = (   0.7687039   0.8065522   1.2712216  )
       126        O      tau( 126) = (   0.2613316   0.2462125   1.3627201  )
       127        O      tau( 127) = (   0.4383841   0.2721051   1.5384261  )
       128        O      tau( 128) = (   0.4075804   0.9041606   1.6244717  )
       129        O      tau( 129) = (   0.2891632   0.9821156   1.2266374  )
       130        O      tau( 130) = (   0.3003666   0.1796727   1.7902854  )
       131        O      tau( 131) = (   0.5973279   0.4225163   1.2949590  )
       132        O      tau( 132) = (   0.5334428   0.5020140   1.6146071  )
       133        O      tau( 133) = (   0.2755656   0.1058719   1.6786020  )
       134        O      tau( 134) = (   0.1545595   0.1075181   1.6150265  )
       135        O      tau( 135) = (   0.1198242   0.5723265   1.5291309  )
       136        O      tau( 136) = (   0.5826608   0.7211316   1.6806210  )
       137        O      tau( 137) = (   0.4384820   0.7620469   1.6969890  )
       138        O      tau( 138) = (   0.3813441   0.2977472   1.4178316  )
       139        O      tau( 139) = (   0.9518571   0.2429557   1.5505285  )
       140        O      tau( 140) = (   0.6668767   0.5177678   1.6031137  )
       141        O      tau( 141) = (   0.1520770   0.1695411   1.3620472  )
       142        O      tau( 142) = (   0.6925009   0.7509516   1.3753791  )
       143        O      tau( 143) = (   0.1434568   0.6580895   1.2139172  )
       144        O      tau( 144) = (   0.4761486   0.9028411   1.5138988  )
       145        O      tau( 145) = (   0.0631356   0.5782061   1.8492954  )
       146        O      tau( 146) = (   0.5876332   0.4146284   1.8503125  )
       147        O      tau( 147) = (   0.1071621   0.8902567   1.6361869  )
       148        O      tau( 148) = (   0.0331486   0.1967754   1.4407710  )
       149        O      tau( 149) = (   0.9443941   0.9810288   1.5588672  )
       150        O      tau( 150) = (   0.5485694   0.5774714   1.2625723  )
       151        O      tau( 151) = (   0.6090489   0.9225244   1.8421140  )
       152        O      tau( 152) = (   0.3184350   0.7927686   1.7545505  )
       153        O      tau( 153) = (   0.2965868   0.2359092   1.6579206  )
       154        O      tau( 154) = (   0.3399948   0.4149078   1.7451441  )
       155        O      tau( 155) = (   0.6583099   0.3076783   1.2358723  )
       156        O      tau( 156) = (   0.5620926   0.7442927   1.5385442  )
       157        O      tau( 157) = (   0.5556976   0.3175372   1.7688381  )
       158        O      tau( 158) = (   0.3525972   0.6632019   1.7471104  )
       159        O      tau( 159) = (   0.9620412   0.3446718   1.7697440  )
       160        O      tau( 160) = (   0.5313272   0.1848172   1.7709556  )
       161        O      tau( 161) = (   0.9429693   0.0183272   1.3239474  )
       162        O      tau( 162) = (   0.4858005   0.9533180   1.8755890  )
       163        O      tau( 163) = (   0.3657073   0.5328581   1.8345358  )
       164        O      tau( 164) = (   0.4406081   0.5066782   1.2484323  )
       165        O      tau( 165) = (   0.3135028   0.2834622   1.8690668  )
       166        O      tau( 166) = (   0.7907911   0.8360261   1.7119523  )
       167        O      tau( 167) = (   0.7289290   0.9234833   1.2340123  )
       168        O      tau( 168) = (   0.1454692   0.2885690   1.3267456  )
       169        O      tau( 169) = (   0.3914991   0.9066251   1.7575926  )
       170        O      tau( 170) = (   0.7079875   0.2222935   1.4707635  )
       171        O      tau( 171) = (   0.9743698   0.8515159   1.5269402  )
       172        O      tau( 172) = (   0.1330105   0.5361140   1.2470617  )
       173        O      tau( 173) = (   0.5827735   0.0420994   1.2254729  )
       174        O      tau( 174) = (   0.8602910   0.6220068   1.7811976  )
       175        O      tau( 175) = (   0.5252483   0.6418342   1.4684534  )
       176        O      tau( 176) = (   0.6556139   0.6691234   1.7930720  )
       177        O      tau( 177) = (   0.9478947   0.4555202   1.2814895  )
       178        O      tau( 178) = (   0.9699578   0.0766966   1.2188133  )
       179        O      tau( 179) = (   0.5480526   0.8088247   1.7836236  )
       180        O      tau( 180) = (   0.3152477   0.7447790   1.3880620  )
       181        O      tau( 181) = (   0.1477991   0.6460434   1.7450578  )
       182        O      tau( 182) = (   0.4226375   0.0083615   1.6949577  )
       183        O      tau( 183) = (   0.5004654   0.8461638   1.2447985  )
       184        O      tau( 184) = (   0.7864920   0.8423242   1.4036977  )
       185        O      tau( 185) = (   0.9046070   0.6136339   1.3286598  )
       186        O      tau( 186) = (   0.1308852   0.5564651   1.3912596  )
       187        O      tau( 187) = (   0.0181193   0.9388870   1.8632981  )
       188        O      tau( 188) = (   0.5236768   0.3172741   1.4469420  )
       189        O      tau( 189) = (   0.6771903   0.1363695   1.2729556  )
       190        O      tau( 190) = (   0.5668565   0.7520726   1.3411952  )
       191        O      tau( 191) = (   0.4390184   0.1054952   1.8920128  )
       192        O      tau( 192) = (   0.2801127   0.0556319   1.5537880  )
       193        O      tau( 193) = (   0.9517833   0.2240015   1.8530263  )
       194        O      tau( 194) = (   0.4078786   0.5134087   1.6517908  )
       195        O      tau( 195) = (   0.6735166   0.7941076   1.8547702  )
       196        O      tau( 196) = (   0.7896414   0.2674110   1.3392843  )
       197        O      tau( 197) = (   0.9136500   0.5214282   1.5392122  )
       198        O      tau( 198) = (   0.5881526   0.4350093   1.4460280  )
       199        O      tau( 199) = (   0.7745755   0.5842257   1.3844862  )
       200        O      tau( 200) = (   0.2034896   0.9862494   1.6415920  )
       201        O      tau( 201) = (   0.1233221   0.6813655   1.4530684  )
       202        O      tau( 202) = (   0.7937827   0.3272627   1.4639956  )
       203        O      tau( 203) = (   0.4473563   0.5396589   1.5104804  )
       204        O      tau( 204) = (   0.6542799   0.3403998   1.5182787  )
       205        O      tau( 205) = (   0.8234572   0.7113307   1.3622509  )
       206        O      tau( 206) = (   0.8127487   0.4431771   1.5824090  )
       207        O      tau( 207) = (   0.5134106   0.6764784   1.7758121  )
       208        O      tau( 208) = (   0.1836556   0.7783442   1.3761575  )
       209        O      tau( 209) = (   0.8104766   0.3105590   1.6473803  )
       210        O      tau( 210) = (   0.3044033   0.9850075   1.3843284  )
       211        O      tau( 211) = (   0.1301504   0.8965179   1.7717389  )
       212        O      tau( 212) = (   0.3197141   0.1653364   1.2298596  )
       213        O      tau( 213) = (   0.4699233   0.1934200   1.4196372  )
       214        O      tau( 214) = (   0.2809558   0.8612246   1.3097159  )
       215        O      tau( 215) = (   0.4264163   0.2824703   1.8051299  )
       216        O      tau( 216) = (   0.6599679   0.6539216   1.5790006  )
       217        O      tau( 217) = (   0.7349642   0.9291111   1.6364595  )
       218        O      tau( 218) = (   0.0099961   0.4612132   1.4800917  )
       219        O      tau( 219) = (   0.5892025   0.1978638   1.5290320  )
       220        O      tau( 220) = (   0.0485841   0.8646896   1.2765110  )
       221        O      tau( 221) = (   0.9732948   0.8322736   1.3845405  )
       222        O      tau( 222) = (   0.4005127   0.1467648   1.7001924  )
       223        O      tau( 223) = (   0.8561165   0.3880932   1.3551362  )
       224        O      tau( 224) = (   0.1908703   0.7320545   1.6493092  )
       225        O      tau( 225) = (   0.5316561   0.3624401   1.5720686  )
       226        O      tau( 226) = (   0.6407674   0.0341441   1.3503554  )
       227        O      tau( 227) = (   0.2507360   0.3493753   1.4464087  )
       228        O      tau( 228) = (   0.5138994   0.8709061   1.3834646  )
       229        O      tau( 229) = (   0.9079300   0.5013233   1.4088368  )
       230        O      tau( 230) = (   0.4395504   0.1937154   1.2966161  )
       231        O      tau( 231) = (   0.2308999   0.6103161   1.2990312  )
       232        O      tau( 232) = (   0.3685013   0.9700313   1.5258447  )
       233        O      tau( 233) = (   0.8514985   0.9494698   1.6877232  )
       234        O      tau( 234) = (   0.0187499   0.4824011   1.7364241  )
       235        O      tau( 235) = (   0.2414021   0.3421124   1.5740169  )
       236        O      tau( 236) = (   0.6097970   0.4413714   1.7163163  )
       237        O      tau( 237) = (   0.4788214   0.4352721   1.7472383  )
       238        O      tau( 238) = (   0.1395403   0.9630524   1.5257738  )
       239        O      tau( 239) = (   0.3787358   0.0784353   1.3203646  )
       240        O      tau( 240) = (   0.5839692   0.9685892   1.4551464  )
       241        O      tau( 241) = (   0.9110607   0.6557788   1.2003494  )
       242        O      tau( 242) = (   0.0686474   0.1043740   1.8437037  )
       243        O      tau( 243) = (   0.1460976   0.3999842   1.5060950  )
       244        O      tau( 244) = (   0.4166165   0.3782170   1.6358330  )
       245        O      tau( 245) = (   0.0075933   0.9084354   1.7265037  )
       246        O      tau( 246) = (   0.8482460   0.9888286   1.2074661  )
       247        O      tau( 247) = (   0.6787187   0.3475581   1.3906861  )
       248        O      tau( 248) = (   0.2793975   0.6318760   1.8700688  )
       249        O      tau( 249) = (   0.1753735   0.9662414   1.3957977  )
       250        O      tau( 250) = (   0.0079684   0.6039592   1.4520956  )
       251        O      tau( 251) = (   0.6799702   0.7916690   1.6137563  )
       252        O      tau( 252) = (   0.8228944   0.4963375   1.2716413  )
       253        O      tau( 253) = (   0.1652982   0.5553089   1.6491463  )
       254        O      tau( 254) = (   0.6527640   0.8346788   1.2935381  )
       255        O      tau( 255) = (   0.0358116   0.1810737   1.6422342  )
       256        O      tau( 256) = (   0.5638762   0.0484964   1.7892635  )
       257        O      tau( 257) = (   0.7314789   0.9670683   1.4359075  )
       258        O      tau( 258) = (   0.2559548   0.8899428   1.4535926  )
       259        O      tau( 259) = (   0.7774448   0.5773609   1.5598674  )
       260        O      tau( 260) = (   0.0868638   0.6515873   1.6288983  )
       261        O      tau( 261) = (   0.2614827   0.9212168   1.7891965  )
       262        O      tau( 262) = (   0.1954831   0.1735609   1.8664394  )
       263        O      tau( 263) = (   0.9906684   0.7948073   1.8435173  )
       264        O      tau( 264) = (   0.4575167   0.9955248   1.4051103  )
       265        O      tau( 265) = (   0.7735858   0.2011661   1.2118609  )
       266        O      tau( 266) = (   0.8814090   0.9281431   1.4499689  )
       267        O      tau( 267) = (   0.4072071   0.9256292   1.2771435  )
       268        O      tau( 268) = (   0.8399764   0.8937974   1.5751596  )
       269        O      tau( 269) = (   0.9802476   0.7272430   1.4739436  )
       270        O      tau( 270) = (   0.4029974   0.6353892   1.4077172  )
       271        O      tau( 271) = (   0.5236271   0.0940762   1.6637713  )
       272        O      tau( 272) = (   0.2291142   0.8566340   1.6031926  )
       273        O      tau( 273) = (   0.1369597   0.1529802   1.7410824  )
       274        O      tau( 274) = (   0.8956842   0.4684356   1.7728116  )
       275        O      tau( 275) = (   0.0304714   0.3296381   1.4668483  )
       276        O      tau( 276) = (   0.9261533   0.1126670   1.5937994  )
       277        O      tau( 277) = (   0.3196110   0.7473434   1.6269653  )
       278        O      tau( 278) = (   0.2346612   0.4755155   1.3381933  )
       279        O      tau( 279) = (   0.0309321   0.9618656   1.4299785  )
       280        O      tau( 280) = (   0.1026240   0.4047238   1.3770124  )
       281        O      tau( 281) = (   0.0996948   0.0720356   1.4419196  )
       282        O      tau( 282) = (   0.9796419   0.7336502   1.2951357  )
       283        O      tau( 283) = (   0.4798587   0.2721799   1.6719849  )
       284        O      tau( 284) = (   0.1447462   0.5042309   1.7791641  )
       285        O      tau( 285) = (   0.6584207   0.0850578   1.4744274  )
       286        O      tau( 286) = (   0.8447302   0.2856675   1.7867899  )
       287        O      tau( 287) = (   0.9236456   0.3532967   1.8933803  )
       288        O      tau( 288) = (   0.7131244   0.4260542   1.2089447  )
       289        O      tau( 289) = (   0.1815374   0.0351118   1.8104616  )
       290        O      tau( 290) = (   0.0329975   0.6097415   1.2681351  )
       291        O      tau( 291) = (   0.8998275   0.8951096   1.8045433  )
       292        O      tau( 292) = (   0.3016404   0.4593341   1.2337882  )
       293        O      tau( 293) = (   0.2631331   0.5633327   1.7490475  )
       294        O      tau( 294) = (   0.7023044   0.1539457   1.5910141  )
       295        O      tau( 295) = (   0.5450848   0.1349270   1.3303906  )
       296        O      tau( 296) = (   0.1632620   0.2443342   1.6379519  )
       297        O      tau( 297) = (   0.1916640   0.3894955   1.2601897  )
       298        O      tau( 298) = (   0.0615898   0.0043928   1.2718305  )
       299        O      tau( 299) = (   0.3967139   0.3875856   1.8762703  )
       300        O      tau( 300) = (   0.4846187   0.5410669   1.3666698  )
       301        O      tau( 301) = (   0.8186424   0.0168112   1.5820830  )
       302        O      tau( 302) = (   0.5974300   0.5762403   1.7036424  )
       303        O      tau( 303) = (   0.4323575   0.7667648   1.3386386  )
       304        O      tau( 304) = (   0.7719883   0.9374236   1.8028857  )
       305        O      tau( 305) = (   0.7672182   0.1900179   1.6976508  )
       306        O      tau( 306) = (   0.8994379   0.0650389   1.4672678  )
       307        O      tau( 307) = (   0.4462121   0.7426137   1.4731770  )
       308        O      tau( 308) = (   0.9211726   0.3961581   1.6533343  )
       309        O      tau( 309) = (   0.2420202   0.2200105   1.5251544  )
       310        O      tau( 310) = (   0.8842963   0.6436934   1.4589679  )
       311        O      tau( 311) = (   0.6482991   0.6785877   1.2330670  )
       312        O      tau( 312) = (   0.4832983   0.6325017   1.6039613  )
       313        O      tau( 313) = (   0.7361349   0.0571749   1.8732737  )
       314        O      tau( 314) = (   0.6649925   0.8590630   1.7336776  )
       315        O      tau( 315) = (   0.9130296   0.2721061   1.4159943  )
       316        O      tau( 316) = (   0.6511009   0.5989696   1.3506902  )
       317        O      tau( 317) = (   0.8131240   0.0898692   1.2825970  )
       318        O      tau( 318) = (   0.6524595   0.1336951   1.7108949  )
       319        O      tau( 319) = (   0.6784211   0.5695802   1.4690337  )
       320        O      tau( 320) = (   0.9018920   0.2183548   1.6834522  )
       321        O      tau( 321) = (   0.9678130   0.0358255   1.7940055  )
       322        O      tau( 322) = (   0.8368182   0.5391156   1.6776043  )
       323        O      tau( 323) = (   0.7668768   0.6856661   1.8697035  )
       324        O      tau( 324) = (   0.1531671   0.9301796   1.8945654  )
       325        O      tau( 325) = (   0.2178402   0.7542098   1.5177838  )
       326        O      tau( 326) = (   0.3614324   0.0782581   1.4600024  )
       327        O      tau( 327) = (   0.4053368   0.0766386   1.5793453  )
       328        O      tau( 328) = (   0.3320739   0.8564650   1.8828345  )
       329        O      tau( 329) = (   0.0914304   0.8126101   1.4681485  )
       330        O      tau( 330) = (   0.2416337   0.7445048   1.2588964  )
       331        O      tau( 331) = (   0.8232583   0.9617889   1.3373563  )
       332        O      tau( 332) = (   0.0224173   0.1103921   1.3331986  )
       333        O      tau( 333) = (   0.0827261   0.7743688   1.7158336  )
       334        O      tau( 334) = (   0.3058372   0.3697607   1.3216954  )
       335        O      tau( 335) = (   0.6940744   0.4843818   1.3763524  )
       336        O      tau( 336) = (   0.0505520   0.3569640   1.2588409  )
       337        O      tau( 337) = (   0.6956442   0.5556100   1.2255199  )
       338        O      tau( 338) = (   0.9205918   0.8444316   1.2442634  )
       339        Al     tau( 339) = (   0.9474166   0.9984982   1.4171699  )
       340        Al     tau( 340) = (   0.7317137   0.2651324   1.2660316  )
       341        C      tau( 341) = (   0.5691377   0.4617851   2.5391953  )
       342        C      tau( 342) = (   0.4944784   0.4516561   2.5406791  )
       343        C      tau( 343) = (   0.6140474   0.4021687   2.5345690  )
       344        C      tau( 344) = (   0.4669239   0.3822075   2.5375088  )
       345        C      tau( 345) = (   0.5966869   0.5312330   2.5423657  )
       346        C      tau( 346) = (   0.4495738   0.5112736   2.5453000  )
       347        C      tau( 347) = (   0.5857528   0.3335483   2.5314554  )
       348        C      tau( 348) = (   0.5123336   0.3235869   2.5329251  )
       349        C      tau( 349) = (   0.5512823   0.5898546   2.5469440  )
       350        C      tau( 350) = (   0.4778681   0.5798945   2.5484029  )
       351        H      tau( 351) = (   0.6715984   0.4086951   2.5333431  )
       352        H      tau( 352) = (   0.4097061   0.3731626   2.5385773  )
       353        H      tau( 353) = (   0.6539041   0.5402829   2.5413028  )
       354        H      tau( 354) = (   0.3920120   0.5047463   2.5465154  )
       355        H      tau( 355) = (   0.6210717   0.2878911   2.5278909  )
       356        H      tau( 356) = (   0.4903398   0.2701488   2.5304981  )
       357        H      tau( 357) = (   0.5732767   0.6432877   2.5493653  )
       358        H      tau( 358) = (   0.4425484   0.6255570   2.5519678  )

     number of k points=     1  Gaussian smearing, width (Ry)=  0.0100
                       cart. coord. in units 2pi/alat
        k(    1) = (   0.0000000   0.0000000   0.0000000), wk =   2.0000000

     Dense  grid: 15943719 G-vectors     FFT dimensions: ( 216, 216, 675)

     Smooth grid: 13361281 G-vectors     FFT dimensions: ( 216, 216, 625)

     Estimated max dynamical RAM per process >       4.14 GB

     Estimated total dynamical RAM >     331.13 GB

     Check: negative core charge=   -0.000001

     Initial potential from superposition of free atoms

     starting charge    1871.8703, renormalised to    1872.0000

     negative rho (up, down):  4.162E-02 0.000E+00
     Starting wfcs are 1419 randomized atomic wfcs
     Checking if some PAW data can be deallocated... 

     total cpu time spent up to now is      149.6 secs

     per-process dynamical memory:  1754.0 Mb

     Self-consistent Calculation

     iteration #  1     ecut=    80.00 Ry     beta= 0.10
     Davidson diagonalization with overlap
     ethr =  1.00E-02,  avg # of iterations =  3.0

     negative rho (up, down):  4.368E-02 0.000E+00

     total cpu time spent up to now is      639.3 secs

     total energy              =  -11693.36951564 Ry
     estimated scf accuracy    <     115.61203284 Ry

     iteration #  2     ecut=    80.00 Ry     beta= 0.10
     Davidson diagonalization with overlap
     ethr =  6.18E-03,  avg # of iterations =  1.0

     negative rho (up, down):  4.540E-02 0.000E+00

     total cpu time spent up to now is      925.6 secs

     total energy              =  -11688.11168423 Ry
     estimated scf accuracy    <      84.89566238 Ry

     iteration #  3     ecut=    80.00 Ry     beta= 0.10
     Davidson diagonalization with overlap
     ethr =  4.54E-03,  avg # of iterations =  1.0

     negative rho (up, down):  4.724E-02 0.000E+00

     total cpu time spent up to now is     1211.8 secs

     total energy              =  -11681.50029107 Ry
     estimated scf accuracy    <      59.18142408 Ry

     iteration #  4     ecut=    80.00 Ry     beta= 0.10
     Davidson diagonalization with overlap
     ethr =  3.16E-03,  avg # of iterations =  2.0

     negative rho (up, down):  4.833E-02 0.000E+00

     total cpu time spent up to now is     1532.5 secs

     total energy              =  -11682.82118823 Ry
     estimated scf accuracy    <      60.37345113 Ry

     iteration #  5     ecut=    80.00 Ry     beta= 0.10
     Davidson diagonalization with overlap
     ethr =  3.16E-03,  avg # of iterations =  1.0

     negative rho (up, down):  4.945E-02 0.000E+00

     total cpu time spent up to now is     1818.6 secs

     total energy              =  -11682.20221738 Ry
     estimated scf accuracy    <      39.43842093 Ry

     iteration #  6     ecut=    80.00 Ry     beta= 0.10
     Davidson diagonalization with overlap
     ethr =  2.11E-03,  avg # of iterations =  2.0

     negative rho (up, down):  5.032E-02 0.000E+00

     total cpu time spent up to now is     2140.0 secs

     total energy              =  -11682.42860578 Ry
     estimated scf accuracy    <      26.70692209 Ry

     iteration #  7     ecut=    80.00 Ry     beta= 0.10
     Davidson diagonalization with overlap
     ethr =  1.43E-03,  avg # of iterations =  2.0

     negative rho (up, down):  5.113E-02 0.000E+00

     total cpu time spent up to now is     2461.0 secs

     total energy              =  -11682.17686079 Ry
     estimated scf accuracy    <      34.82833716 Ry

     iteration #  8     ecut=    80.00 Ry     beta= 0.10
     Davidson diagonalization with overlap
     ethr =  1.43E-03,  avg # of iterations =  2.0

     negative rho (up, down):  5.172E-02 0.000E+00

     total cpu time spent up to now is     2781.9 secs

     total energy              =  -11682.32745820 Ry
     estimated scf accuracy    <      19.59623091 Ry

     iteration #  9     ecut=    80.00 Ry     beta= 0.10
     Davidson diagonalization with overlap
     ethr =  1.05E-03,  avg # of iterations =  2.0

     negative rho (up, down):  5.230E-02 0.000E+00

     total cpu time spent up to now is     3103.7 secs

     total energy              =  -11682.16791826 Ry
     estimated scf accuracy    <      18.57158707 Ry

     iteration # 10     ecut=    80.00 Ry     beta= 0.10
     Davidson diagonalization with overlap
     ethr =  9.92E-04,  avg # of iterations =  1.0

     negative rho (up, down):  5.282E-02 0.000E+00

     total cpu time spent up to now is     3389.9 secs

     total energy              =  -11682.15139459 Ry
     estimated scf accuracy    <      11.95597888 Ry

     iteration # 11     ecut=    80.00 Ry     beta= 0.10
     Davidson diagonalization with overlap
     ethr =  6.39E-04,  avg # of iterations =  4.0

     negative rho (up, down):  5.317E-02 0.000E+00

     total cpu time spent up to now is     3715.5 secs

     total energy              =  -11682.02831342 Ry
     estimated scf accuracy    <      23.61794256 Ry

     iteration # 12     ecut=    80.00 Ry     beta= 0.10
     Davidson diagonalization with overlap
     ethr =  6.39E-04,  avg # of iterations =  2.0

     negative rho (up, down):  5.347E-02 0.000E+00

     total cpu time spent up to now is     4037.1 secs

     total energy              =  -11682.31284238 Ry
     estimated scf accuracy    <       5.18228291 Ry

     iteration # 13     ecut=    80.00 Ry     beta= 0.10
     Davidson diagonalization with overlap
     ethr =  2.77E-04,  avg # of iterations = 18.0

     negative rho (up, down):  5.386E-02 0.000E+00

     total cpu time spent up to now is     4492.8 secs

     total energy              =  -11682.23613759 Ry
     estimated scf accuracy    <       6.79896549 Ry

     iteration # 14     ecut=    80.00 Ry     beta= 0.10
     Davidson diagonalization with overlap
     ethr =  2.77E-04,  avg # of iterations =  1.0

     negative rho (up, down):  5.441E-02 0.000E+00

     total cpu time spent up to now is     4778.6 secs

     total energy              =  -11682.08004141 Ry
     estimated scf accuracy    <       4.98601892 Ry

     iteration # 15     ecut=    80.00 Ry     beta= 0.10
     Davidson diagonalization with overlap
     ethr =  2.66E-04,  avg # of iterations =  1.0

     negative rho (up, down):  5.441E-02 0.000E+00

     total cpu time spent up to now is     5063.2 secs

     total energy              =  -11681.93186727 Ry
     estimated scf accuracy    <      17.77907724 Ry

     iteration # 16     ecut=    80.00 Ry     beta= 0.10
     Davidson diagonalization with overlap
     ethr =  2.66E-04,  avg # of iterations =  2.0

     negative rho (up, down):  5.473E-02 0.000E+00

     total cpu time spent up to now is     5383.6 secs

     total energy              =  -11682.15744424 Ry
     estimated scf accuracy    <       3.95601755 Ry

     iteration # 17     ecut=    80.00 Ry     beta= 0.10
     Davidson diagonalization with overlap
     ethr =  2.11E-04,  avg # of iterations =  1.0

     negative rho (up, down):  5.537E-02 0.000E+00

     total cpu time spent up to now is     5669.0 secs

     total energy              =  -11682.07694001 Ry
     estimated scf accuracy    <       2.84135097 Ry

     iteration # 18     ecut=    80.00 Ry     beta= 0.10
     Davidson diagonalization with overlap
     ethr =  1.52E-04,  avg # of iterations =  2.0

     negative rho (up, down):  5.531E-02 0.000E+00

     total cpu time spent up to now is     5989.5 secs

     total energy              =  -11681.94502926 Ry
     estimated scf accuracy    <       9.97872775 Ry

     iteration # 19     ecut=    80.00 Ry     beta= 0.10
     Davidson diagonalization with overlap
     ethr =  1.52E-04,  avg # of iterations =  2.0

     negative rho (up, down):  5.555E-02 0.000E+00

     total cpu time spent up to now is     6310.5 secs

     total energy              =  -11682.12659529 Ry
     estimated scf accuracy    <       2.47363580 Ry

     iteration # 20     ecut=    80.00 Ry     beta= 0.10
     Davidson diagonalization with overlap
     ethr =  1.32E-04,  avg # of iterations =  1.0

     negative rho (up, down):  5.595E-02 0.000E+00

     total cpu time spent up to now is     6595.7 secs

     total energy              =  -11682.08556060 Ry
     estimated scf accuracy    <       2.26998596 Ry

     iteration # 21     ecut=    80.00 Ry     beta= 0.10
     Davidson diagonalization with overlap
     ethr =  1.21E-04,  avg # of iterations =  1.0

     negative rho (up, down):  5.605E-02 0.000E+00

     total cpu time spent up to now is     6882.1 secs

     total energy              =  -11682.01100039 Ry
     estimated scf accuracy    <       8.12621438 Ry

     iteration # 22     ecut=    80.00 Ry     beta= 0.10
     Davidson diagonalization with overlap
     ethr =  1.21E-04,  avg # of iterations =  1.0

     negative rho (up, down):  5.632E-02 0.000E+00

     total cpu time spent up to now is     7167.4 secs

     total energy              =  -11682.04269360 Ry
     estimated scf accuracy    <      10.51730034 Ry

     iteration # 23     ecut=    80.00 Ry     beta= 0.10
     Davidson diagonalization with overlap
     ethr =  1.21E-04,  avg # of iterations =  1.0

     negative rho (up, down):  5.627E-02 0.000E+00

     total cpu time spent up to now is     7453.1 secs

     total energy              =  -11682.06301708 Ry
     estimated scf accuracy    <       4.44800417 Ry

     iteration # 24     ecut=    80.00 Ry     beta= 0.10
     Davidson diagonalization with overlap
     ethr =  1.21E-04,  avg # of iterations =  1.0

     negative rho (up, down):  5.675E-02 0.000E+00

     total cpu time spent up to now is     7737.6 secs

     total energy              =  -11682.06049011 Ry
     estimated scf accuracy    <       4.46296425 Ry

     iteration # 25     ecut=    80.00 Ry     beta= 0.10
     Davidson diagonalization with overlap
     ethr =  1.21E-04,  avg # of iterations =  1.0

     negative rho (up, down):  5.690E-02 0.000E+00

     total cpu time spent up to now is     8024.1 secs

     total energy              =  -11682.08396032 Ry
     estimated scf accuracy    <       2.26701385 Ry

     iteration # 26     ecut=    80.00 Ry     beta= 0.10
     Davidson diagonalization with overlap
     ethr =  1.21E-04,  avg # of iterations =  1.0

     negative rho (up, down):  5.703E-02 0.000E+00

     total cpu time spent up to now is     8308.7 secs

     total energy              =  -11682.08441523 Ry
     estimated scf accuracy    <       1.23086943 Ry

     iteration # 27     ecut=    80.00 Ry     beta= 0.10
     Davidson diagonalization with overlap
     ethr =  6.58E-05,  avg # of iterations =  1.0

     negative rho (up, down):  5.768E-02 0.000E+00

     total cpu time spent up to now is     8594.0 secs

     total energy              =  -11682.06219751 Ry
     estimated scf accuracy    <       2.98904860 Ry

     iteration # 28     ecut=    80.00 Ry     beta= 0.10
     Davidson diagonalization with overlap
     ethr =  6.58E-05,  avg # of iterations =  1.0

     negative rho (up, down):  5.714E-02 0.000E+00

     total cpu time spent up to now is     8879.9 secs

     total energy              =  -11682.00838078 Ry
     estimated scf accuracy    <       5.32012169 Ry

     iteration # 29     ecut=    80.00 Ry     beta= 0.10
     Davidson diagonalization with overlap
     ethr =  6.58E-05,  avg # of iterations =  1.0

     negative rho (up, down):  5.729E-02 0.000E+00

     total cpu time spent up to now is     9165.6 secs

     total energy              =  -11682.07588396 Ry
     estimated scf accuracy    <       5.25375191 Ry

     iteration # 30     ecut=    80.00 Ry     beta= 0.10
     Davidson diagonalization with overlap
     ethr =  6.58E-05,  avg # of iterations =  1.0

     negative rho (up, down):  5.741E-02 0.000E+00

     total cpu time spent up to now is     9452.2 secs

     total energy              =  -11682.09594730 Ry
     estimated scf accuracy    <       1.32692820 Ry

     iteration # 31     ecut=    80.00 Ry     beta= 0.10
     Davidson diagonalization with overlap
     ethr =  6.58E-05,  avg # of iterations =  1.0

     negative rho (up, down):  5.766E-02 0.000E+00

     total cpu time spent up to now is     9738.7 secs

     total energy              =  -11682.10179893 Ry
     estimated scf accuracy    <       0.62940095 Ry

     iteration # 32     ecut=    80.00 Ry     beta= 0.10
     Davidson diagonalization with overlap
     ethr =  3.36E-05,  avg # of iterations =  1.0

     negative rho (up, down):  5.774E-02 0.000E+00

     total cpu time spent up to now is    10024.0 secs

     total energy              =  -11682.08769239 Ry
     estimated scf accuracy    <       2.10900271 Ry

     iteration # 33     ecut=    80.00 Ry     beta= 0.10
     Davidson diagonalization with overlap
     ethr =  3.36E-05,  avg # of iterations =  2.0

     negative rho (up, down):  5.771E-02 0.000E+00

     total cpu time spent up to now is    10344.4 secs

     total energy              =  -11682.09775496 Ry
     estimated scf accuracy    <       1.09437690 Ry

     iteration # 34     ecut=    80.00 Ry     beta= 0.10
     Davidson diagonalization with overlap
     ethr =  3.36E-05,  avg # of iterations =  1.0

     negative rho (up, down):  5.804E-02 0.000E+00

     total cpu time spent up to now is    10629.9 secs

     total energy              =  -11682.10180516 Ry
     estimated scf accuracy    <       0.55680784 Ry

     iteration # 35     ecut=    80.00 Ry     beta= 0.10
     Davidson diagonalization with overlap
     ethr =  2.97E-05,  avg # of iterations =  2.0

     negative rho (up, down):  5.794E-02 0.000E+00

     total cpu time spent up to now is    10949.8 secs

     total energy              =  -11682.08765069 Ry
     estimated scf accuracy    <       1.49035023 Ry

     iteration # 36     ecut=    80.00 Ry     beta= 0.10
     Davidson diagonalization with overlap
     ethr =  2.97E-05,  avg # of iterations =  1.0

     negative rho (up, down):  5.808E-02 0.000E+00

     total cpu time spent up to now is    11235.5 secs

     total energy              =  -11682.10065797 Ry
     estimated scf accuracy    <       0.69292105 Ry

     iteration # 37     ecut=    80.00 Ry     beta= 0.10
     Davidson diagonalization with overlap
     ethr =  2.97E-05,  avg # of iterations =  1.0

     negative rho (up, down):  5.872E-02 0.000E+00

     total cpu time spent up to now is    11521.8 secs

     total energy              =  -11682.09357032 Ry
     estimated scf accuracy    <       0.83136876 Ry

     iteration # 38     ecut=    80.00 Ry     beta= 0.10
     Davidson diagonalization with overlap
     ethr =  2.97E-05,  avg # of iterations =  2.0

     negative rho (up, down):  5.842E-02 0.000E+00

     total cpu time spent up to now is    11841.9 secs

     total energy              =  -11682.05482684 Ry
     estimated scf accuracy    <       4.55717203 Ry

     iteration # 39     ecut=    80.00 Ry     beta= 0.10
     Davidson diagonalization with overlap
     ethr =  2.97E-05,  avg # of iterations =  1.0

     negative rho (up, down):  5.821E-02 0.000E+00

     total cpu time spent up to now is    12127.1 secs

     total energy              =  -11682.07239451 Ry
     estimated scf accuracy    <       4.45172525 Ry

     iteration # 40     ecut=    80.00 Ry     beta= 0.10
     Davidson diagonalization with overlap
     ethr =  2.97E-05,  avg # of iterations =  2.0

     negative rho (up, down):  5.827E-02 0.000E+00

     total cpu time spent up to now is    12447.7 secs

     total energy              =  -11682.10004875 Ry
     estimated scf accuracy    <       0.68952187 Ry

     iteration # 41     ecut=    80.00 Ry     beta= 0.10
     Davidson diagonalization with overlap
     ethr =  2.97E-05,  avg # of iterations =  1.0

     negative rho (up, down):  5.849E-02 0.000E+00

     total cpu time spent up to now is    12734.0 secs

     total energy              =  -11682.10320702 Ry
     estimated scf accuracy    <       0.46253139 Ry

     iteration # 42     ecut=    80.00 Ry     beta= 0.10
     Davidson diagonalization with overlap
     ethr =  2.47E-05,  avg # of iterations =  1.0

     negative rho (up, down):  5.856E-02 0.000E+00

     total cpu time spent up to now is    13020.1 secs

     total energy              =  -11682.10098590 Ry
     estimated scf accuracy    <       0.66311641 Ry

     iteration # 43     ecut=    80.00 Ry     beta= 0.10
     Davidson diagonalization with overlap
     ethr =  2.47E-05,  avg # of iterations =  2.0

     negative rho (up, down):  5.844E-02 0.000E+00

     total cpu time spent up to now is    13339.7 secs

     total energy              =  -11682.10051017 Ry
     estimated scf accuracy    <       0.66122445 Ry

     iteration # 44     ecut=    80.00 Ry     beta= 0.10
     Davidson diagonalization with overlap
     ethr =  2.47E-05,  avg # of iterations =  1.0

     negative rho (up, down):  5.862E-02 0.000E+00

     total cpu time spent up to now is    13624.3 secs

     total energy              =  -11682.10125361 Ry
     estimated scf accuracy    <       0.58947703 Ry

     iteration # 45     ecut=    80.00 Ry     beta= 0.10
     Davidson diagonalization with overlap
     ethr =  2.47E-05,  avg # of iterations =  1.0

     negative rho (up, down):  5.863E-02 0.000E+00

     total cpu time spent up to now is    13909.9 secs

     total energy              =  -11682.09821990 Ry
     estimated scf accuracy    <       0.95117697 Ry

     iteration # 46     ecut=    80.00 Ry     beta= 0.10
     Davidson diagonalization with overlap
     ethr =  2.47E-05,  avg # of iterations =  2.0

     negative rho (up, down):  5.868E-02 0.000E+00

     total cpu time spent up to now is    14230.2 secs

     total energy              =  -11682.10494771 Ry
     estimated scf accuracy    <       0.23112224 Ry

     iteration # 47     ecut=    80.00 Ry     beta= 0.10
     Davidson diagonalization with overlap
     ethr =  1.23E-05,  avg # of iterations = 17.0

     negative rho (up, down):  5.914E-02 0.000E+00

     total cpu time spent up to now is    14638.1 secs

     total energy              =  -11682.10693659 Ry
     estimated scf accuracy    <       0.10453683 Ry

     iteration # 48     ecut=    80.00 Ry     beta= 0.10
     Davidson diagonalization with overlap
     ethr =  5.58E-06,  avg # of iterations =  2.0

     negative rho (up, down):  5.894E-02 0.000E+00

     total cpu time spent up to now is    14959.9 secs

     total energy              =  -11682.10070622 Ry
     estimated scf accuracy    <       0.39272026 Ry

     iteration # 49     ecut=    80.00 Ry     beta= 0.10
     Davidson diagonalization with overlap
     ethr =  5.58E-06,  avg # of iterations =  1.0

     negative rho (up, down):  5.887E-02 0.000E+00

     total cpu time spent up to now is    15245.8 secs

     total energy              =  -11682.09139431 Ry
     estimated scf accuracy    <       2.16327961 Ry

     iteration # 50     ecut=    80.00 Ry     beta= 0.10
     Davidson diagonalization with overlap
     ethr =  5.58E-06,  avg # of iterations =  1.0

     negative rho (up, down):  5.886E-02 0.000E+00

     total cpu time spent up to now is    15531.4 secs

     total energy              =  -11682.09425462 Ry
     estimated scf accuracy    <       1.49598012 Ry

     iteration # 51     ecut=    80.00 Ry     beta= 0.10
     Davidson diagonalization with overlap
     ethr =  5.58E-06,  avg # of iterations =  1.0

     negative rho (up, down):  5.892E-02 0.000E+00

     total cpu time spent up to now is    15817.0 secs

     total energy              =  -11682.10392682 Ry
     estimated scf accuracy    <       0.43895440 Ry

     iteration # 52     ecut=    80.00 Ry     beta= 0.10
     Davidson diagonalization with overlap
     ethr =  5.58E-06,  avg # of iterations =  1.0

     negative rho (up, down):  5.898E-02 0.000E+00

     total cpu time spent up to now is    16103.1 secs

     total energy              =  -11682.10699069 Ry
     estimated scf accuracy    <       0.12532382 Ry

     iteration # 53     ecut=    80.00 Ry     beta= 0.10
     Davidson diagonalization with overlap
     ethr =  5.58E-06,  avg # of iterations =  1.0

     negative rho (up, down):  5.901E-02 0.000E+00

     total cpu time spent up to now is    16388.9 secs

     total energy              =  -11682.10711218 Ry
     estimated scf accuracy    <       0.08502873 Ry

     iteration # 54     ecut=    80.00 Ry     beta= 0.10
     Davidson diagonalization with overlap
     ethr =  4.54E-06,  avg # of iterations =  1.0

     negative rho (up, down):  5.924E-02 0.000E+00

     total cpu time spent up to now is    16674.8 secs

     total energy              =  -11682.10647678 Ry
     estimated scf accuracy    <       0.28097765 Ry

     iteration # 55     ecut=    80.00 Ry     beta= 0.10
     Davidson diagonalization with overlap
     ethr =  4.54E-06,  avg # of iterations =  1.0

     negative rho (up, down):  5.910E-02 0.000E+00

     total cpu time spent up to now is    16960.8 secs

     total energy              =  -11682.10625257 Ry
     estimated scf accuracy    <       0.16395295 Ry

     iteration # 56     ecut=    80.00 Ry     beta= 0.10
     Davidson diagonalization with overlap
     ethr =  4.54E-06,  avg # of iterations =  1.0

     negative rho (up, down):  5.911E-02 0.000E+00

     total cpu time spent up to now is    17246.8 secs

     total energy              =  -11682.10750674 Ry
     estimated scf accuracy    <       0.14235170 Ry

     iteration # 57     ecut=    80.00 Ry     beta= 0.10
     Davidson diagonalization with overlap
     ethr =  4.54E-06,  avg # of iterations =  1.0

     negative rho (up, down):  5.929E-02 0.000E+00

     total cpu time spent up to now is    17532.1 secs

     total energy              =  -11682.10857356 Ry
     estimated scf accuracy    <       0.03406222 Ry

     iteration # 58     ecut=    80.00 Ry     beta= 0.10
     Davidson diagonalization with overlap
     ethr =  1.82E-06,  avg # of iterations =  1.0

     negative rho (up, down):  5.931E-02 0.000E+00

     total cpu time spent up to now is    17817.5 secs

     total energy              =  -11682.10656387 Ry
     estimated scf accuracy    <       0.27484145 Ry

     iteration # 59     ecut=    80.00 Ry     beta= 0.10
     Davidson diagonalization with overlap
     ethr =  1.82E-06,  avg # of iterations =  1.0

     negative rho (up, down):  5.930E-02 0.000E+00

     total cpu time spent up to now is    18103.6 secs

     total energy              =  -11682.10795002 Ry
     estimated scf accuracy    <       0.16274800 Ry

     iteration # 60     ecut=    80.00 Ry     beta= 0.10
     Davidson diagonalization with overlap
     ethr =  1.82E-06,  avg # of iterations =  1.0

     negative rho (up, down):  5.931E-02 0.000E+00

     total cpu time spent up to now is    18388.9 secs

     total energy              =  -11682.10807348 Ry
     estimated scf accuracy    <       0.11564033 Ry

     iteration # 61     ecut=    80.00 Ry     beta= 0.10
     Davidson diagonalization with overlap
     ethr =  1.82E-06,  avg # of iterations =  1.0

     negative rho (up, down):  5.929E-02 0.000E+00

     total cpu time spent up to now is    18674.0 secs

     total energy              =  -11682.10735064 Ry
     estimated scf accuracy    <       0.18832471 Ry

     iteration # 62     ecut=    80.00 Ry     beta= 0.10
     Davidson diagonalization with overlap
     ethr =  1.82E-06,  avg # of iterations =  1.0

     negative rho (up, down):  5.930E-02 0.000E+00

     total cpu time spent up to now is    18960.1 secs

     total energy              =  -11682.10808408 Ry
     estimated scf accuracy    <       0.11363118 Ry

     iteration # 63     ecut=    80.00 Ry     beta= 0.10
     Davidson diagonalization with overlap
     ethr =  1.82E-06,  avg # of iterations =  1.0

     negative rho (up, down):  5.933E-02 0.000E+00

     total cpu time spent up to now is    19244.6 secs

     total energy              =  -11682.10877568 Ry
     estimated scf accuracy    <       0.05338194 Ry

     iteration # 64     ecut=    80.00 Ry     beta= 0.10
     Davidson diagonalization with overlap
     ethr =  1.82E-06,  avg # of iterations =  1.0

     negative rho (up, down):  5.946E-02 0.000E+00

     total cpu time spent up to now is    19530.3 secs

     total energy              =  -11682.10933139 Ry
     estimated scf accuracy    <       0.03570526 Ry

     iteration # 65     ecut=    80.00 Ry     beta= 0.10
     Davidson diagonalization with overlap
     ethr =  1.82E-06,  avg # of iterations =  1.0

     negative rho (up, down):  5.941E-02 0.000E+00

     total cpu time spent up to now is    19816.1 secs

     total energy              =  -11682.10858841 Ry
     estimated scf accuracy    <       0.07367210 Ry

     iteration # 66     ecut=    80.00 Ry     beta= 0.10
     Davidson diagonalization with overlap
     ethr =  1.82E-06,  avg # of iterations =  1.0

     negative rho (up, down):  5.938E-02 0.000E+00

     total cpu time spent up to now is    20101.4 secs

     total energy              =  -11682.10813103 Ry
     estimated scf accuracy    <       0.18742311 Ry

     iteration # 67     ecut=    80.00 Ry     beta= 0.10
     Davidson diagonalization with overlap
     ethr =  1.82E-06,  avg # of iterations =  1.0

     negative rho (up, down):  5.939E-02 0.000E+00

     total cpu time spent up to now is    20386.5 secs

     total energy              =  -11682.10905981 Ry
     estimated scf accuracy    <       0.04126500 Ry

     iteration # 68     ecut=    80.00 Ry     beta= 0.10
     Davidson diagonalization with overlap
     ethr =  1.82E-06,  avg # of iterations =  1.0

     negative rho (up, down):  5.942E-02 0.000E+00

     total cpu time spent up to now is    20672.5 secs

     total energy              =  -11682.10918201 Ry
     estimated scf accuracy    <       0.03445383 Ry

     iteration # 69     ecut=    80.00 Ry     beta= 0.10
     Davidson diagonalization with overlap
     ethr =  1.82E-06,  avg # of iterations =  1.0

     negative rho (up, down):  5.943E-02 0.000E+00

     total cpu time spent up to now is    20958.3 secs

     total energy              =  -11682.10896669 Ry
     estimated scf accuracy    <       0.07275779 Ry

     iteration # 70     ecut=    80.00 Ry     beta= 0.10
     Davidson diagonalization with overlap
     ethr =  1.82E-06,  avg # of iterations =  1.0

     negative rho (up, down):  5.944E-02 0.000E+00

     total cpu time spent up to now is    21243.9 secs

     total energy              =  -11682.10911163 Ry
     estimated scf accuracy    <       0.07752756 Ry

     iteration # 71     ecut=    80.00 Ry     beta= 0.10
     Davidson diagonalization with overlap
     ethr =  1.82E-06,  avg # of iterations =  1.0

     negative rho (up, down):  5.945E-02 0.000E+00

     total cpu time spent up to now is    21529.0 secs

     total energy              =  -11682.10947059 Ry
     estimated scf accuracy    <       0.02328250 Ry

     iteration # 72     ecut=    80.00 Ry     beta= 0.10
     Davidson diagonalization with overlap
     ethr =  1.24E-06,  avg # of iterations =  1.0

     negative rho (up, down):  5.947E-02 0.000E+00

     total cpu time spent up to now is    21814.6 secs

     total energy              =  -11682.10964973 Ry
     estimated scf accuracy    <       0.00927628 Ry

     iteration # 73     ecut=    80.00 Ry     beta= 0.10
     Davidson diagonalization with overlap
     ethr =  4.96E-07,  avg # of iterations =  1.0

     negative rho (up, down):  5.948E-02 0.000E+00

     total cpu time spent up to now is    22099.6 secs

     total energy              =  -11682.10968002 Ry
     estimated scf accuracy    <       0.00738447 Ry

     iteration # 74     ecut=    80.00 Ry     beta= 0.10
     Davidson diagonalization with overlap
     ethr =  3.94E-07,  avg # of iterations =  1.0

     negative rho (up, down):  5.954E-02 0.000E+00

     total cpu time spent up to now is    22384.5 secs

     total energy              =  -11682.10986836 Ry
     estimated scf accuracy    <       0.00483154 Ry

     iteration # 75     ecut=    80.00 Ry     beta= 0.10
     Davidson diagonalization with overlap
     ethr =  2.58E-07,  avg # of iterations =  1.0

     negative rho (up, down):  5.955E-02 0.000E+00

     total cpu time spent up to now is    22669.6 secs

     total energy              =  -11682.10979187 Ry
     estimated scf accuracy    <       0.00904538 Ry

     iteration # 76     ecut=    80.00 Ry     beta= 0.10
     Davidson diagonalization with overlap
     ethr =  2.58E-07,  avg # of iterations =  1.0

     negative rho (up, down):  5.953E-02 0.000E+00

     total cpu time spent up to now is    22954.0 secs

     total energy              =  -11682.10957294 Ry
     estimated scf accuracy    <       0.03454598 Ry

     iteration # 77     ecut=    80.00 Ry     beta= 0.10
     Davidson diagonalization with overlap
     ethr =  2.58E-07,  avg # of iterations =  1.0

     negative rho (up, down):  5.954E-02 0.000E+00

     total cpu time spent up to now is    23238.6 secs

     total energy              =  -11682.10964245 Ry
     estimated scf accuracy    <       0.02270811 Ry

     iteration # 78     ecut=    80.00 Ry     beta= 0.10
     Davidson diagonalization with overlap
     ethr =  2.58E-07,  avg # of iterations =  1.0

     negative rho (up, down):  5.959E-02 0.000E+00

     total cpu time spent up to now is    23524.5 secs

     total energy              =  -11682.10974009 Ry
     estimated scf accuracy    <       0.02606445 Ry

     iteration # 79     ecut=    80.00 Ry     beta= 0.10
     Davidson diagonalization with overlap
     ethr =  2.58E-07,  avg # of iterations =  1.0

     negative rho (up, down):  5.964E-02 0.000E+00

     total cpu time spent up to now is    23809.7 secs

     total energy              =  -11682.10973714 Ry
     estimated scf accuracy    <       0.03849776 Ry

     iteration # 80     ecut=    80.00 Ry     beta= 0.10
     Davidson diagonalization with overlap
     ethr =  2.58E-07,  avg # of iterations =  1.0

     negative rho (up, down):  5.960E-02 0.000E+00

     total cpu time spent up to now is    24094.5 secs

     total energy              =  -11682.10955481 Ry
     estimated scf accuracy    <       0.05562023 Ry

     iteration # 81     ecut=    80.00 Ry     beta= 0.10
     Davidson diagonalization with overlap
     ethr =  2.58E-07,  avg # of iterations =  1.0

     negative rho (up, down):  5.959E-02 0.000E+00

     total cpu time spent up to now is    24379.6 secs

     total energy              =  -11682.10977135 Ry
     estimated scf accuracy    <       0.02126937 Ry

     iteration # 82     ecut=    80.00 Ry     beta= 0.10
     Davidson diagonalization with overlap
     ethr =  2.58E-07,  avg # of iterations =  1.0

     negative rho (up, down):  5.961E-02 0.000E+00

     total cpu time spent up to now is    24665.0 secs

     total energy              =  -11682.10990569 Ry
     estimated scf accuracy    <       0.01224138 Ry

     iteration # 83     ecut=    80.00 Ry     beta= 0.10
     Davidson diagonalization with overlap
     ethr =  2.58E-07,  avg # of iterations =  1.0

     negative rho (up, down):  5.960E-02 0.000E+00

     total cpu time spent up to now is    24950.0 secs

     total energy              =  -11682.10993497 Ry
     estimated scf accuracy    <       0.00699927 Ry

     iteration # 84     ecut=    80.00 Ry     beta= 0.10
     Davidson diagonalization with overlap
     ethr =  2.58E-07,  avg # of iterations =  1.0

     negative rho (up, down):  5.964E-02 0.000E+00

     total cpu time spent up to now is    25235.8 secs

     total energy              =  -11682.11005820 Ry
     estimated scf accuracy    <       0.00271101 Ry

     iteration # 85     ecut=    80.00 Ry     beta= 0.10
     Davidson diagonalization with overlap
     ethr =  1.45E-07,  avg # of iterations =  1.0

     negative rho (up, down):  5.965E-02 0.000E+00

     total cpu time spent up to now is    25521.1 secs

     total energy              =  -11682.11005784 Ry
     estimated scf accuracy    <       0.00227710 Ry

     iteration # 86     ecut=    80.00 Ry     beta= 0.10
     Davidson diagonalization with overlap
     ethr =  1.22E-07,  avg # of iterations =  1.0

     negative rho (up, down):  5.964E-02 0.000E+00

     total cpu time spent up to now is    25806.4 secs

     total energy              =  -11682.11001075 Ry
     estimated scf accuracy    <       0.00855483 Ry

     iteration # 87     ecut=    80.00 Ry     beta= 0.10
     Davidson diagonalization with overlap
     ethr =  1.22E-07,  avg # of iterations =  1.0

     negative rho (up, down):  5.966E-02 0.000E+00

     total cpu time spent up to now is    26091.9 secs

     total energy              =  -11682.11002533 Ry
     estimated scf accuracy    <       0.00729057 Ry

     iteration # 88     ecut=    80.00 Ry     beta= 0.10
     Davidson diagonalization with overlap
     ethr =  1.22E-07,  avg # of iterations =  1.0

     negative rho (up, down):  5.969E-02 0.000E+00

     total cpu time spent up to now is    26377.8 secs

     total energy              =  -11682.11009427 Ry
     estimated scf accuracy    <       0.00700539 Ry

     iteration # 89     ecut=    80.00 Ry     beta= 0.10
     Davidson diagonalization with overlap
     ethr =  1.22E-07,  avg # of iterations =  1.0

     negative rho (up, down):  5.973E-02 0.000E+00

     total cpu time spent up to now is    26664.3 secs

     total energy              =  -11682.11012509 Ry
     estimated scf accuracy    <       0.00719393 Ry

     iteration # 90     ecut=    80.00 Ry     beta= 0.10
     Davidson diagonalization with overlap
     ethr =  1.22E-07,  avg # of iterations =  1.0

     negative rho (up, down):  5.970E-02 0.000E+00

     total cpu time spent up to now is    26949.2 secs

     total energy              =  -11682.11004437 Ry
     estimated scf accuracy    <       0.01437376 Ry

     iteration # 91     ecut=    80.00 Ry     beta= 0.10
     Davidson diagonalization with overlap
     ethr =  1.22E-07,  avg # of iterations =  1.0

     negative rho (up, down):  5.969E-02 0.000E+00

     total cpu time spent up to now is    27242.6 secs

     total energy              =  -11682.11001517 Ry
     estimated scf accuracy    <       0.01299720 Ry

     iteration # 92     ecut=    80.00 Ry     beta= 0.10
     Davidson diagonalization with overlap
     ethr =  1.22E-07,  avg # of iterations =  1.0

     negative rho (up, down):  5.971E-02 0.000E+00

     total cpu time spent up to now is    27528.5 secs

     total energy              =  -11682.11006953 Ry
     estimated scf accuracy    <       0.01165174 Ry

     iteration # 93     ecut=    80.00 Ry     beta= 0.10
     Davidson diagonalization with overlap
     ethr =  1.22E-07,  avg # of iterations =  1.0

     negative rho (up, down):  5.970E-02 0.000E+00

     total cpu time spent up to now is    27814.1 secs

     total energy              =  -11682.11008610 Ry
     estimated scf accuracy    <       0.00525721 Ry

     iteration # 94     ecut=    80.00 Ry     beta= 0.10
     Davidson diagonalization with overlap
     ethr =  1.22E-07,  avg # of iterations =  1.0

     negative rho (up, down):  5.973E-02 0.000E+00

     total cpu time spent up to now is    28099.5 secs

     total energy              =  -11682.11015400 Ry
     estimated scf accuracy    <       0.00426122 Ry

     iteration # 95     ecut=    80.00 Ry     beta= 0.10
     Davidson diagonalization with overlap
     ethr =  1.22E-07,  avg # of iterations =  1.0

     negative rho (up, down):  5.973E-02 0.000E+00

     total cpu time spent up to now is    28384.7 secs

     total energy              =  -11682.11017945 Ry
     estimated scf accuracy    <       0.00189971 Ry

     iteration # 96     ecut=    80.00 Ry     beta= 0.10
     Davidson diagonalization with overlap
     ethr =  1.01E-07,  avg # of iterations =  1.0

     negative rho (up, down):  5.973E-02 0.000E+00

     total cpu time spent up to now is    28669.3 secs

     total energy              =  -11682.11017588 Ry
     estimated scf accuracy    <       0.00301951 Ry

     iteration # 97     ecut=    80.00 Ry     beta= 0.10
     Davidson diagonalization with overlap
     ethr =  1.01E-07,  avg # of iterations =  1.0

     negative rho (up, down):  5.974E-02 0.000E+00

     total cpu time spent up to now is    28955.0 secs

     total energy              =  -11682.11017995 Ry
     estimated scf accuracy    <       0.00216032 Ry

     iteration # 98     ecut=    80.00 Ry     beta= 0.10
     Davidson diagonalization with overlap
     ethr =  1.01E-07,  avg # of iterations =  1.0

     negative rho (up, down):  5.975E-02 0.000E+00

     total cpu time spent up to now is    29240.3 secs

     total energy              =  -11682.11020813 Ry
     estimated scf accuracy    <       0.00186754 Ry

     iteration # 99     ecut=    80.00 Ry     beta= 0.10
     Davidson diagonalization with overlap
     ethr =  9.98E-08,  avg # of iterations =  1.0

     negative rho (up, down):  5.977E-02 0.000E+00

     total cpu time spent up to now is    29525.7 secs

     total energy              =  -11682.11022871 Ry
     estimated scf accuracy    <       0.00109703 Ry

     iteration #100     ecut=    80.00 Ry     beta= 0.10
     Davidson diagonalization with overlap
     ethr =  5.86E-08,  avg # of iterations =  1.0

     negative rho (up, down):  5.977E-02 0.000E+00

     total cpu time spent up to now is    29811.2 secs

     total energy              =  -11682.11021620 Ry
     estimated scf accuracy    <       0.00240975 Ry

     iteration #101     ecut=    80.00 Ry     beta= 0.10
     Davidson diagonalization with overlap
     ethr =  5.86E-08,  avg # of iterations =  1.0

     negative rho (up, down):  5.977E-02 0.000E+00

     total cpu time spent up to now is    30097.3 secs

     total energy              =  -11682.11019875 Ry
     estimated scf accuracy    <       0.00356332 Ry

     iteration #102     ecut=    80.00 Ry     beta= 0.10
     Davidson diagonalization with overlap
     ethr =  5.86E-08,  avg # of iterations =  1.0

     negative rho (up, down):  5.978E-02 0.000E+00

     total cpu time spent up to now is    30383.9 secs

     total energy              =  -11682.11019441 Ry
     estimated scf accuracy    <       0.00608008 Ry

     iteration #103     ecut=    80.00 Ry     beta= 0.10
     Davidson diagonalization with overlap
     ethr =  5.86E-08,  avg # of iterations =  1.0

     negative rho (up, down):  5.978E-02 0.000E+00

     total cpu time spent up to now is    30669.6 secs

     total energy              =  -11682.11020591 Ry
     estimated scf accuracy    <       0.00324524 Ry

     iteration #104     ecut=    80.00 Ry     beta= 0.10
     Davidson diagonalization with overlap
     ethr =  5.86E-08,  avg # of iterations =  1.0

     negative rho (up, down):  5.979E-02 0.000E+00

     total cpu time spent up to now is    30955.0 secs

     total energy              =  -11682.11020707 Ry
     estimated scf accuracy    <       0.00452938 Ry

     iteration #105     ecut=    80.00 Ry     beta= 0.10
     Davidson diagonalization with overlap
     ethr =  5.86E-08,  avg # of iterations =  1.0

     negative rho (up, down):  5.979E-02 0.000E+00

     total cpu time spent up to now is    31240.2 secs

     total energy              =  -11682.11024213 Ry
     estimated scf accuracy    <       0.00135723 Ry

     iteration #106     ecut=    80.00 Ry     beta= 0.10
     Davidson diagonalization with overlap
     ethr =  5.86E-08,  avg # of iterations =  1.0

     negative rho (up, down):  5.980E-02 0.000E+00

     total cpu time spent up to now is    31525.6 secs

     total energy              =  -11682.11024149 Ry
     estimated scf accuracy    <       0.00226971 Ry

     iteration #107     ecut=    80.00 Ry     beta= 0.10
     Davidson diagonalization with overlap
     ethr =  5.86E-08,  avg # of iterations =  1.0

     negative rho (up, down):  5.979E-02 0.000E+00

     total cpu time spent up to now is    31811.1 secs

     total energy              =  -11682.11024252 Ry
     estimated scf accuracy    <       0.00126624 Ry

     iteration #108     ecut=    80.00 Ry     beta= 0.10
     Davidson diagonalization with overlap
     ethr =  5.86E-08,  avg # of iterations =  1.0

     negative rho (up, down):  5.980E-02 0.000E+00

     total cpu time spent up to now is    32097.5 secs

     total energy              =  -11682.11025666 Ry
     estimated scf accuracy    <       0.00100208 Ry

     iteration #109     ecut=    80.00 Ry     beta= 0.10
     Davidson diagonalization with overlap
     ethr =  5.35E-08,  avg # of iterations =  1.0

     negative rho (up, down):  5.981E-02 0.000E+00

     total cpu time spent up to now is    32382.4 secs

     total energy              =  -11682.11026743 Ry
     estimated scf accuracy    <       0.00031107 Ry

     iteration #110     ecut=    80.00 Ry     beta= 0.10
     Davidson diagonalization with overlap
     ethr =  1.66E-08,  avg # of iterations =  1.0

     negative rho (up, down):  5.982E-02 0.000E+00

     total cpu time spent up to now is    32668.3 secs

     total energy              =  -11682.11026850 Ry
     estimated scf accuracy    <       0.00044514 Ry

     iteration #111     ecut=    80.00 Ry     beta= 0.10
     Davidson diagonalization with overlap
     ethr =  1.66E-08,  avg # of iterations =  1.0

     negative rho (up, down):  5.982E-02 0.000E+00

     total cpu time spent up to now is    32953.4 secs

     total energy              =  -11682.11026864 Ry
     estimated scf accuracy    <       0.00090022 Ry

     iteration #112     ecut=    80.00 Ry     beta= 0.10
     Davidson diagonalization with overlap
     ethr =  1.66E-08,  avg # of iterations =  1.0

     negative rho (up, down):  5.983E-02 0.000E+00

     total cpu time spent up to now is    33238.8 secs

     total energy              =  -11682.11026715 Ry
     estimated scf accuracy    <       0.00176024 Ry

     iteration #113     ecut=    80.00 Ry     beta= 0.10
     Davidson diagonalization with overlap
     ethr =  1.66E-08,  avg # of iterations =  1.0

     negative rho (up, down):  5.984E-02 0.000E+00

     total cpu time spent up to now is    33524.2 secs

     total energy              =  -11682.11027892 Ry
     estimated scf accuracy    <       0.00089569 Ry

     iteration #114     ecut=    80.00 Ry     beta= 0.10
     Davidson diagonalization with overlap
     ethr =  1.66E-08,  avg # of iterations =  1.0

     negative rho (up, down):  5.983E-02 0.000E+00

     total cpu time spent up to now is    33808.7 secs

     total energy              =  -11682.11026316 Ry
     estimated scf accuracy    <       0.00177562 Ry

     iteration #115     ecut=    80.00 Ry     beta= 0.10
     Davidson diagonalization with overlap
     ethr =  1.66E-08,  avg # of iterations =  1.0

     negative rho (up, down):  5.984E-02 0.000E+00

     total cpu time spent up to now is    34094.0 secs

     total energy              =  -11682.11027612 Ry
     estimated scf accuracy    <       0.00090579 Ry

     iteration #116     ecut=    80.00 Ry     beta= 0.10
     Davidson diagonalization with overlap
     ethr =  1.66E-08,  avg # of iterations =  1.0

     negative rho (up, down):  5.984E-02 0.000E+00

     total cpu time spent up to now is    34379.1 secs

     total energy              =  -11682.11027757 Ry
     estimated scf accuracy    <       0.00173474 Ry

     iteration #117     ecut=    80.00 Ry     beta= 0.10
     Davidson diagonalization with overlap
     ethr =  1.66E-08,  avg # of iterations =  1.0

     negative rho (up, down):  5.984E-02 0.000E+00

     total cpu time spent up to now is    34664.9 secs

     total energy              =  -11682.11027365 Ry
     estimated scf accuracy    <       0.00106748 Ry

     iteration #118     ecut=    80.00 Ry     beta= 0.10
     Davidson diagonalization with overlap
     ethr =  1.66E-08,  avg # of iterations =  1.0

     negative rho (up, down):  5.984E-02 0.000E+00

     total cpu time spent up to now is    34950.0 secs

     total energy              =  -11682.11027850 Ry
     estimated scf accuracy    <       0.00145918 Ry

     iteration #119     ecut=    80.00 Ry     beta= 0.10
     Davidson diagonalization with overlap
     ethr =  1.66E-08,  avg # of iterations =  1.0

     negative rho (up, down):  5.985E-02 0.000E+00

     total cpu time spent up to now is    35235.6 secs

     total energy              =  -11682.11028913 Ry
     estimated scf accuracy    <       0.00039522 Ry

     iteration #120     ecut=    80.00 Ry     beta= 0.10
     Davidson diagonalization with overlap
     ethr =  1.66E-08,  avg # of iterations =  1.0

     negative rho (up, down):  5.985E-02 0.000E+00

     total cpu time spent up to now is    35521.5 secs

     total energy              =  -11682.11029232 Ry
     estimated scf accuracy    <       0.00025719 Ry

     iteration #121     ecut=    80.00 Ry     beta= 0.10
     Davidson diagonalization with overlap
     ethr =  1.37E-08,  avg # of iterations =  1.0

     negative rho (up, down):  5.986E-02 0.000E+00

     total cpu time spent up to now is    35806.6 secs

     total energy              =  -11682.11029480 Ry
     estimated scf accuracy    <       0.00019775 Ry

     iteration #122     ecut=    80.00 Ry     beta= 0.10
     Davidson diagonalization with overlap
     ethr =  1.06E-08,  avg # of iterations =  1.0

     negative rho (up, down):  5.986E-02 0.000E+00

     total cpu time spent up to now is    36092.1 secs

     total energy              =  -11682.11029563 Ry
     estimated scf accuracy    <       0.00032143 Ry

     iteration #123     ecut=    80.00 Ry     beta= 0.10
     Davidson diagonalization with overlap
     ethr =  1.06E-08,  avg # of iterations =  1.0

     negative rho (up, down):  5.987E-02 0.000E+00

     total cpu time spent up to now is    36389.3 secs

     total energy              =  -11682.11030171 Ry
     estimated scf accuracy    <       0.00022285 Ry

     iteration #124     ecut=    80.00 Ry     beta= 0.10
     Davidson diagonalization with overlap
     ethr =  1.06E-08,  avg # of iterations =  1.0

     negative rho (up, down):  5.986E-02 0.000E+00

     total cpu time spent up to now is    36674.2 secs

     total energy              =  -11682.11029506 Ry
     estimated scf accuracy    <       0.00035559 Ry

     iteration #125     ecut=    80.00 Ry     beta= 0.10
     Davidson diagonalization with overlap
     ethr =  1.06E-08,  avg # of iterations =  1.0

     negative rho (up, down):  5.987E-02 0.000E+00

     total cpu time spent up to now is    36959.9 secs

     total energy              =  -11682.11029723 Ry
     estimated scf accuracy    <       0.00046320 Ry

     iteration #126     ecut=    80.00 Ry     beta= 0.10
     Davidson diagonalization with overlap
     ethr =  1.06E-08,  avg # of iterations =  1.0

     negative rho (up, down):  5.988E-02 0.000E+00

     total cpu time spent up to now is    37244.7 secs

     total energy              =  -11682.11029906 Ry
     estimated scf accuracy    <       0.00107933 Ry

     iteration #127     ecut=    80.00 Ry     beta= 0.10
     Davidson diagonalization with overlap
     ethr =  1.06E-08,  avg # of iterations =  1.0

     negative rho (up, down):  5.988E-02 0.000E+00

     total cpu time spent up to now is    37529.6 secs

     total energy              =  -11682.11029988 Ry
     estimated scf accuracy    <       0.00056276 Ry

     iteration #128     ecut=    80.00 Ry     beta= 0.10
     Davidson diagonalization with overlap
     ethr =  1.06E-08,  avg # of iterations =  1.0

     negative rho (up, down):  5.988E-02 0.000E+00

     total cpu time spent up to now is    37815.4 secs

     total energy              =  -11682.11029388 Ry
     estimated scf accuracy    <       0.00142070 Ry

     iteration #129     ecut=    80.00 Ry     beta= 0.10
     Davidson diagonalization with overlap
     ethr =  1.06E-08,  avg # of iterations =  1.0

     negative rho (up, down):  5.988E-02 0.000E+00

     total cpu time spent up to now is    38100.8 secs

     total energy              =  -11682.11030059 Ry
     estimated scf accuracy    <       0.00053040 Ry

     iteration #130     ecut=    80.00 Ry     beta= 0.10
     Davidson diagonalization with overlap
     ethr =  1.06E-08,  avg # of iterations =  1.0

     negative rho (up, down):  5.988E-02 0.000E+00

     total cpu time spent up to now is    38385.8 secs

     total energy              =  -11682.11030437 Ry
     estimated scf accuracy    <       0.00032458 Ry

     iteration #131     ecut=    80.00 Ry     beta= 0.10
     Davidson diagonalization with overlap
     ethr =  1.06E-08,  avg # of iterations =  1.0

     negative rho (up, down):  5.988E-02 0.000E+00

     total cpu time spent up to now is    38672.1 secs

     total energy              =  -11682.11030672 Ry
     estimated scf accuracy    <       0.00016491 Ry

     iteration #132     ecut=    80.00 Ry     beta= 0.10
     Davidson diagonalization with overlap
     ethr =  8.81E-09,  avg # of iterations =  1.0

     negative rho (up, down):  5.988E-02 0.000E+00

     total cpu time spent up to now is    38958.0 secs

     total energy              =  -11682.11030754 Ry
     estimated scf accuracy    <       0.00012121 Ry

     iteration #133     ecut=    80.00 Ry     beta= 0.10
     Davidson diagonalization with overlap
     ethr =  6.48E-09,  avg # of iterations =  1.0

     negative rho (up, down):  5.989E-02 0.000E+00

     total cpu time spent up to now is    39246.1 secs

     total energy              =  -11682.11031029 Ry
     estimated scf accuracy    <       0.00008557 Ry

     iteration #134     ecut=    80.00 Ry     beta= 0.10
     Davidson diagonalization with overlap
     ethr =  4.57E-09,  avg # of iterations =  1.0

     negative rho (up, down):  5.989E-02 0.000E+00

     total cpu time spent up to now is    39531.6 secs

     total energy              =  -11682.11030875 Ry
     estimated scf accuracy    <       0.00009251 Ry

     iteration #135     ecut=    80.00 Ry     beta= 0.10
     Davidson diagonalization with overlap
     ethr =  4.57E-09,  avg # of iterations =  1.0

     negative rho (up, down):  5.989E-02 0.000E+00

     total cpu time spent up to now is    39816.7 secs

     total energy              =  -11682.11030858 Ry
     estimated scf accuracy    <       0.00023643 Ry

     iteration #136     ecut=    80.00 Ry     beta= 0.10
     Davidson diagonalization with overlap
     ethr =  4.57E-09,  avg # of iterations =  1.0

     negative rho (up, down):  5.990E-02 0.000E+00

     total cpu time spent up to now is    40102.4 secs

     total energy              =  -11682.11031149 Ry
     estimated scf accuracy    <       0.00019327 Ry

     iteration #137     ecut=    80.00 Ry     beta= 0.10
     Davidson diagonalization with overlap
     ethr =  4.57E-09,  avg # of iterations =  1.0

     negative rho (up, down):  5.990E-02 0.000E+00

     total cpu time spent up to now is    40388.1 secs

     total energy              =  -11682.11031293 Ry
     estimated scf accuracy    <       0.00019843 Ry

     iteration #138     ecut=    80.00 Ry     beta= 0.10
     Davidson diagonalization with overlap
     ethr =  4.57E-09,  avg # of iterations =  1.0

     negative rho (up, down):  5.990E-02 0.000E+00

     total cpu time spent up to now is    40676.9 secs

     total energy              =  -11682.11031051 Ry
     estimated scf accuracy    <       0.00037429 Ry

     iteration #139     ecut=    80.00 Ry     beta= 0.10
     Davidson diagonalization with overlap
     ethr =  4.57E-09,  avg # of iterations =  1.0

     negative rho (up, down):  5.990E-02 0.000E+00

     total cpu time spent up to now is    40962.9 secs

     total energy              =  -11682.11030925 Ry
     estimated scf accuracy    <       0.00036278 Ry

     iteration #140     ecut=    80.00 Ry     beta= 0.10
     Davidson diagonalization with overlap
     ethr =  4.57E-09,  avg # of iterations =  1.0

     negative rho (up, down):  5.990E-02 0.000E+00

     total cpu time spent up to now is    41248.9 secs

     total energy              =  -11682.11031099 Ry
     estimated scf accuracy    <       0.00034727 Ry

     iteration #141     ecut=    80.00 Ry     beta= 0.10
     Davidson diagonalization with overlap
     ethr =  4.57E-09,  avg # of iterations =  1.0

     negative rho (up, down):  5.990E-02 0.000E+00

     total cpu time spent up to now is    41535.2 secs

     total energy              =  -11682.11031295 Ry
     estimated scf accuracy    <       0.00016734 Ry

     iteration #142     ecut=    80.00 Ry     beta= 0.10
     Davidson diagonalization with overlap
     ethr =  4.57E-09,  avg # of iterations =  1.0

     negative rho (up, down):  5.990E-02 0.000E+00

     total cpu time spent up to now is    41819.7 secs

     total energy              =  -11682.11031341 Ry
     estimated scf accuracy    <       0.00011320 Ry

     iteration #143     ecut=    80.00 Ry     beta= 0.10
     Davidson diagonalization with overlap
     ethr =  4.57E-09,  avg # of iterations =  1.0

     negative rho (up, down):  5.991E-02 0.000E+00

     total cpu time spent up to now is    42105.2 secs

     total energy              =  -11682.11031523 Ry
     estimated scf accuracy    <       0.00006690 Ry

     iteration #144     ecut=    80.00 Ry     beta= 0.10
     Davidson diagonalization with overlap
     ethr =  3.57E-09,  avg # of iterations =  1.0

     negative rho (up, down):  5.991E-02 0.000E+00

     total cpu time spent up to now is    42390.2 secs

     total energy              =  -11682.11031522 Ry
     estimated scf accuracy    <       0.00004361 Ry

     iteration #145     ecut=    80.00 Ry     beta= 0.10
     Davidson diagonalization with overlap
     ethr =  2.33E-09,  avg # of iterations =  1.0

     negative rho (up, down):  5.991E-02 0.000E+00

     total cpu time spent up to now is    42675.9 secs

     total energy              =  -11682.11031461 Ry
     estimated scf accuracy    <       0.00010659 Ry

     iteration #146     ecut=    80.00 Ry     beta= 0.10
     Davidson diagonalization with overlap
     ethr =  2.33E-09,  avg # of iterations =  1.0

     negative rho (up, down):  5.991E-02 0.000E+00

     total cpu time spent up to now is    42961.5 secs

     total energy              =  -11682.11031611 Ry
     estimated scf accuracy    <       0.00007522 Ry

     iteration #147     ecut=    80.00 Ry     beta= 0.10
     Davidson diagonalization with overlap
     ethr =  2.33E-09,  avg # of iterations =  1.0

     negative rho (up, down):  5.992E-02 0.000E+00

     total cpu time spent up to now is    43246.7 secs

     total energy              =  -11682.11031731 Ry
     estimated scf accuracy    <       0.00004672 Ry

     iteration #148     ecut=    80.00 Ry     beta= 0.10
     Davidson diagonalization with overlap
     ethr =  2.33E-09,  avg # of iterations =  1.0

     negative rho (up, down):  5.992E-02 0.000E+00

     total cpu time spent up to now is    43532.0 secs

     total energy              =  -11682.11031685 Ry
     estimated scf accuracy    <       0.00008734 Ry

     iteration #149     ecut=    80.00 Ry     beta= 0.10
     Davidson diagonalization with overlap
     ethr =  2.33E-09,  avg # of iterations =  1.0

     negative rho (up, down):  5.991E-02 0.000E+00

     total cpu time spent up to now is    43817.7 secs

     total energy              =  -11682.11031561 Ry
     estimated scf accuracy    <       0.00014977 Ry

     iteration #150     ecut=    80.00 Ry     beta= 0.10
     Davidson diagonalization with overlap
     ethr =  2.33E-09,  avg # of iterations =  1.0

     negative rho (up, down):  5.992E-02 0.000E+00

     total cpu time spent up to now is    44103.9 secs

     total energy              =  -11682.11031555 Ry
     estimated scf accuracy    <       0.00025734 Ry

     iteration #151     ecut=    80.00 Ry     beta= 0.10
     Davidson diagonalization with overlap
     ethr =  2.33E-09,  avg # of iterations =  1.0

     negative rho (up, down):  5.992E-02 0.000E+00

     total cpu time spent up to now is    44390.0 secs

     total energy              =  -11682.11031672 Ry
     estimated scf accuracy    <       0.00014237 Ry

     iteration #152     ecut=    80.00 Ry     beta= 0.10
     Davidson diagonalization with overlap
     ethr =  2.33E-09,  avg # of iterations =  1.0

     negative rho (up, down):  5.992E-02 0.000E+00

     total cpu time spent up to now is    44674.9 secs

     total energy              =  -11682.11031692 Ry
     estimated scf accuracy    <       0.00009462 Ry

     iteration #153     ecut=    80.00 Ry     beta= 0.10
     Davidson diagonalization with overlap
     ethr =  2.33E-09,  avg # of iterations =  1.0

     negative rho (up, down):  5.992E-02 0.000E+00

     total cpu time spent up to now is    44960.9 secs

     total energy              =  -11682.11031796 Ry
     estimated scf accuracy    <       0.00006349 Ry

     iteration #154     ecut=    80.00 Ry     beta= 0.10
     Davidson diagonalization with overlap
     ethr =  2.33E-09,  avg # of iterations =  1.0

     negative rho (up, down):  5.992E-02 0.000E+00

     total cpu time spent up to now is    45245.9 secs

     total energy              =  -11682.11031835 Ry
     estimated scf accuracy    <       0.00002736 Ry

     iteration #155     ecut=    80.00 Ry     beta= 0.10
     Davidson diagonalization with overlap
     ethr =  1.46E-09,  avg # of iterations =  1.0

     negative rho (up, down):  5.992E-02 0.000E+00

     total cpu time spent up to now is    45531.0 secs

     total energy              =  -11682.11031772 Ry
     estimated scf accuracy    <       0.00006013 Ry

     iteration #156     ecut=    80.00 Ry     beta= 0.10
     Davidson diagonalization with overlap
     ethr =  1.46E-09,  avg # of iterations =  1.0

     negative rho (up, down):  5.992E-02 0.000E+00

     total cpu time spent up to now is    45816.1 secs

     total energy              =  -11682.11031847 Ry
     estimated scf accuracy    <       0.00004966 Ry

     iteration #157     ecut=    80.00 Ry     beta= 0.10
     Davidson diagonalization with overlap
     ethr =  1.46E-09,  avg # of iterations =  1.0

     negative rho (up, down):  5.993E-02 0.000E+00

     total cpu time spent up to now is    46101.2 secs

     total energy              =  -11682.11031908 Ry
     estimated scf accuracy    <       0.00001518 Ry

     iteration #158     ecut=    80.00 Ry     beta= 0.10
     Davidson diagonalization with overlap
     ethr =  8.11E-10,  avg # of iterations =  1.0

     negative rho (up, down):  5.993E-02 0.000E+00

     total cpu time spent up to now is    46386.4 secs

     total energy              =  -11682.11031920 Ry
     estimated scf accuracy    <       0.00001783 Ry

     iteration #159     ecut=    80.00 Ry     beta= 0.10
     Davidson diagonalization with overlap
     ethr =  8.11E-10,  avg # of iterations =  1.0

     negative rho (up, down):  5.993E-02 0.000E+00

     total cpu time spent up to now is    46672.2 secs

     total energy              =  -11682.11031896 Ry
     estimated scf accuracy    <       0.00004156 Ry

     iteration #160     ecut=    80.00 Ry     beta= 0.10
     Davidson diagonalization with overlap
     ethr =  8.11E-10,  avg # of iterations =  1.0

     negative rho (up, down):  5.993E-02 0.000E+00

     total cpu time spent up to now is    46958.0 secs

     total energy              =  -11682.11031875 Ry
     estimated scf accuracy    <       0.00009668 Ry

     iteration #161     ecut=    80.00 Ry     beta= 0.10
     Davidson diagonalization with overlap
     ethr =  8.11E-10,  avg # of iterations =  1.0

     negative rho (up, down):  5.993E-02 0.000E+00

     total cpu time spent up to now is    47244.0 secs

     total energy              =  -11682.11031912 Ry
     estimated scf accuracy    <       0.00006770 Ry

     iteration #162     ecut=    80.00 Ry     beta= 0.10
     Davidson diagonalization with overlap
     ethr =  8.11E-10,  avg # of iterations =  1.0

     negative rho (up, down):  5.993E-02 0.000E+00

     total cpu time spent up to now is    47529.7 secs

     total energy              =  -11682.11031921 Ry
     estimated scf accuracy    <       0.00005006 Ry

     iteration #163     ecut=    80.00 Ry     beta= 0.10
     Davidson diagonalization with overlap
     ethr =  8.11E-10,  avg # of iterations =  1.0

     negative rho (up, down):  5.993E-02 0.000E+00

     total cpu time spent up to now is    47815.4 secs

     total energy              =  -11682.11031951 Ry
     estimated scf accuracy    <       0.00004290 Ry

     iteration #164     ecut=    80.00 Ry     beta= 0.10
     Davidson diagonalization with overlap
     ethr =  8.11E-10,  avg # of iterations =  1.0

     negative rho (up, down):  5.993E-02 0.000E+00

     total cpu time spent up to now is    48100.7 secs

     total energy              =  -11682.11031993 Ry
     estimated scf accuracy    <       0.00001720 Ry

     iteration #165     ecut=    80.00 Ry     beta= 0.10
     Davidson diagonalization with overlap
     ethr =  8.11E-10,  avg # of iterations =  1.0

     negative rho (up, down):  5.993E-02 0.000E+00

     total cpu time spent up to now is    48386.1 secs

     total energy              =  -11682.11031934 Ry
     estimated scf accuracy    <       0.00003493 Ry

     iteration #166     ecut=    80.00 Ry     beta= 0.10
     Davidson diagonalization with overlap
     ethr =  8.11E-10,  avg # of iterations =  1.0

     negative rho (up, down):  5.993E-02 0.000E+00

     total cpu time spent up to now is    48671.0 secs

     total energy              =  -11682.11031965 Ry
     estimated scf accuracy    <       0.00005821 Ry

     iteration #167     ecut=    80.00 Ry     beta= 0.10
     Davidson diagonalization with overlap
     ethr =  8.11E-10,  avg # of iterations =  1.0

     negative rho (up, down):  5.993E-02 0.000E+00

     total cpu time spent up to now is    48956.4 secs

     total energy              =  -11682.11032010 Ry
     estimated scf accuracy    <       0.00001085 Ry

     iteration #168     ecut=    80.00 Ry     beta= 0.10
     Davidson diagonalization with overlap
     ethr =  5.79E-10,  avg # of iterations =  1.0

     negative rho (up, down):  5.993E-02 0.000E+00

     total cpu time spent up to now is    49242.3 secs

     total energy              =  -11682.11032020 Ry
     estimated scf accuracy    <       0.00000775 Ry

     iteration #169     ecut=    80.00 Ry     beta= 0.10
     Davidson diagonalization with overlap
     ethr =  4.14E-10,  avg # of iterations =  1.0

     negative rho (up, down):  5.993E-02 0.000E+00

     total cpu time spent up to now is    49527.5 secs

     total energy              =  -11682.11032026 Ry
     estimated scf accuracy    <       0.00001027 Ry

     iteration #170     ecut=    80.00 Ry     beta= 0.10
     Davidson diagonalization with overlap
     ethr =  4.14E-10,  avg # of iterations =  1.0

     negative rho (up, down):  5.994E-02 0.000E+00

     total cpu time spent up to now is    49813.1 secs

     total energy              =  -11682.11032020 Ry
     estimated scf accuracy    <       0.00002778 Ry

     iteration #171     ecut=    80.00 Ry     beta= 0.10
     Davidson diagonalization with overlap
     ethr =  4.14E-10,  avg # of iterations =  1.0

     negative rho (up, down):  5.994E-02 0.000E+00

     total cpu time spent up to now is    50098.5 secs

     total energy              =  -11682.11032031 Ry
     estimated scf accuracy    <       0.00002316 Ry

     iteration #172     ecut=    80.00 Ry     beta= 0.10
     Davidson diagonalization with overlap
     ethr =  4.14E-10,  avg # of iterations =  1.0

     negative rho (up, down):  5.994E-02 0.000E+00

     total cpu time spent up to now is    50383.3 secs

     total energy              =  -11682.11032040 Ry
     estimated scf accuracy    <       0.00001762 Ry

     iteration #173     ecut=    80.00 Ry     beta= 0.10
     Davidson diagonalization with overlap
     ethr =  4.14E-10,  avg # of iterations =  1.0

     negative rho (up, down):  5.994E-02 0.000E+00

     total cpu time spent up to now is    50669.7 secs

     total energy              =  -11682.11032043 Ry
     estimated scf accuracy    <       0.00001859 Ry

     iteration #174     ecut=    80.00 Ry     beta= 0.10
     Davidson diagonalization with overlap
     ethr =  4.14E-10,  avg # of iterations =  1.0

     negative rho (up, down):  5.994E-02 0.000E+00

     total cpu time spent up to now is    50954.4 secs

     total energy              =  -11682.11032068 Ry
     estimated scf accuracy    <       0.00000912 Ry

     iteration #175     ecut=    80.00 Ry     beta= 0.10
     Davidson diagonalization with overlap
     ethr =  4.14E-10,  avg # of iterations =  1.0

     negative rho (up, down):  5.994E-02 0.000E+00

     total cpu time spent up to now is    51239.1 secs

     total energy              =  -11682.11032038 Ry
     estimated scf accuracy    <       0.00001612 Ry

     iteration #176     ecut=    80.00 Ry     beta= 0.10
     Davidson diagonalization with overlap
     ethr =  4.14E-10,  avg # of iterations =  1.0

     negative rho (up, down):  5.994E-02 0.000E+00

     total cpu time spent up to now is    51523.7 secs

     total energy              =  -11682.11032026 Ry
     estimated scf accuracy    <       0.00006606 Ry

     iteration #177     ecut=    80.00 Ry     beta= 0.10
     Davidson diagonalization with overlap
     ethr =  4.14E-10,  avg # of iterations =  1.0

     negative rho (up, down):  5.994E-02 0.000E+00

     total cpu time spent up to now is    51808.1 secs

     total energy              =  -11682.11032064 Ry
     estimated scf accuracy    <       0.00001349 Ry

     iteration #178     ecut=    80.00 Ry     beta= 0.10
     Davidson diagonalization with overlap
     ethr =  4.14E-10,  avg # of iterations =  1.0

     negative rho (up, down):  5.994E-02 0.000E+00

     total cpu time spent up to now is    52093.9 secs

     total energy              =  -11682.11032074 Ry
     estimated scf accuracy    <       0.00000638 Ry

     iteration #179     ecut=    80.00 Ry     beta= 0.10
     Davidson diagonalization with overlap
     ethr =  3.41E-10,  avg # of iterations =  1.0

     negative rho (up, down):  5.994E-02 0.000E+00

     total cpu time spent up to now is    52379.9 secs

     total energy              =  -11682.11032081 Ry
     estimated scf accuracy    <       0.00000469 Ry

     iteration #180     ecut=    80.00 Ry     beta= 0.10
     Davidson diagonalization with overlap
     ethr =  2.51E-10,  avg # of iterations =  1.0

     negative rho (up, down):  5.994E-02 0.000E+00

     total cpu time spent up to now is    52665.1 secs

     total energy              =  -11682.11032081 Ry
     estimated scf accuracy    <       0.00000908 Ry

     iteration #181     ecut=    80.00 Ry     beta= 0.10
     Davidson diagonalization with overlap
     ethr =  2.51E-10,  avg # of iterations =  1.0

     negative rho (up, down):  5.994E-02 0.000E+00

     total cpu time spent up to now is    52951.8 secs

     total energy              =  -11682.11032085 Ry
     estimated scf accuracy    <       0.00000755 Ry

     iteration #182     ecut=    80.00 Ry     beta= 0.10
     Davidson diagonalization with overlap
     ethr =  2.51E-10,  avg # of iterations =  1.0

     negative rho (up, down):  5.994E-02 0.000E+00

     total cpu time spent up to now is    53236.3 secs

     total energy              =  -11682.11032091 Ry
     estimated scf accuracy    <       0.00000546 Ry

     iteration #183     ecut=    80.00 Ry     beta= 0.10
     Davidson diagonalization with overlap
     ethr =  2.51E-10,  avg # of iterations =  1.0

     negative rho (up, down):  5.994E-02 0.000E+00

     total cpu time spent up to now is    53521.9 secs

     total energy              =  -11682.11032090 Ry
     estimated scf accuracy    <       0.00000623 Ry

     iteration #184     ecut=    80.00 Ry     beta= 0.10
     Davidson diagonalization with overlap
     ethr =  2.51E-10,  avg # of iterations =  1.0

     negative rho (up, down):  5.994E-02 0.000E+00

     total cpu time spent up to now is    53809.0 secs

     total energy              =  -11682.11032103 Ry
     estimated scf accuracy    <       0.00000396 Ry

     iteration #185     ecut=    80.00 Ry     beta= 0.10
     Davidson diagonalization with overlap
     ethr =  2.12E-10,  avg # of iterations =  1.0

     negative rho (up, down):  5.994E-02 0.000E+00

     total cpu time spent up to now is    54094.0 secs

     total energy              =  -11682.11032099 Ry
     estimated scf accuracy    <       0.00000561 Ry

     iteration #186     ecut=    80.00 Ry     beta= 0.10
     Davidson diagonalization with overlap
     ethr =  2.12E-10,  avg # of iterations =  1.0

     negative rho (up, down):  5.994E-02 0.000E+00

     total cpu time spent up to now is    54379.3 secs

     total energy              =  -11682.11032077 Ry
     estimated scf accuracy    <       0.00004186 Ry

     iteration #187     ecut=    80.00 Ry     beta= 0.10
     Davidson diagonalization with overlap
     ethr =  2.12E-10,  avg # of iterations =  1.0

     negative rho (up, down):  5.994E-02 0.000E+00

     total cpu time spent up to now is    54665.4 secs

     total energy              =  -11682.11032094 Ry
     estimated scf accuracy    <       0.00001312 Ry

     iteration #188     ecut=    80.00 Ry     beta= 0.10
     Davidson diagonalization with overlap
     ethr =  2.12E-10,  avg # of iterations =  1.0

     negative rho (up, down):  5.994E-02 0.000E+00

     total cpu time spent up to now is    54950.7 secs

     total energy              =  -11682.11032102 Ry
     estimated scf accuracy    <       0.00000675 Ry

     iteration #189     ecut=    80.00 Ry     beta= 0.10
     Davidson diagonalization with overlap
     ethr =  2.12E-10,  avg # of iterations =  1.0

     negative rho (up, down):  5.994E-02 0.000E+00

     total cpu time spent up to now is    55236.2 secs

     total energy              =  -11682.11032108 Ry
     estimated scf accuracy    <       0.00000355 Ry

     iteration #190     ecut=    80.00 Ry     beta= 0.10
     Davidson diagonalization with overlap
     ethr =  1.89E-10,  avg # of iterations =  1.0

     negative rho (up, down):  5.994E-02 0.000E+00

     total cpu time spent up to now is    55521.9 secs

     total energy              =  -11682.11032108 Ry
     estimated scf accuracy    <       0.00000583 Ry

     iteration #191     ecut=    80.00 Ry     beta= 0.10
     Davidson diagonalization with overlap
     ethr =  1.89E-10,  avg # of iterations =  1.0

     negative rho (up, down):  5.994E-02 0.000E+00

     total cpu time spent up to now is    55806.5 secs

     total energy              =  -11682.11032110 Ry
     estimated scf accuracy    <       0.00000398 Ry

     iteration #192     ecut=    80.00 Ry     beta= 0.10
     Davidson diagonalization with overlap
     ethr =  1.89E-10,  avg # of iterations =  1.0

     negative rho (up, down):  5.995E-02 0.000E+00

     total cpu time spent up to now is    56091.4 secs

     total energy              =  -11682.11032114 Ry
     estimated scf accuracy    <       0.00000250 Ry

     iteration #193     ecut=    80.00 Ry     beta= 0.10
     Davidson diagonalization with overlap
     ethr =  1.33E-10,  avg # of iterations =  1.0

     negative rho (up, down):  5.995E-02 0.000E+00

     total cpu time spent up to now is    56381.2 secs

     total energy              =  -11682.11032114 Ry
     estimated scf accuracy    <       0.00000248 Ry

     iteration #194     ecut=    80.00 Ry     beta= 0.10
     Davidson diagonalization with overlap
     ethr =  1.32E-10,  avg # of iterations =  1.0

     negative rho (up, down):  5.995E-02 0.000E+00

     total cpu time spent up to now is    56666.0 secs

     total energy              =  -11682.11032119 Ry
     estimated scf accuracy    <       0.00000163 Ry

     iteration #195     ecut=    80.00 Ry     beta= 0.10
     Davidson diagonalization with overlap
     ethr =  8.69E-11,  avg # of iterations =  1.0

     negative rho (up, down):  5.995E-02 0.000E+00

     total cpu time spent up to now is    56951.2 secs

     total energy              =  -11682.11032123 Ry
     estimated scf accuracy    <       0.00000162 Ry

     iteration #196     ecut=    80.00 Ry     beta= 0.10
     Davidson diagonalization with overlap
     ethr =  8.67E-11,  avg # of iterations =  1.0

     negative rho (up, down):  5.995E-02 0.000E+00

     total cpu time spent up to now is    57236.2 secs

     total energy              =  -11682.11032115 Ry
     estimated scf accuracy    <       0.00001171 Ry

     iteration #197     ecut=    80.00 Ry     beta= 0.10
     Davidson diagonalization with overlap
     ethr =  8.67E-11,  avg # of iterations =  1.0

     negative rho (up, down):  5.995E-02 0.000E+00

     total cpu time spent up to now is    57522.1 secs

     total energy              =  -11682.11032114 Ry
     estimated scf accuracy    <       0.00000732 Ry

     iteration #198     ecut=    80.00 Ry     beta= 0.10
     Davidson diagonalization with overlap
     ethr =  8.67E-11,  avg # of iterations =  1.0

     negative rho (up, down):  5.995E-02 0.000E+00

     total cpu time spent up to now is    57807.8 secs

     total energy              =  -11682.11032117 Ry
     estimated scf accuracy    <       0.00000584 Ry

     iteration #199     ecut=    80.00 Ry     beta= 0.10
     Davidson diagonalization with overlap
     ethr =  8.67E-11,  avg # of iterations =  1.0

     negative rho (up, down):  5.995E-02 0.000E+00

     total cpu time spent up to now is    58092.8 secs

     total energy              =  -11682.11032122 Ry
     estimated scf accuracy    <       0.00000307 Ry

     iteration #200     ecut=    80.00 Ry     beta= 0.10
     Davidson diagonalization with overlap
     ethr =  8.67E-11,  avg # of iterations =  1.0

     negative rho (up, down):  5.995E-02 0.000E+00

     total cpu time spent up to now is    58377.7 secs

     total energy              =  -11682.11032122 Ry
     estimated scf accuracy    <       0.00000472 Ry

     iteration #201     ecut=    80.00 Ry     beta= 0.10
     Davidson diagonalization with overlap
     ethr =  8.67E-11,  avg # of iterations =  1.0

     negative rho (up, down):  5.995E-02 0.000E+00

     total cpu time spent up to now is    58663.0 secs

     total energy              =  -11682.11032122 Ry
     estimated scf accuracy    <       0.00000338 Ry

     iteration #202     ecut=    80.00 Ry     beta= 0.10
     Davidson diagonalization with overlap
     ethr =  8.67E-11,  avg # of iterations =  1.0

     negative rho (up, down):  5.995E-02 0.000E+00

     total cpu time spent up to now is    58948.9 secs

     total energy              =  -11682.11032125 Ry
     estimated scf accuracy    <       0.00000202 Ry

     iteration #203     ecut=    80.00 Ry     beta= 0.10
     Davidson diagonalization with overlap
     ethr =  8.67E-11,  avg # of iterations =  1.0

     negative rho (up, down):  5.995E-02 0.000E+00

     total cpu time spent up to now is    59234.9 secs

     total energy              =  -11682.11032125 Ry
     estimated scf accuracy    <       0.00000159 Ry

     iteration #204     ecut=    80.00 Ry     beta= 0.10
     Davidson diagonalization with overlap
     ethr =  8.49E-11,  avg # of iterations =  1.0

     negative rho (up, down):  5.995E-02 0.000E+00

     total cpu time spent up to now is    59520.4 secs

     total energy              =  -11682.11032128 Ry
     estimated scf accuracy    <       0.00000088 Ry

     iteration #205     ecut=    80.00 Ry     beta= 0.10
     Davidson diagonalization with overlap
     ethr =  4.73E-11,  avg # of iterations =  1.0

     negative rho (up, down):  5.995E-02 0.000E+00

     total cpu time spent up to now is    59806.5 secs

     total energy              =  -11682.11032130 Ry
     estimated scf accuracy    <       0.00000049 Ry

     iteration #206     ecut=    80.00 Ry     beta= 0.10
     Davidson diagonalization with overlap
     ethr =  2.63E-11,  avg # of iterations =  1.0

     negative rho (up, down):  5.995E-02 0.000E+00

     total cpu time spent up to now is    60092.2 secs

     total energy              =  -11682.11032128 Ry
     estimated scf accuracy    <       0.00000228 Ry

     iteration #207     ecut=    80.00 Ry     beta= 0.10
     Davidson diagonalization with overlap
     ethr =  2.63E-11,  avg # of iterations =  1.0

     negative rho (up, down):  5.995E-02 0.000E+00

     total cpu time spent up to now is    60377.2 secs

     total energy              =  -11682.11032127 Ry
     estimated scf accuracy    <       0.00000266 Ry

     iteration #208     ecut=    80.00 Ry     beta= 0.10
     Davidson diagonalization with overlap
     ethr =  2.63E-11,  avg # of iterations =  1.0

     negative rho (up, down):  5.995E-02 0.000E+00

     total cpu time spent up to now is    60664.8 secs

     total energy              =  -11682.11032127 Ry
     estimated scf accuracy    <       0.00000365 Ry

     iteration #209     ecut=    80.00 Ry     beta= 0.10
     Davidson diagonalization with overlap
     ethr =  2.63E-11,  avg # of iterations =  1.0

     negative rho (up, down):  5.995E-02 0.000E+00

     total cpu time spent up to now is    60951.0 secs

     total energy              =  -11682.11032129 Ry
     estimated scf accuracy    <       0.00000217 Ry

     iteration #210     ecut=    80.00 Ry     beta= 0.10
     Davidson diagonalization with overlap
     ethr =  2.63E-11,  avg # of iterations =  1.0

     negative rho (up, down):  5.995E-02 0.000E+00

     total cpu time spent up to now is    61236.8 secs

     total energy              =  -11682.11032129 Ry
     estimated scf accuracy    <       0.00000291 Ry

     iteration #211     ecut=    80.00 Ry     beta= 0.10
     Davidson diagonalization with overlap
     ethr =  2.63E-11,  avg # of iterations =  1.0

     negative rho (up, down):  5.995E-02 0.000E+00

     total cpu time spent up to now is    61523.0 secs

     total energy              =  -11682.11032129 Ry
     estimated scf accuracy    <       0.00000235 Ry

     iteration #212     ecut=    80.00 Ry     beta= 0.10
     Davidson diagonalization with overlap
     ethr =  2.63E-11,  avg # of iterations =  1.0

     negative rho (up, down):  5.995E-02 0.000E+00

     total cpu time spent up to now is    61808.8 secs

     total energy              =  -11682.11032130 Ry
     estimated scf accuracy    <       0.00000171 Ry

     iteration #213     ecut=    80.00 Ry     beta= 0.10
     Davidson diagonalization with overlap
     ethr =  2.63E-11,  avg # of iterations =  1.0

     negative rho (up, down):  5.995E-02 0.000E+00

     total cpu time spent up to now is    62094.7 secs

     total energy              =  -11682.11032130 Ry
     estimated scf accuracy    <       0.00000128 Ry

     iteration #214     ecut=    80.00 Ry     beta= 0.10
     Davidson diagonalization with overlap
     ethr =  2.63E-11,  avg # of iterations =  1.0

     negative rho (up, down):  5.995E-02 0.000E+00

     total cpu time spent up to now is    62380.3 secs

     total energy              =  -11682.11032131 Ry
     estimated scf accuracy    <       0.00000079 Ry

     iteration #215     ecut=    80.00 Ry     beta= 0.10
     Davidson diagonalization with overlap
     ethr =  2.63E-11,  avg # of iterations =  1.0

     negative rho (up, down):  5.995E-02 0.000E+00

     total cpu time spent up to now is    62666.4 secs

     total energy              =  -11682.11032133 Ry
     estimated scf accuracy    <       0.00000024 Ry

     iteration #216     ecut=    80.00 Ry     beta= 0.10
     Davidson diagonalization with overlap
     ethr =  1.27E-11,  avg # of iterations =  1.0

     negative rho (up, down):  5.995E-02 0.000E+00

     total cpu time spent up to now is    62952.1 secs

     total energy              =  -11682.11032132 Ry
     estimated scf accuracy    <       0.00000061 Ry

     iteration #217     ecut=    80.00 Ry     beta= 0.10
     Davidson diagonalization with overlap
     ethr =  1.27E-11,  avg # of iterations =  1.0

     negative rho (up, down):  5.995E-02 0.000E+00

     total cpu time spent up to now is    63238.1 secs

     total energy              =  -11682.11032132 Ry
     estimated scf accuracy    <       0.00000081 Ry

     iteration #218     ecut=    80.00 Ry     beta= 0.10
     Davidson diagonalization with overlap
     ethr =  1.27E-11,  avg # of iterations =  1.0

     negative rho (up, down):  5.995E-02 0.000E+00

     total cpu time spent up to now is    63523.7 secs

     total energy              =  -11682.11032132 Ry
     estimated scf accuracy    <       0.00000138 Ry

     iteration #219     ecut=    80.00 Ry     beta= 0.10
     Davidson diagonalization with overlap
     ethr =  1.27E-11,  avg # of iterations =  1.0

     negative rho (up, down):  5.995E-02 0.000E+00

     total cpu time spent up to now is    63808.9 secs

     total energy              =  -11682.11032133 Ry
     estimated scf accuracy    <       0.00000086 Ry

     iteration #220     ecut=    80.00 Ry     beta= 0.10
     Davidson diagonalization with overlap
     ethr =  1.27E-11,  avg # of iterations =  1.0

     negative rho (up, down):  5.995E-02 0.000E+00

     total cpu time spent up to now is    64094.6 secs

     total energy              =  -11682.11032133 Ry
     estimated scf accuracy    <       0.00000108 Ry

     iteration #221     ecut=    80.00 Ry     beta= 0.10
     Davidson diagonalization with overlap
     ethr =  1.27E-11,  avg # of iterations =  1.0

     negative rho (up, down):  5.995E-02 0.000E+00

     total cpu time spent up to now is    64380.0 secs

     total energy              =  -11682.11032133 Ry
     estimated scf accuracy    <       0.00000106 Ry

     iteration #222     ecut=    80.00 Ry     beta= 0.10
     Davidson diagonalization with overlap
     ethr =  1.27E-11,  avg # of iterations =  1.0

     negative rho (up, down):  5.995E-02 0.000E+00

     total cpu time spent up to now is    64666.2 secs

     total energy              =  -11682.11032133 Ry
     estimated scf accuracy    <       0.00000093 Ry

     iteration #223     ecut=    80.00 Ry     beta= 0.10
     Davidson diagonalization with overlap
     ethr =  1.27E-11,  avg # of iterations =  1.0

     negative rho (up, down):  5.995E-02 0.000E+00

     total cpu time spent up to now is    64952.8 secs

     total energy              =  -11682.11032133 Ry
     estimated scf accuracy    <       0.00000086 Ry

     iteration #224     ecut=    80.00 Ry     beta= 0.10
     Davidson diagonalization with overlap
     ethr =  1.27E-11,  avg # of iterations =  1.0

     negative rho (up, down):  5.995E-02 0.000E+00

     total cpu time spent up to now is    65238.1 secs

     total energy              =  -11682.11032133 Ry
     estimated scf accuracy    <       0.00000079 Ry

     iteration #225     ecut=    80.00 Ry     beta= 0.10
     Davidson diagonalization with overlap
     ethr =  1.27E-11,  avg # of iterations =  1.0

     negative rho (up, down):  5.995E-02 0.000E+00

     total cpu time spent up to now is    65524.0 secs

     total energy              =  -11682.11032134 Ry
     estimated scf accuracy    <       0.00000022 Ry

     iteration #226     ecut=    80.00 Ry     beta= 0.10
     Davidson diagonalization with overlap
     ethr =  1.17E-11,  avg # of iterations =  1.0

     negative rho (up, down):  5.995E-02 0.000E+00

     total cpu time spent up to now is    65809.4 secs

     total energy              =  -11682.11032134 Ry
     estimated scf accuracy    <       0.00000029 Ry

     iteration #227     ecut=    80.00 Ry     beta= 0.10
     Davidson diagonalization with overlap
     ethr =  1.17E-11,  avg # of iterations =  1.0

     negative rho (up, down):  5.995E-02 0.000E+00

     total cpu time spent up to now is    66102.0 secs

     total energy              =  -11682.11032134 Ry
     estimated scf accuracy    <       0.00000034 Ry

     iteration #228     ecut=    80.00 Ry     beta= 0.10
     Davidson diagonalization with overlap
     ethr =  1.17E-11,  avg # of iterations =  1.0

     negative rho (up, down):  5.995E-02 0.000E+00

     total cpu time spent up to now is    66388.0 secs

     total energy              =  -11682.11032133 Ry
     estimated scf accuracy    <       0.00000048 Ry

     iteration #229     ecut=    80.00 Ry     beta= 0.10
     Davidson diagonalization with overlap
     ethr =  1.17E-11,  avg # of iterations =  1.0

     negative rho (up, down):  5.995E-02 0.000E+00

     total cpu time spent up to now is    66674.6 secs

     total energy              =  -11682.11032134 Ry
     estimated scf accuracy    <       0.00000032 Ry

     iteration #230     ecut=    80.00 Ry     beta= 0.10
     Davidson diagonalization with overlap
     ethr =  1.17E-11,  avg # of iterations =  1.0

     negative rho (up, down):  5.995E-02 0.000E+00

     total cpu time spent up to now is    66960.3 secs

     total energy              =  -11682.11032134 Ry
     estimated scf accuracy    <       0.00000032 Ry

     iteration #231     ecut=    80.00 Ry     beta= 0.10
     Davidson diagonalization with overlap
     ethr =  1.17E-11,  avg # of iterations =  1.0

     negative rho (up, down):  5.995E-02 0.000E+00

     total cpu time spent up to now is    67245.3 secs

     total energy              =  -11682.11032134 Ry
     estimated scf accuracy    <       0.00000036 Ry

     iteration #232     ecut=    80.00 Ry     beta= 0.10
     Davidson diagonalization with overlap
     ethr =  1.17E-11,  avg # of iterations =  1.0

     negative rho (up, down):  5.995E-02 0.000E+00

     total cpu time spent up to now is    67532.2 secs

     total energy              =  -11682.11032134 Ry
     estimated scf accuracy    <       0.00000034 Ry

     iteration #233     ecut=    80.00 Ry     beta= 0.10
     Davidson diagonalization with overlap
     ethr =  1.17E-11,  avg # of iterations =  1.0

     negative rho (up, down):  5.995E-02 0.000E+00

     total cpu time spent up to now is    67820.1 secs

     total energy              =  -11682.11032134 Ry
     estimated scf accuracy    <       0.00000042 Ry

     iteration #234     ecut=    80.00 Ry     beta= 0.10
     Davidson diagonalization with overlap
     ethr =  1.17E-11,  avg # of iterations =  1.0

     negative rho (up, down):  5.995E-02 0.000E+00

     total cpu time spent up to now is    68109.0 secs

     total energy              =  -11682.11032134 Ry
     estimated scf accuracy    <       0.00000048 Ry

     iteration #235     ecut=    80.00 Ry     beta= 0.10
     Davidson diagonalization with overlap
     ethr =  1.17E-11,  avg # of iterations =  1.0

     negative rho (up, down):  5.995E-02 0.000E+00

     total cpu time spent up to now is    68394.1 secs

     total energy              =  -11682.11032134 Ry
     estimated scf accuracy    <       0.00000023 Ry

     iteration #236     ecut=    80.00 Ry     beta= 0.10
     Davidson diagonalization with overlap
     ethr =  1.17E-11,  avg # of iterations =  1.0

     negative rho (up, down):  5.995E-02 0.000E+00

     total cpu time spent up to now is    68680.1 secs

     total energy              =  -11682.11032134 Ry
     estimated scf accuracy    <       0.00000023 Ry

     iteration #237     ecut=    80.00 Ry     beta= 0.10
     Davidson diagonalization with overlap
     ethr =  1.17E-11,  avg # of iterations =  1.0

     negative rho (up, down):  5.995E-02 0.000E+00

     total cpu time spent up to now is    68965.0 secs

     total energy              =  -11682.11032134 Ry
     estimated scf accuracy    <       0.00000021 Ry

     iteration #238     ecut=    80.00 Ry     beta= 0.10
     Davidson diagonalization with overlap
     ethr =  1.11E-11,  avg # of iterations =  1.0

     negative rho (up, down):  5.995E-02 0.000E+00

     total cpu time spent up to now is    69253.1 secs

     total energy              =  -11682.11032134 Ry
     estimated scf accuracy    <       0.00000027 Ry

     iteration #239     ecut=    80.00 Ry     beta= 0.10
     Davidson diagonalization with overlap
     ethr =  1.11E-11,  avg # of iterations =  1.0

     negative rho (up, down):  5.995E-02 0.000E+00

     total cpu time spent up to now is    69538.7 secs

     total energy              =  -11682.11032134 Ry
     estimated scf accuracy    <       0.00000018 Ry

     iteration #240     ecut=    80.00 Ry     beta= 0.10
     Davidson diagonalization with overlap
     ethr =  9.46E-12,  avg # of iterations =  1.0

     negative rho (up, down):  5.995E-02 0.000E+00

     total cpu time spent up to now is    69823.6 secs

     total energy              =  -11682.11032134 Ry
     estimated scf accuracy    <       0.00000013 Ry

     iteration #241     ecut=    80.00 Ry     beta= 0.10
     Davidson diagonalization with overlap
     ethr =  6.79E-12,  avg # of iterations =  1.0

     negative rho (up, down):  5.995E-02 0.000E+00

     total cpu time spent up to now is    70109.5 secs

     total energy              =  -11682.11032134 Ry
     estimated scf accuracy    <       0.00000012 Ry

     iteration #242     ecut=    80.00 Ry     beta= 0.10
     Davidson diagonalization with overlap
     ethr =  6.36E-12,  avg # of iterations =  1.0

     negative rho (up, down):  5.995E-02 0.000E+00

     total cpu time spent up to now is    70395.1 secs

     total energy              =  -11682.11032134 Ry
     estimated scf accuracy    <       0.00000010 Ry

     iteration #243     ecut=    80.00 Ry     beta= 0.10
     Davidson diagonalization with overlap
     ethr =  5.55E-12,  avg # of iterations =  1.0

     negative rho (up, down):  5.995E-02 0.000E+00

     total cpu time spent up to now is    70680.8 secs

     total energy              =  -11682.11032134 Ry
     estimated scf accuracy    <       0.00000015 Ry

     iteration #244     ecut=    80.00 Ry     beta= 0.10
     Davidson diagonalization with overlap
     ethr =  5.55E-12,  avg # of iterations =  1.0

     negative rho (up, down):  5.995E-02 0.000E+00

     total cpu time spent up to now is    70966.0 secs

     total energy              =  -11682.11032134 Ry
     estimated scf accuracy    <       0.00000017 Ry

     iteration #245     ecut=    80.00 Ry     beta= 0.10
     Davidson diagonalization with overlap
     ethr =  5.55E-12,  avg # of iterations =  1.0

     negative rho (up, down):  5.995E-02 0.000E+00

     total cpu time spent up to now is    71251.2 secs

     total energy              =  -11682.11032134 Ry
     estimated scf accuracy    <       0.00000019 Ry

     iteration #246     ecut=    80.00 Ry     beta= 0.10
     Davidson diagonalization with overlap
     ethr =  5.55E-12,  avg # of iterations =  1.0

     negative rho (up, down):  5.995E-02 0.000E+00

     total cpu time spent up to now is    71537.3 secs

     total energy              =  -11682.11032134 Ry
     estimated scf accuracy    <       0.00000017 Ry

     iteration #247     ecut=    80.00 Ry     beta= 0.10
     Davidson diagonalization with overlap
     ethr =  5.55E-12,  avg # of iterations =  1.0

     negative rho (up, down):  5.995E-02 0.000E+00

     total cpu time spent up to now is    71824.0 secs

     total energy              =  -11682.11032134 Ry
     estimated scf accuracy    <       0.00000016 Ry

     iteration #248     ecut=    80.00 Ry     beta= 0.10
     Davidson diagonalization with overlap
     ethr =  5.55E-12,  avg # of iterations =  1.0

     negative rho (up, down):  5.995E-02 0.000E+00

     total cpu time spent up to now is    72110.1 secs

     total energy              =  -11682.11032134 Ry
     estimated scf accuracy    <       0.00000020 Ry

     iteration #249     ecut=    80.00 Ry     beta= 0.10
     Davidson diagonalization with overlap
     ethr =  5.55E-12,  avg # of iterations =  1.0

     negative rho (up, down):  5.995E-02 0.000E+00

     total cpu time spent up to now is    72396.7 secs

     total energy              =  -11682.11032134 Ry
     estimated scf accuracy    <       0.00000016 Ry

     iteration #250     ecut=    80.00 Ry     beta= 0.10
     Davidson diagonalization with overlap
     ethr =  5.55E-12,  avg # of iterations =  1.0

     negative rho (up, down):  5.995E-02 0.000E+00

     total cpu time spent up to now is    72682.9 secs

     total energy              =  -11682.11032134 Ry
     estimated scf accuracy    <       0.00000010 Ry

     iteration #251     ecut=    80.00 Ry     beta= 0.10
     Davidson diagonalization with overlap
     ethr =  5.24E-12,  avg # of iterations =  1.0

     negative rho (up, down):  5.995E-02 0.000E+00

     total cpu time spent up to now is    72969.0 secs

     total energy              =  -11682.11032134 Ry
     estimated scf accuracy    <       0.00000007 Ry

     iteration #252     ecut=    80.00 Ry     beta= 0.10
     Davidson diagonalization with overlap
     ethr =  3.51E-12,  avg # of iterations =  1.0

     negative rho (up, down):  5.995E-02 0.000E+00

     total cpu time spent up to now is    73254.9 secs

     total energy              =  -11682.11032134 Ry
     estimated scf accuracy    <       0.00000004 Ry

     iteration #253     ecut=    80.00 Ry     beta= 0.10
     Davidson diagonalization with overlap
     ethr =  2.13E-12,  avg # of iterations =  1.0

     negative rho (up, down):  5.995E-02 0.000E+00

     total cpu time spent up to now is    73540.6 secs

     total energy              =  -11682.11032134 Ry
     estimated scf accuracy    <       0.00000005 Ry

     iteration #254     ecut=    80.00 Ry     beta= 0.10
     Davidson diagonalization with overlap
     ethr =  2.13E-12,  avg # of iterations =  1.0

     negative rho (up, down):  5.995E-02 0.000E+00

     total cpu time spent up to now is    73826.4 secs

     total energy              =  -11682.11032134 Ry
     estimated scf accuracy    <       0.00000004 Ry

     iteration #255     ecut=    80.00 Ry     beta= 0.10
     Davidson diagonalization with overlap
     ethr =  2.13E-12,  avg # of iterations =  1.0

     negative rho (up, down):  5.995E-02 0.000E+00

     total cpu time spent up to now is    74111.5 secs

     total energy              =  -11682.11032134 Ry
     estimated scf accuracy    <       0.00000010 Ry

     iteration #256     ecut=    80.00 Ry     beta= 0.10
     Davidson diagonalization with overlap
     ethr =  2.13E-12,  avg # of iterations =  1.0

     negative rho (up, down):  5.995E-02 0.000E+00

     total cpu time spent up to now is    74397.0 secs

     total energy              =  -11682.11032134 Ry
     estimated scf accuracy    <       0.00000010 Ry

     iteration #257     ecut=    80.00 Ry     beta= 0.10
     Davidson diagonalization with overlap
     ethr =  2.13E-12,  avg # of iterations =  1.0

     negative rho (up, down):  5.995E-02 0.000E+00

     total cpu time spent up to now is    74682.3 secs

     total energy              =  -11682.11032134 Ry
     estimated scf accuracy    <       0.00000010 Ry

     iteration #258     ecut=    80.00 Ry     beta= 0.10
     Davidson diagonalization with overlap
     ethr =  2.13E-12,  avg # of iterations =  1.0

     negative rho (up, down):  5.995E-02 0.000E+00

     total cpu time spent up to now is    74966.7 secs

     total energy              =  -11682.11032134 Ry
     estimated scf accuracy    <       0.00000011 Ry

     iteration #259     ecut=    80.00 Ry     beta= 0.10
     Davidson diagonalization with overlap
     ethr =  2.13E-12,  avg # of iterations =  1.0

     negative rho (up, down):  5.995E-02 0.000E+00

     total cpu time spent up to now is    75251.3 secs

     total energy              =  -11682.11032134 Ry
     estimated scf accuracy    <       0.00000013 Ry

     iteration #260     ecut=    80.00 Ry     beta= 0.10
     Davidson diagonalization with overlap
     ethr =  2.13E-12,  avg # of iterations =  1.0

     negative rho (up, down):  5.995E-02 0.000E+00

     total cpu time spent up to now is    75537.0 secs

     total energy              =  -11682.11032134 Ry
     estimated scf accuracy    <       0.00000010 Ry

     iteration #261     ecut=    80.00 Ry     beta= 0.10
     Davidson diagonalization with overlap
     ethr =  2.13E-12,  avg # of iterations =  1.0

     negative rho (up, down):  5.995E-02 0.000E+00

     total cpu time spent up to now is    75822.3 secs

     total energy              =  -11682.11032134 Ry
     estimated scf accuracy    <       0.00000006 Ry

     iteration #262     ecut=    80.00 Ry     beta= 0.10
     Davidson diagonalization with overlap
     ethr =  2.13E-12,  avg # of iterations =  1.0

     negative rho (up, down):  5.995E-02 0.000E+00

     total cpu time spent up to now is    76108.3 secs

     total energy              =  -11682.11032134 Ry
     estimated scf accuracy    <       0.00000003 Ry

     iteration #263     ecut=    80.00 Ry     beta= 0.10
     Davidson diagonalization with overlap
     ethr =  1.44E-12,  avg # of iterations =  1.0

     negative rho (up, down):  5.995E-02 0.000E+00

     total cpu time spent up to now is    76394.1 secs

     total energy              =  -11682.11032134 Ry
     estimated scf accuracy    <       0.00000002 Ry

     iteration #264     ecut=    80.00 Ry     beta= 0.10
     Davidson diagonalization with overlap
     ethr =  1.15E-12,  avg # of iterations =  1.0

     negative rho (up, down):  5.995E-02 0.000E+00

     total cpu time spent up to now is    76680.3 secs

     total energy              =  -11682.11032134 Ry
     estimated scf accuracy    <       0.00000001 Ry

     iteration #265     ecut=    80.00 Ry     beta= 0.10
     Davidson diagonalization with overlap
     ethr =  7.38E-13,  avg # of iterations =  1.0

     negative rho (up, down):  5.995E-02 0.000E+00

     total cpu time spent up to now is    76966.6 secs

     total energy              =  -11682.11032134 Ry
     estimated scf accuracy    <       0.00000004 Ry

     iteration #266     ecut=    80.00 Ry     beta= 0.10
     Davidson diagonalization with overlap
     ethr =  7.38E-13,  avg # of iterations =  1.0

     negative rho (up, down):  5.995E-02 0.000E+00

     total cpu time spent up to now is    77252.4 secs

     total energy              =  -11682.11032134 Ry
     estimated scf accuracy    <       0.00000005 Ry

     iteration #267     ecut=    80.00 Ry     beta= 0.10
     Davidson diagonalization with overlap
     ethr =  7.38E-13,  avg # of iterations =  1.0

     negative rho (up, down):  5.995E-02 0.000E+00

     total cpu time spent up to now is    77538.5 secs

     total energy              =  -11682.11032134 Ry
     estimated scf accuracy    <       0.00000005 Ry

     iteration #268     ecut=    80.00 Ry     beta= 0.10
     Davidson diagonalization with overlap
     ethr =  7.38E-13,  avg # of iterations =  1.0

     negative rho (up, down):  5.995E-02 0.000E+00

     total cpu time spent up to now is    77833.0 secs

     total energy              =  -11682.11032134 Ry
     estimated scf accuracy    <       0.00000004 Ry

     iteration #269     ecut=    80.00 Ry     beta= 0.10
     Davidson diagonalization with overlap
     ethr =  7.38E-13,  avg # of iterations =  1.0

     negative rho (up, down):  5.995E-02 0.000E+00

     total cpu time spent up to now is    78119.1 secs

     total energy              =  -11682.11032133 Ry
     estimated scf accuracy    <       0.00000007 Ry

     iteration #270     ecut=    80.00 Ry     beta= 0.10
     Davidson diagonalization with overlap
     ethr =  7.38E-13,  avg # of iterations =  1.0

     negative rho (up, down):  5.995E-02 0.000E+00

     total cpu time spent up to now is    78404.9 secs

     total energy              =  -11682.11032134 Ry
     estimated scf accuracy    <       0.00000008 Ry

     iteration #271     ecut=    80.00 Ry     beta= 0.10
     Davidson diagonalization with overlap
     ethr =  7.38E-13,  avg # of iterations =  1.0

     negative rho (up, down):  5.995E-02 0.000E+00

     total cpu time spent up to now is    78690.0 secs

     total energy              =  -11682.11032133 Ry
     estimated scf accuracy    <       0.00000007 Ry

     iteration #272     ecut=    80.00 Ry     beta= 0.10
     Davidson diagonalization with overlap
     ethr =  7.38E-13,  avg # of iterations =  1.0

     negative rho (up, down):  5.995E-02 0.000E+00

     total cpu time spent up to now is    78975.7 secs

     total energy              =  -11682.11032133 Ry
     estimated scf accuracy    <       0.00000003 Ry

     iteration #273     ecut=    80.00 Ry     beta= 0.10
     Davidson diagonalization with overlap
     ethr =  7.38E-13,  avg # of iterations =  1.0

     negative rho (up, down):  5.995E-02 0.000E+00

     total cpu time spent up to now is    79260.6 secs

     total energy              =  -11682.11032133 Ry
     estimated scf accuracy    <       0.00000002 Ry

     iteration #274     ecut=    80.00 Ry     beta= 0.10
     Davidson diagonalization with overlap
     ethr =  7.38E-13,  avg # of iterations =  1.0

     negative rho (up, down):  5.995E-02 0.000E+00

     total cpu time spent up to now is    79546.6 secs

     End of self-consistent calculation

          k = 0.0000 0.0000 0.0000 (****** PWs)   bands (ev):

   -57.9617 -56.1924 -55.8557 -55.8251 -55.6200 -55.5816 -55.0242 -55.0007
   -54.7523 -54.4984 -53.8658 -29.8883 -29.8710 -29.8332 -28.1432 -28.1004
   -28.0593 -27.7890 -27.7814 -27.7618 -27.7433 -27.7415 -27.7203 -27.5534
   -27.5493 -27.5254 -27.4880 -27.4836 -27.4550 -27.1243 -26.9950 -26.9538
   -26.9349 -26.9002 -26.8926 -26.8722 -26.7446 -26.6932 -26.6526 -26.4747
   -26.4361 -26.3809 -26.2517 -26.1180 -25.8693 -25.8168 -25.7886 -25.7705
   -25.7612 -25.7514 -25.6070 -25.5761 -25.5550 -25.5498 -25.4467 -25.3591
   -25.2913 -25.2321 -25.1830 -25.1254 -25.1024 -25.0498 -25.0255 -25.0077
   -24.9975 -24.9871 -24.9424 -24.9008 -24.8904 -24.8798 -24.8446 -24.8440
   -24.7954 -24.7801 -24.7520 -24.7285 -24.7020 -24.6625 -24.6403 -24.6201
   -24.6025 -24.6000 -24.5653 -24.5444 -24.5296 -24.5053 -24.4831 -24.4479
   -24.4346 -24.4001 -24.3964 -24.3733 -24.3579 -24.3298 -24.3211 -24.2978
   -24.2875 -24.2610 -24.2519 -24.2389 -24.2101 -24.2044 -24.1788 -24.1682
   -24.1452 -24.1187 -24.0993 -24.0917 -24.0753 -24.0557 -24.0433 -24.0145
   -23.9850 -23.9703 -23.9572 -23.9361 -23.9211 -23.8937 -23.8648 -23.8611
   -23.8074 -23.7866 -23.7830 -23.7677 -23.7506 -23.7351 -23.7264 -23.7147
   -23.6984 -23.6933 -23.6864 -23.6781 -23.6691 -23.6604 -23.6294 -23.6163
   -23.6021 -23.5963 -23.5816 -23.5573 -23.5500 -23.5378 -23.5185 -23.5076
   -23.4972 -23.4830 -23.4674 -23.4378 -23.4091 -23.3989 -23.3829 -23.3807
   -23.3533 -23.3397 -23.3362 -23.3026 -23.2954 -23.2830 -23.2726 -23.2543
   -23.2427 -23.2155 -23.2073 -23.1881 -23.1787 -23.1495 -23.1403 -23.1196
   -23.1177 -23.0942 -23.0839 -23.0754 -23.0550 -23.0455 -23.0438 -23.0303
   -23.0125 -23.0050 -22.9888 -22.9520 -22.9243 -22.9053 -22.8989 -22.8833
   -22.8736 -22.8526 -22.8383 -22.8261 -22.8226 -22.7944 -22.7862 -22.7693
   -22.7607 -22.7440 -22.7066 -22.6978 -22.6949 -22.6913 -22.6580 -22.6534
   -22.6329 -22.5575 -22.5198 -22.5127 -22.4677 -22.4465 -22.3919 -22.3876
   -22.3828 -22.3783 -22.3736 -22.3205 -22.2582 -22.2379 -22.2314 -22.2123
   -22.2011 -22.1670 -22.1054 -22.0231 -21.9784 -21.9703 -21.9291 -21.8310
   -21.6440 -21.5741 -21.5698 -21.5526 -21.4998 -21.4456 -21.4205 -21.3866
   -21.3185 -21.3000 -20.6469 -20.5898 -20.5563 -20.5487 -20.5470 -20.5183
   -20.5167 -20.4643 -20.4637 -20.3542 -20.3348 -20.1561 -20.0728 -20.0646
   -20.0069 -19.8212 -19.7280 -19.7256 -19.7233 -19.7115 -19.7055 -19.7035
   -19.7027 -19.6739 -19.6685 -19.6582 -19.5958 -18.8713 -18.5147 -17.6476
   -16.8877 -16.0967 -15.3389 -15.2044 -15.1400 -15.0694 -14.9617 -14.8828
   -14.8479 -14.7766 -14.7415 -14.6976 -14.6489 -14.5820 -14.5734 -14.5229
   -14.4981 -14.4123 -14.3329 -14.2797 -14.2017 -14.1729 -14.1201 -14.0919
   -14.0226 -13.9993 -13.9760 -13.9501 -13.9122 -13.8959 -13.8719 -13.8063
   -13.7881 -13.7430 -13.7351 -13.6804 -13.6519 -13.5975 -13.5281 -13.5147
   -13.4619 -13.4367 -13.4332 -13.4134 -13.3655 -13.3143 -13.2897 -13.2782
   -13.2099 -13.2030 -13.2028 -13.1452 -13.1216 -13.0802 -13.0731 -13.0438
   -12.9999 -12.9831 -12.9533 -12.9195 -12.8959 -12.8764 -12.8417 -12.8183
   -12.7934 -12.7644 -12.7259 -12.7160 -12.6588 -12.6392 -12.6193 -12.5424
   -12.5316 -12.5106 -12.4746 -12.4340 -12.4057 -12.3662 -12.3523 -12.3185
   -12.3088 -12.2908 -12.2831 -12.2202 -12.2026 -12.1585 -12.1375 -12.1172
   -12.0750 -12.0325 -12.0137 -11.9908 -11.9698 -11.9393 -11.9078 -11.8792
   -11.8575 -11.8443 -11.8187 -11.7996 -11.7752 -11.7407 -11.7319 -11.6951
   -11.6929 -11.6843 -11.6376 -11.6264 -11.5921 -11.5889 -11.5734 -11.5586
   -11.5355 -11.5278 -11.5090 -11.4866 -11.4730 -11.4568 -11.4530 -11.4361
   -11.4165 -11.4047 -11.3769 -11.3675 -11.3629 -11.3240 -11.3040 -11.2870
   -11.2653 -11.2575 -11.2401 -11.2061 -11.1878 -11.1633 -11.1572 -11.1355
   -11.1340 -11.1311 -11.1113 -11.0900 -11.0763 -11.0608 -11.0564 -11.0301
   -10.9821 -10.9788 -10.9529 -10.9417 -10.9190 -10.8928 -10.8840 -10.8721
   -10.8676 -10.8455 -10.8433 -10.8372 -10.8179 -10.8148 -10.8036 -10.7714
   -10.7688 -10.7325 -10.7109 -10.7010 -10.6837 -10.6824 -10.6528 -10.6447
   -10.6064 -10.5732 -10.5552 -10.5546 -10.5391 -10.5275 -10.5102 -10.4807
   -10.4656 -10.4524 -10.4215 -10.3812 -10.3707 -10.3244 -10.3013 -10.2873
   -10.2727 -10.2248 -10.2028 -10.1977 -10.1743 -10.1556 -10.1026 -10.0669
   -10.0643 -10.0390 -10.0211  -9.9831  -9.9528  -9.9031  -9.8891  -9.8671
    -9.8519  -9.8277  -9.8020  -9.7882  -9.7766  -9.7557  -9.7326  -9.7099
    -9.6586  -9.6397  -9.5824  -9.5780  -9.5606  -9.5350  -9.5206  -9.5049
    -9.4880  -9.4748  -9.4581  -9.4435  -9.4108  -9.3892  -9.3642  -9.3561
    -9.3304  -9.3260  -9.3163  -9.3133  -9.3035  -9.2943  -9.2854  -9.2819
    -9.2368  -9.2212  -9.2146  -9.1801  -9.1710  -9.1613  -9.1390  -9.1315
    -9.1131  -9.0991  -9.0698  -9.0500  -9.0346  -9.0092  -9.0077  -8.9673
    -8.9587  -8.9334  -8.9024  -8.9008  -8.8731  -8.8574  -8.8480  -8.8395
    -8.8305  -8.8159  -8.7974  -8.7761  -8.7633  -8.7545  -8.7307  -8.7251
    -8.7135  -8.7016  -8.6920  -8.6766  -8.6569  -8.6528  -8.6501  -8.6353
    -8.6304  -8.6134  -8.5852  -8.5791  -8.5624  -8.5618  -8.5434  -8.5433
    -8.5339  -8.5286  -8.5256  -8.5074  -8.5026  -8.4920  -8.4818  -8.4677
    -8.4561  -8.4479  -8.4361  -8.4250  -8.4087  -8.3876  -8.3831  -8.3764
    -8.3656  -8.3586  -8.3527  -8.3375  -8.3243  -8.3190  -8.3044  -8.2963
    -8.2890  -8.2771  -8.2613  -8.2552  -8.2398  -8.2310  -8.2270  -8.2144
    -8.2070  -8.1949  -8.1856  -8.1688  -8.1643  -8.1559  -8.1382  -8.1331
    -8.1323  -8.1206  -8.1003  -8.0818  -8.0742  -8.0639  -8.0547  -8.0410
    -8.0286  -8.0274  -8.0201  -8.0117  -7.9970  -7.9888  -7.9804  -7.9746
    -7.9719  -7.9514  -7.9412  -7.9350  -7.9316  -7.9086  -7.9041  -7.9008
    -7.8771  -7.8734  -7.8606  -7.8505  -7.8429  -7.8310  -7.8266  -7.8146
    -7.8133  -7.7979  -7.7929  -7.7836  -7.7690  -7.7650  -7.7548  -7.7416
    -7.7379  -7.7314  -7.7253  -7.7105  -7.7075  -7.6942  -7.6858  -7.6712
    -7.6660  -7.6638  -7.6451  -7.6377  -7.6322  -7.6183  -7.6138  -7.6055
    -7.5907  -7.5883  -7.5765  -7.5668  -7.5638  -7.5455  -7.5427  -7.5300
    -7.5266  -7.5049  -7.4979  -7.4937  -7.4846  -7.4741  -7.4594  -7.4577
    -7.4424  -7.4375  -7.4326  -7.4168  -7.4096  -7.3984  -7.3929  -7.3775
    -7.3696  -7.3689  -7.3645  -7.3561  -7.3496  -7.3194  -7.3057  -7.2911
    -7.2840  -7.2817  -7.2773  -7.2662  -7.2529  -7.2471  -7.2390  -7.2231
    -7.2164  -7.2032  -7.1950  -7.1804  -7.1772  -7.1747  -7.1669  -7.1551
    -7.1457  -7.1323  -7.1232  -7.1108  -7.1044  -7.0860  -7.0762  -7.0694
    -7.0557  -7.0530  -7.0406  -7.0307  -7.0200  -7.0122  -7.0007  -6.9960
    -6.9853  -6.9812  -6.9731  -6.9570  -6.9502  -6.9453  -6.9284  -6.9155
    -6.8983  -6.8896  -6.8795  -6.8669  -6.8567  -6.8461  -6.8360  -6.8332
    -6.8202  -6.8166  -6.8008  -6.7816  -6.7752  -6.7675  -6.7591  -6.7474
    -6.7359  -6.7255  -6.7158  -6.7085  -6.7005  -6.6888  -6.6776  -6.6729
    -6.6657  -6.6524  -6.6438  -6.6294  -6.6187  -6.6123  -6.5992  -6.5898
    -6.5815  -6.5810  -6.5800  -6.5754  -6.5481  -6.5455  -6.5253  -6.5070
    -6.4968  -6.4838  -6.4775  -6.4728  -6.4603  -6.4571  -6.4448  -6.4400
    -6.4270  -6.4246  -6.4238  -6.4119  -6.3986  -6.3939  -6.3802  -6.3709
    -6.3655  -6.3466  -6.3422  -6.3380  -6.3211  -6.3116  -6.2978  -6.2888
    -6.2745  -6.2714  -6.2582  -6.2459  -6.2381  -6.2313  -6.2174  -6.2116
    -6.2044  -6.1853  -6.1727  -6.1673  -6.1580  -6.1348  -6.1330  -6.1001
    -6.0897  -6.0758  -6.0681  -6.0542  -6.0490  -6.0280  -6.0249  -6.0030
    -5.9867  -5.9794  -5.9654  -5.9476  -5.9424  -5.9327  -5.9310  -5.9169
    -5.9083  -5.8995  -5.8773  -5.8706  -5.8586  -5.8389  -5.8341  -5.8307
    -5.8197  -5.8035  -5.7880  -5.7740  -5.7677  -5.7593  -5.7380  -5.7193
    -5.7178  -5.7118  -5.7088  -5.6928  -5.6783  -5.6748  -5.6682  -5.6458
    -5.6413  -5.6189  -5.5973  -5.5910  -5.5881  -5.5776  -5.5653  -5.5589
    -5.5346  -5.5087  -5.4883  -5.4712  -5.4589  -5.4482  -5.4388  -5.4294
    -5.4008  -5.3876  -5.3814  -5.3670  -5.3361  -5.3320  -5.3285  -5.3257
    -5.3186  -5.3056  -5.2713  -5.2596  -5.2440  -5.2254  -5.2112  -5.2006
    -5.1640  -5.1450  -5.1325  -5.1062  -5.0670  -5.0575  -5.0454  -5.0231
    -4.9977  -4.9613  -4.8688  -4.8478  -4.8333  -4.8329  -4.8200  -4.8053
    -4.7570  -4.7275  -4.7179  -4.7065  -4.6778  -4.6563  -4.6020  -4.5964
    -4.5780  -4.5002  -4.4747  -4.4518  -4.4462  -4.4405  -4.4331  -4.4196
    -4.3361  -4.2460  -4.2015  -4.1959  -4.1371  -4.1010  -4.0412  -4.0311
    -4.0228  -4.0099  -4.0043  -3.9670  -3.9514  -3.9282  -3.9147  -3.9055
    -3.8954  -3.8884  -3.8781  -3.8439  -3.8420  -3.8356  -3.8246  -3.8189
    -3.8112  -3.8058  -3.8044  -3.7960  -3.7922  -3.7904  -3.7817  -3.7784
    -3.7743  -3.7706  -3.7557  -3.7406  -3.7343  -3.7281  -3.7184  -3.7144
    -3.7047  -3.7034  -3.6724  -3.6597  -3.6426  -3.6239  -3.6231  -3.6097
    -3.5264  -3.4431  -3.3849  -3.3396  -3.3085  -3.2790  -3.1783  -3.1030
    -2.7370  -2.6184  -2.2070  -1.9783  -1.5498  -0.6072  -0.6063  -0.4622
    -0.4156  -0.4024  -0.2631  -0.2449  -0.1655  -0.1012  -0.0212   0.0092
     0.0499   0.1619   0.2556   0.3593   0.3952   0.4747   0.5436   0.6352
     0.6854   0.7165   0.7468   0.7793   0.8369   0.8866   0.9459   0.9892
     0.9894   1.0318   1.0670   1.1047   1.1460   1.1564   1.2123   1.2201
     1.2538   1.2870   1.3163   1.3170   1.3513   1.3725   1.3834   1.4027
     1.4283   1.4495   1.4647   1.4843   1.5007   1.5338   1.5685   1.6224
     1.6298   1.6571   1.6595   1.6857   1.6962   1.6968   1.7130   1.7478
     1.7486   1.7523   1.7786   1.8040   1.8352   1.8420   1.8719   1.8829
     1.9094   1.9257   1.9459   1.9650   1.9734   1.9837   1.9903   2.0069
     2.0197   2.0499   2.0598   2.0807   2.0919   2.1050   2.1140   2.1221
     2.1274   2.1335   2.1413   2.1685   2.1798   2.1811   2.1871   2.1884
     2.2069   2.2097   2.2221   2.2342   2.2408   2.2486   2.2676   2.2801
     2.2893   2.3149   2.3244   2.3393   2.3422   2.3551   2.3729   2.3874
     2.3968   2.4005   2.4240   2.4272   2.4355   2.4550   2.4736   2.4796
     2.4859   2.4922   2.5026   2.5159   2.5229   2.5312   2.5379   2.5528
     2.5559   2.5565   2.5648   2.5722   2.5860   2.6016   2.6166   2.6250
     2.6320   2.6450   2.6509   2.6596   2.6656   2.6740   2.6789   2.6853
     2.6980   2.7122   2.7242   2.7257   2.7306   2.7365   2.7599   2.7710
     2.7854   2.7926   2.7952   2.7966   2.8132   2.8263   2.8365   2.8433
     2.8526   2.8573   2.8703   2.8785   2.8847   2.8956   2.8978   2.9124
     2.9194   2.9304   2.9532

     the Fermi energy is    -3.6784 ev

!    total energy              =  -11682.11032132 Ry
     estimated scf accuracy    <          7.2E-09 Ry
     smearing contrib. (-TS)   =      -0.11124124 Ry
     internal energy E=F+TS    =  -11681.99908008 Ry

     The total energy is F=E-TS. E is the sum of the following terms:
     one-electron contribution = -358613.94812029 Ry
     hartree contribution      =  179770.57896783 Ry
     xc contribution           =   -2470.90198100 Ry
     ewald contribution        =  171991.97602405 Ry
     one-center paw contrib.   =   -2359.70397067 Ry

     convergence has been achieved in 274 iterations

     negative rho (up, down):  5.995E-02 0.000E+00

     Forces acting on atoms (cartesian axes, Ry/au):

     atom    1 type  1   force =     0.01198161    0.01352918    0.05502325
     atom    2 type  1   force =     0.02845732    0.02470005   -0.00071760
     atom    3 type  1   force =     0.00762103    0.00107512   -0.00350621
     atom    4 type  1   force =    -0.01246783   -0.01523588   -0.01031909
     atom    5 type  1   force =     0.01477427   -0.02239763   -0.02716720
     atom    6 type  1   force =     0.00354435   -0.00143603    0.00436964
     atom    7 type  1   force =    -0.00857856    0.01207361    0.01136159
     atom    8 type  1   force =    -0.01212498   -0.03102881    0.00329624
     atom    9 type  1   force =    -0.00149346    0.00642282    0.01346684
     atom   10 type  1   force =     0.01829294   -0.00171185    0.01744764
     atom   11 type  1   force =    -0.01122249   -0.00524851   -0.01233773
     atom   12 type  2   force =     0.00698727    0.12279571   -0.04037936
     atom   13 type  2   force =     0.13709998    0.10138775   -0.00140068
     atom   14 type  2   force =     0.08061556    0.03199608   -0.06292865
     atom   15 type  2   force =     0.14616121   -0.03947745   -0.15265987
     atom   16 type  2   force =     0.02151806    0.03840578    0.04014554
     atom   17 type  2   force =     0.15430111    0.01486123    0.25420460
     atom   18 type  2   force =    -0.01245595   -0.04668384   -0.04952276
     atom   19 type  2   force =    -0.01080081    0.03869098   -0.10073346
     atom   20 type  2   force =    -0.02588039   -0.01331393   -0.04187702
     atom   21 type  2   force =    -0.05465571    0.13498197   -0.03945271
     atom   22 type  2   force =     0.03593738   -0.13332259    0.09284231
     atom   23 type  2   force =    -0.03935927   -0.06827731   -0.05873553
     atom   24 type  2   force =     0.03245863    0.02646187    0.01004948
     atom   25 type  2   force =     0.06546956    0.00666346    0.07193829
     atom   26 type  2   force =    -0.01663429   -0.00974249   -0.01117355
     atom   27 type  2   force =     0.04174180    0.11809959   -0.07357152
     atom   28 type  2   force =    -0.00195409   -0.05838074   -0.01146944
     atom   29 type  2   force =    -0.03142828   -0.05047258    0.08148177
     atom   30 type  2   force =     0.03237191   -0.03169163   -0.03949740
     atom   31 type  2   force =     0.03576360    0.02204249    0.00213520
     atom   32 type  2   force =    -0.00990860   -0.06578657    0.08799862
     atom   33 type  2   force =    -0.05570785    0.01799146   -0.05558265
     atom   34 type  2   force =     0.06103192   -0.02691427   -0.02234257
     atom   35 type  3   force =    -0.01334336   -0.07804631    0.00314489
     atom   36 type  3   force =    -0.16409633    0.08786532   -0.04849053
     atom   37 type  3   force =    -0.06764138    0.03584886   -0.01401299
     atom   38 type  3   force =    -0.05432446   -0.00011614   -0.00936751
     atom   39 type  3   force =     0.07416193    0.00716302    0.01034438
     atom   40 type  3   force =     0.08656847    0.02281193   -0.04331893
     atom   41 type  3   force =    -0.10885713   -0.09033647   -0.13250195
     atom   42 type  3   force =     0.01235829   -0.06065873    0.06452154
     atom   43 type  3   force =     0.01842204   -0.02239691   -0.04844815
     atom   44 type  3   force =     0.06109705    0.10569262    0.04112708
     atom   45 type  3   force =    -0.03181461   -0.00102423   -0.03165098
     atom   46 type  3   force =    -0.03595377    0.12377798    0.06002240
     atom   47 type  3   force =    -0.05600916    0.00762643   -0.14719442
     atom   48 type  3   force =    -0.02872155   -0.12199949   -0.13764778
     atom   49 type  3   force =     0.06194151    0.18248704    0.05224970
     atom   50 type  3   force =     0.04361081   -0.02226605   -0.09787374
     atom   51 type  3   force =    -0.01921886    0.04789375    0.07047199
     atom   52 type  3   force =    -0.12131304   -0.10615592    0.11978617
     atom   53 type  3   force =    -0.12310616   -0.10975891   -0.05517971
     atom   54 type  3   force =    -0.03665800   -0.02305362    0.10091762
     atom   55 type  3   force =    -0.15021258    0.03119650    0.03093527
     atom   56 type  3   force =    -0.02248725    0.01132681    0.12192048
     atom   57 type  3   force =     0.00706710   -0.09508240   -0.04896697
     atom   58 type  3   force =     0.06028309   -0.00817071    0.04791837
     atom   59 type  3   force =    -0.03555048   -0.01080176    0.03865874
     atom   60 type  3   force =     0.07906803   -0.07456556   -0.00362816
     atom   61 type  3   force =     0.01536975    0.19124040    0.03551414
     atom   62 type  3   force =    -0.01924011   -0.01655937   -0.00624209
     atom   63 type  3   force =     0.01629291    0.01194706   -0.00647710
     atom   64 type  3   force =     0.00308793    0.05908100    0.08264116
     atom   65 type  3   force =    -0.00858405    0.02326239    0.02056513
     atom   66 type  3   force =    -0.01586771    0.00339366   -0.01875542
     atom   67 type  3   force =     0.03111316    0.00050153    0.10243098
     atom   68 type  3   force =    -0.06517519   -0.03466237    0.07990936
     atom   69 type  3   force =     0.04504428    0.03717974    0.03191395
     atom   70 type  3   force =    -0.05032766   -0.06708662   -0.05576186
     atom   71 type  3   force =     0.04860924   -0.03740067    0.05226594
     atom   72 type  3   force =     0.01421028    0.11141211    0.19919793
     atom   73 type  3   force =    -0.07872540    0.05109836   -0.07639513
     atom   74 type  3   force =     0.00523224   -0.06456341   -0.04794118
     atom   75 type  3   force =    -0.06322086    0.00867273   -0.00235463
     atom   76 type  3   force =     0.04450149   -0.10611312   -0.06060874
     atom   77 type  3   force =    -0.03076835    0.07732984    0.03340875
     atom   78 type  3   force =    -0.09866179   -0.02068250   -0.06894959
     atom   79 type  3   force =    -0.00395773   -0.04283692    0.03502181
     atom   80 type  3   force =    -0.03254887    0.03929332   -0.00538937
     atom   81 type  3   force =     0.03038499    0.01868701   -0.03954905
     atom   82 type  3   force =    -0.04205455    0.01727302   -0.05462900
     atom   83 type  3   force =    -0.05143550    0.09477289    0.02413156
     atom   84 type  3   force =    -0.02496865    0.04021488   -0.04070180
     atom   85 type  3   force =    -0.01137772   -0.09867874    0.07698180
     atom   86 type  3   force =    -0.02801622   -0.07915158   -0.10464519
     atom   87 type  3   force =     0.02206685   -0.00716528   -0.06793053
     atom   88 type  3   force =    -0.00063292    0.05376537   -0.11885089
     atom   89 type  3   force =    -0.04833312   -0.02072384    0.06498763
     atom   90 type  3   force =     0.05351459   -0.04786463   -0.04629388
     atom   91 type  3   force =     0.06648407    0.04065596   -0.01539989
     atom   92 type  3   force =    -0.00909428   -0.00577920   -0.02091714
     atom   93 type  3   force =    -0.08709291   -0.10492140   -0.00533962
     atom   94 type  3   force =     0.07174713    0.08984987    0.05017712
     atom   95 type  3   force =    -0.01093374   -0.01086936   -0.06957634
     atom   96 type  3   force =    -0.09371528   -0.01180869    0.15325503
     atom   97 type  3   force =    -0.02816871   -0.04656921   -0.00177942
     atom   98 type  3   force =     0.10420852    0.01095545    0.09543412
     atom   99 type  3   force =    -0.05542217   -0.00675546    0.03645206
     atom  100 type  3   force =     0.02261453   -0.07810827    0.07966341
     atom  101 type  3   force =    -0.06017781    0.02729073   -0.01093392
     atom  102 type  3   force =     0.03062675    0.01751405    0.03138748
     atom  103 type  3   force =     0.04701859    0.03119480    0.09738463
     atom  104 type  3   force =    -0.08255340   -0.07715830   -0.00515451
     atom  105 type  3   force =     0.02907670    0.05418584   -0.00671541
     atom  106 type  3   force =     0.03806407    0.11413520   -0.01559540
     atom  107 type  3   force =    -0.02786978   -0.00323244    0.02788646
     atom  108 type  3   force =     0.04689391   -0.00959421    0.04591270
     atom  109 type  3   force =     0.10985110    0.01985989   -0.03962222
     atom  110 type  3   force =     0.13935510    0.00800294   -0.06097639
     atom  111 type  3   force =    -0.02030712   -0.01791688    0.01756958
     atom  112 type  3   force =    -0.06703474    0.09521736   -0.01077343
     atom  113 type  3   force =     0.02127073   -0.01983676   -0.05629609
     atom  114 type  3   force =    -0.03893680    0.02176719    0.08107094
     atom  115 type  3   force =     0.01340536   -0.02838036    0.07648029
     atom  116 type  3   force =     0.08471468    0.00791605   -0.04838459
     atom  117 type  3   force =    -0.06874163    0.00339644    0.03769717
     atom  118 type  3   force =    -0.11856862    0.11189216    0.02563803
     atom  119 type  3   force =     0.07046823   -0.00675621    0.03240975
     atom  120 type  3   force =     0.00917350    0.02809196    0.10528550
     atom  121 type  3   force =     0.12980773    0.07610301    0.01610681
     atom  122 type  4   force =     0.03959707    0.01289980    0.02874155
     atom  123 type  4   force =    -0.06147021   -0.03985503   -0.00975822
     atom  124 type  4   force =     0.00366673    0.02428714   -0.04612958
     atom  125 type  4   force =     0.01813956   -0.00575140   -0.00425857
     atom  126 type  4   force =    -0.13130095   -0.14924913   -0.01134723
     atom  127 type  4   force =    -0.09949590   -0.12885944   -0.07370341
     atom  128 type  4   force =     0.01054418   -0.04946040    0.05958619
     atom  129 type  4   force =     0.00892428   -0.06165973   -0.01137502
     atom  130 type  4   force =     0.00880840   -0.02166615    0.00915735
     atom  131 type  4   force =     0.00670142   -0.01823847   -0.01318312
     atom  132 type  4   force =     0.04933711   -0.03836944   -0.01675726
     atom  133 type  4   force =    -0.03659314   -0.05919919    0.03631121
     atom  134 type  4   force =    -0.09350289    0.00758627   -0.04007142
     atom  135 type  4   force =     0.02242191   -0.02686741    0.12460689
     atom  136 type  4   force =     0.01781130   -0.01011115   -0.01828584
     atom  137 type  4   force =     0.05391647    0.04128108   -0.03414044
     atom  138 type  4   force =     0.01582992    0.00196181   -0.01527041
     atom  139 type  4   force =    -0.00676940    0.02800478   -0.02069631
     atom  140 type  4   force =     0.02153771   -0.06866903    0.02202734
     atom  141 type  4   force =     0.05839612   -0.01206277    0.00218231
     atom  142 type  4   force =    -0.10496347   -0.05312423    0.04676065
     atom  143 type  4   force =    -0.15003820   -0.03706053   -0.09748746
     atom  144 type  4   force =    -0.00564050   -0.01755766    0.02995635
     atom  145 type  4   force =    -0.04002067    0.03679712    0.01619815
     atom  146 type  4   force =    -0.02201550    0.01694822   -0.02253465
     atom  147 type  4   force =    -0.13172603   -0.04976642    0.03206425
     atom  148 type  4   force =     0.01366367   -0.02073312   -0.01293374
     atom  149 type  4   force =     0.06869608    0.03543462    0.01729780
     atom  150 type  4   force =    -0.06342368   -0.05299098   -0.01995121
     atom  151 type  4   force =     0.05091057    0.03688440    0.02460179
     atom  152 type  4   force =    -0.05806174    0.02460938    0.01508285
     atom  153 type  4   force =     0.07628131    0.01868137    0.07642555
     atom  154 type  4   force =    -0.09652830    0.00591253    0.00657660
     atom  155 type  4   force =    -0.01258403   -0.01427903   -0.00921915
     atom  156 type  4   force =    -0.05022478    0.04125406   -0.02245902
     atom  157 type  4   force =     0.04244017   -0.01081315   -0.00372510
     atom  158 type  4   force =     0.01340358    0.01213665   -0.02431844
     atom  159 type  4   force =     0.06700511    0.00744892   -0.05899007
     atom  160 type  4   force =     0.03942103   -0.08930402    0.01396144
     atom  161 type  4   force =     0.00298190   -0.02880210    0.07145372
     atom  162 type  4   force =     0.05273111    0.09487451    0.01535727
     atom  163 type  4   force =    -0.01536295    0.05825034   -0.01554505
     atom  164 type  4   force =     0.02449498    0.02901769    0.06696018
     atom  165 type  4   force =    -0.07485058    0.01004901    0.04940407
     atom  166 type  4   force =    -0.00160386   -0.10198794    0.00496283
     atom  167 type  4   force =    -0.03907803   -0.03993788   -0.01510140
     atom  168 type  4   force =     0.01698136   -0.18443113    0.05854431
     atom  169 type  4   force =     0.05239811    0.04498018   -0.09519593
     atom  170 type  4   force =     0.02789114   -0.04779524   -0.03581819
     atom  171 type  4   force =     0.01258420   -0.01692203    0.00344800
     atom  172 type  4   force =    -0.06999546    0.01239787   -0.04380058
     atom  173 type  4   force =    -0.03893714    0.00695042   -0.02537752
     atom  174 type  4   force =     0.05687527    0.08593250    0.01820975
     atom  175 type  4   force =     0.01311862    0.04181897    0.00305146
     atom  176 type  4   force =     0.03780831   -0.00546715    0.02506555
     atom  177 type  4   force =     0.06404888   -0.00444468   -0.00818035
     atom  178 type  4   force =    -0.00368077    0.03659820    0.04555282
     atom  179 type  4   force =    -0.01196361    0.02844633    0.00311999
     atom  180 type  4   force =    -0.05735825    0.00565005   -0.00721971
     atom  181 type  4   force =     0.00000527   -0.00049281    0.09598313
     atom  182 type  4   force =    -0.02450615   -0.06136897    0.05017883
     atom  183 type  4   force =    -0.03321785    0.10701407   -0.05873804
     atom  184 type  4   force =     0.01827351   -0.01125813    0.05177505
     atom  185 type  4   force =     0.04930490   -0.03490531   -0.01730343
     atom  186 type  4   force =    -0.01141308   -0.01727484    0.00173230
     atom  187 type  4   force =    -0.02768423   -0.01188105    0.05048479
     atom  188 type  4   force =    -0.02035707   -0.01785645   -0.04714009
     atom  189 type  4   force =    -0.01980189    0.03515898   -0.00049666
     atom  190 type  4   force =     0.05861102   -0.03610222    0.00664579
     atom  191 type  4   force =    -0.01866996   -0.00330960   -0.00630004
     atom  192 type  4   force =    -0.03514240    0.02414302   -0.03097945
     atom  193 type  4   force =     0.03630333   -0.06469903    0.02203876
     atom  194 type  4   force =    -0.04961802    0.00128073   -0.00628465
     atom  195 type  4   force =    -0.01040825   -0.00565015    0.01812789
     atom  196 type  4   force =     0.00238112   -0.02552116   -0.06106868
     atom  197 type  4   force =     0.00923536    0.01573004   -0.00008457
     atom  198 type  4   force =    -0.03841961    0.04139467   -0.01356958
     atom  199 type  4   force =     0.00810718   -0.02590851    0.00623813
     atom  200 type  4   force =    -0.00958729   -0.03602550    0.05785044
     atom  201 type  4   force =    -0.01077179   -0.04755514   -0.02852698
     atom  202 type  4   force =     0.01615824    0.01501496    0.04158822
     atom  203 type  4   force =    -0.05687951   -0.05914946   -0.10306935
     atom  204 type  4   force =    -0.00238523    0.01816118    0.06245330
     atom  205 type  4   force =     0.01019068    0.07387157   -0.01370271
     atom  206 type  4   force =    -0.04070725   -0.03144032   -0.04466379
     atom  207 type  4   force =    -0.00480088   -0.03031424    0.03547697
     atom  208 type  4   force =    -0.00080568    0.01181954   -0.01008384
     atom  209 type  4   force =    -0.04449544    0.03163325   -0.05080427
     atom  210 type  4   force =    -0.01134192    0.01307448   -0.05116739
     atom  211 type  4   force =    -0.00057836   -0.03488628   -0.05658647
     atom  212 type  4   force =     0.04271513   -0.03965270   -0.03307380
     atom  213 type  4   force =     0.04284944   -0.14884353   -0.08359422
     atom  214 type  4   force =     0.05175486    0.06494722   -0.05766877
     atom  215 type  4   force =    -0.02665710   -0.02929407    0.00518334
     atom  216 type  4   force =    -0.02213048    0.07577374    0.04092570
     atom  217 type  4   force =    -0.02417570    0.03766035   -0.04189358
     atom  218 type  4   force =     0.01491947    0.02516627   -0.00785661
     atom  219 type  4   force =    -0.04399502   -0.04016752   -0.00917255
     atom  220 type  4   force =     0.01258330   -0.04149287    0.02297332
     atom  221 type  4   force =    -0.00424778    0.03039085    0.06496656
     atom  222 type  4   force =     0.10395570   -0.01658928    0.00584473
     atom  223 type  4   force =     0.02173671    0.08581401   -0.05087657
     atom  224 type  4   force =     0.03969854    0.02491531   -0.01335176
     atom  225 type  4   force =     0.06109010    0.04951392   -0.00337624
     atom  226 type  4   force =     0.02008849   -0.02509163    0.02086079
     atom  227 type  4   force =    -0.02259350    0.05201227    0.04185093
     atom  228 type  4   force =     0.00320930   -0.01707254   -0.02722016
     atom  229 type  4   force =     0.01366513    0.00008003    0.05422469
     atom  230 type  4   force =     0.05292003    0.04903543   -0.00149225
     atom  231 type  4   force =     0.04263109   -0.02082632    0.07112458
     atom  232 type  4   force =     0.04276021   -0.06427885   -0.00876928
     atom  233 type  4   force =     0.03887806    0.05821344    0.02897806
     atom  234 type  4   force =    -0.03299727   -0.05977311   -0.11440751
     atom  235 type  4   force =    -0.01906223    0.15893043   -0.01444722
     atom  236 type  4   force =     0.08811599   -0.01637659   -0.04579028
     atom  237 type  4   force =     0.00623187    0.00679338    0.01216058
     atom  238 type  4   force =    -0.01092534   -0.01290752    0.04265351
     atom  239 type  4   force =     0.01920047   -0.03610808    0.00733892
     atom  240 type  4   force =     0.07763821    0.03085089    0.02822269
     atom  241 type  4   force =     0.03121183   -0.01970012   -0.00489302
     atom  242 type  4   force =    -0.20359725   -0.02963888    0.07897647
     atom  243 type  4   force =     0.02977623    0.00103932    0.02048869
     atom  244 type  4   force =    -0.05116304   -0.00160591   -0.04531362
     atom  245 type  4   force =    -0.01909903   -0.02917534   -0.09475432
     atom  246 type  4   force =     0.02443560   -0.00899576   -0.03122214
     atom  247 type  4   force =    -0.00637816   -0.01713181   -0.06719942
     atom  248 type  4   force =    -0.01647204    0.03028393    0.05887761
     atom  249 type  4   force =     0.03809272    0.02612056   -0.06221228
     atom  250 type  4   force =    -0.08196848   -0.01668725    0.00423408
     atom  251 type  4   force =    -0.00780229   -0.00392216   -0.01947068
     atom  252 type  4   force =    -0.07123191    0.01912643   -0.05256788
     atom  253 type  4   force =     0.00126727   -0.04522898   -0.11029121
     atom  254 type  4   force =    -0.09099684    0.01338115   -0.01473287
     atom  255 type  4   force =     0.01625789   -0.01882773    0.02042108
     atom  256 type  4   force =     0.03190947   -0.00806719    0.03526434
     atom  257 type  4   force =     0.02692907   -0.02500460    0.03379766
     atom  258 type  4   force =     0.00067066    0.01268568   -0.02907903
     atom  259 type  4   force =     0.04800019    0.01503166   -0.00891321
     atom  260 type  4   force =    -0.04569314   -0.01156864   -0.06088805
     atom  261 type  4   force =     0.04148049    0.02797084   -0.03946254
     atom  262 type  4   force =    -0.05568642   -0.01096568    0.04587546
     atom  263 type  4   force =     0.09679567   -0.02650389    0.01779747
     atom  264 type  4   force =    -0.04573074    0.04260621   -0.02250892
     atom  265 type  4   force =     0.02486883    0.01507167   -0.03964706
     atom  266 type  4   force =     0.02701323    0.02036605   -0.04799871
     atom  267 type  4   force =     0.07753890   -0.00409711   -0.04293285
     atom  268 type  4   force =     0.02718441   -0.04396277   -0.03137484
     atom  269 type  4   force =    -0.01663120   -0.06669464    0.00511375
     atom  270 type  4   force =    -0.07175165   -0.01324772   -0.02962596
     atom  271 type  4   force =     0.06968891    0.01181974    0.00876064
     atom  272 type  4   force =     0.02762031    0.05488949   -0.01275283
     atom  273 type  4   force =     0.00245129   -0.00629219    0.04776602
     atom  274 type  4   force =    -0.02438989    0.00273406    0.02713104
     atom  275 type  4   force =    -0.01182984   -0.02058138    0.01822305
     atom  276 type  4   force =     0.04365473    0.07913509    0.06968125
     atom  277 type  4   force =     0.02663532   -0.01174097   -0.07654483
     atom  278 type  4   force =    -0.02157920    0.06311504    0.04437931
     atom  279 type  4   force =    -0.01201828   -0.02157755    0.00406041
     atom  280 type  4   force =    -0.02692301    0.05673947    0.00963863
     atom  281 type  4   force =     0.04153378    0.03154331    0.04331037
     atom  282 type  4   force =     0.03672951   -0.05135401    0.01537093
     atom  283 type  4   force =     0.00389208   -0.06524695   -0.03209052
     atom  284 type  4   force =     0.07190685   -0.05375062   -0.03045974
     atom  285 type  4   force =     0.01851223   -0.01658530    0.01462119
     atom  286 type  4   force =    -0.11856099   -0.02982515   -0.06911590
     atom  287 type  4   force =    -0.01632041   -0.00185303    0.04452785
     atom  288 type  4   force =     0.06712060   -0.00379563   -0.05577263
     atom  289 type  4   force =     0.02105805    0.09136728   -0.02687265
     atom  290 type  4   force =     0.10188681   -0.05824321   -0.11028084
     atom  291 type  4   force =    -0.03012759    0.01412075   -0.01578951
     atom  292 type  4   force =    -0.01945832   -0.01129182    0.01437009
     atom  293 type  4   force =    -0.00657194   -0.02630198   -0.04964528
     atom  294 type  4   force =     0.08010666   -0.02996655    0.16789034
     atom  295 type  4   force =    -0.05385791    0.06400729    0.06799108
     atom  296 type  4   force =    -0.05993232    0.01919001    0.03736329
     atom  297 type  4   force =    -0.01778059    0.01403082   -0.02419639
     atom  298 type  4   force =     0.01308795    0.01328578    0.01796571
     atom  299 type  4   force =    -0.06691321   -0.14515127   -0.02670688
     atom  300 type  4   force =    -0.01170367   -0.05288725   -0.03407137
     atom  301 type  4   force =    -0.07376492    0.03967067    0.02584925
     atom  302 type  4   force =     0.00573266    0.12646289    0.11053075
     atom  303 type  4   force =    -0.01420854   -0.02292055   -0.03985312
     atom  304 type  4   force =    -0.03903497   -0.00153511    0.01105523
     atom  305 type  4   force =    -0.03632008   -0.01651771    0.00705398
     atom  306 type  4   force =     0.00811198    0.01577067   -0.05867956
     atom  307 type  4   force =     0.02343266    0.02016693    0.04237398
     atom  308 type  4   force =     0.00971854    0.00087886   -0.05119444
     atom  309 type  4   force =     0.00197171   -0.02058248    0.01393895
     atom  310 type  4   force =     0.09236345   -0.00427072    0.11082149
     atom  311 type  4   force =    -0.03271974   -0.01336548    0.01157135
     atom  312 type  4   force =    -0.02337352    0.02161527    0.01460583
     atom  313 type  4   force =     0.01422809   -0.08704615    0.01952083
     atom  314 type  4   force =    -0.04571233    0.01306470   -0.02391373
     atom  315 type  4   force =    -0.01722626   -0.00382805   -0.02787184
     atom  316 type  4   force =    -0.00558668   -0.00388606    0.01814481
     atom  317 type  4   force =    -0.00178725    0.06899831    0.03998158
     atom  318 type  4   force =     0.04033367    0.00254031   -0.01751385
     atom  319 type  4   force =    -0.02971390   -0.01473288   -0.06109985
     atom  320 type  4   force =     0.04260749   -0.01853219   -0.02672391
     atom  321 type  4   force =    -0.02602319    0.12857641    0.03784834
     atom  322 type  4   force =     0.02388267    0.01090487   -0.06531218
     atom  323 type  4   force =     0.03566859   -0.03562057    0.04996898
     atom  324 type  4   force =     0.05229905    0.00490959   -0.02317257
     atom  325 type  4   force =     0.03441251   -0.02324401   -0.02831587
     atom  326 type  4   force =    -0.00823510    0.11664564    0.05600787
     atom  327 type  4   force =     0.04743956    0.04959646   -0.03976646
     atom  328 type  4   force =     0.02056030    0.00099410   -0.01997077
     atom  329 type  4   force =     0.10558424    0.01069525    0.01855475
     atom  330 type  4   force =     0.02370677   -0.03659607   -0.05448983
     atom  331 type  4   force =     0.03238014    0.04218412   -0.00806684
     atom  332 type  4   force =     0.02197478    0.05071861   -0.01244928
     atom  333 type  4   force =    -0.05389208   -0.05591072    0.02743577
     atom  334 type  4   force =     0.02378118    0.04554096   -0.02792963
     atom  335 type  4   force =     0.06794112    0.02175817   -0.02189569
     atom  336 type  4   force =    -0.03940664   -0.03108554   -0.04388806
     atom  337 type  4   force =    -0.00471187   -0.00474919   -0.02315900
     atom  338 type  4   force =    -0.05726865    0.04317904   -0.01897903
     atom  339 type  5   force =    -0.02046751    0.02373510    0.03466248
     atom  340 type  5   force =     0.00643647   -0.02890154    0.02817582
     atom  341 type  6   force =     0.02431217    0.00332467   -0.00045049
     atom  342 type  6   force =    -0.02417334   -0.00328306    0.00046627
     atom  343 type  6   force =     0.00428925   -0.03967694   -0.00201671
     atom  344 type  6   force =     0.00651013   -0.03948063   -0.00240820
     atom  345 type  6   force =    -0.00625254    0.03959349    0.00253020
     atom  346 type  6   force =    -0.00448850    0.03968968    0.00249016
     atom  347 type  6   force =     0.02685614    0.02023180    0.00066786
     atom  348 type  6   force =    -0.03123813    0.01238098    0.00163619
     atom  349 type  6   force =     0.03132434   -0.01243101   -0.00150292
     atom  350 type  6   force =    -0.02717128   -0.02024094    0.00000453
     atom  351 type  7   force =     0.00288186    0.00572913    0.00000144
     atom  352 type  7   force =    -0.00416059    0.00478437    0.00015606
     atom  353 type  7   force =     0.00417530   -0.00480043   -0.00061360
     atom  354 type  7   force =    -0.00263303   -0.00568173   -0.00047314
     atom  355 type  7   force =     0.00382416   -0.00317208   -0.00056881
     atom  356 type  7   force =    -0.00280866   -0.00398722   -0.00039505
     atom  357 type  7   force =     0.00286144    0.00414981   -0.00005487
     atom  358 type  7   force =    -0.00380740    0.00312664    0.00004550

     Total force =     1.686213     Total SCF correction =     0.000132


     Computing stress (Cartesian axis) and pressure


     negative rho (up, down):  5.995E-02 0.000E+00
          total   stress  (Ry/bohr**3)                   (kbar)     P=        7.99
   0.00005259   0.00000154  -0.00000302            7.74        0.23       -0.44
   0.00000154   0.00006108   0.00000346            0.23        8.99        0.51
  -0.00000302   0.00000346   0.00004918           -0.44        0.51        7.23


     Writing all to output data dir ./outputs/pwscf.save/ :
     XML data file, charge density, pseudopotentials, collected wavefunctions
 
     init_run     :    146.18s CPU    149.16s WALL (       1 calls)
     electrons    :  77822.36s CPU  79399.52s WALL (       1 calls)
     forces       :     92.32s CPU     95.83s WALL (       1 calls)
     stress       :    350.31s CPU    355.33s WALL (       1 calls)

     Called by init_run:
     wfcinit      :    130.20s CPU    131.92s WALL (       1 calls)
     potinit      :      1.19s CPU      1.28s WALL (       1 calls)
     hinit0       :      1.43s CPU      1.47s WALL (       1 calls)

     Called by electrons:
     c_bands      :  65160.76s CPU  66165.84s WALL (     274 calls)
     sum_band     :  11364.90s CPU  11687.13s WALL (     274 calls)
     v_of_rho     :    125.58s CPU    130.83s WALL (     275 calls)
     newd         :    930.45s CPU   1169.83s WALL (     275 calls)
     PAW_pot      :    155.42s CPU    156.43s WALL (     275 calls)
     mix_rho      :     69.04s CPU     71.54s WALL (     274 calls)

     Called by c_bands:
     init_us_2    :    602.61s CPU    611.97s WALL (     550 calls)
     cegterg      :  64347.13s CPU  65339.91s WALL (     274 calls)

     Called by *egterg:
     cdiaghg      :    925.80s CPU    933.48s WALL (     602 calls)
     h_psi        :  35541.00s CPU  36004.02s WALL (     603 calls)
     s_psi        :  10611.92s CPU  10705.95s WALL (     603 calls)
     g_psi        :     62.45s CPU     63.10s WALL (     328 calls)

     Called by h_psi:
     h_psi:calbec :  10628.79s CPU  10705.62s WALL (     603 calls)
     vloc_psi     :  14224.33s CPU  14376.18s WALL (     603 calls)
                                        0.00s GPU  (     603 calls)
     add_vuspsi   :  10627.49s CPU  10747.16s WALL (     603 calls)

     General routines
     calbec       :  16229.17s CPU  16341.73s WALL (     894 calls)
     fft          :    125.47s CPU    131.56s WALL (    3598 calls)
     ffts         :     11.27s CPU     11.82s WALL (     549 calls)
     fftw         :  13781.21s CPU  13911.57s WALL ( 1546450 calls)
     interpolate  :     15.15s CPU     15.79s WALL (     275 calls)
 
     Parallel routines
 
     PWSCF        :     21h47m CPU     22h14m WALL

 
   This run was terminated on:   3:59:43  14Mar2026            

=------------------------------------------------------------------------------=
   JOB DONE.
=------------------------------------------------------------------------------=
