
     Program PWSCF v.7.5 starts on  2Mar2026 at 14:36:53 

     This program is part of the open-source Quantum ESPRESSO suite
     for quantum simulation of materials; please cite
         "P. Giannozzi et al., J. Phys.:Condens. Matter 21 395502 (2009);
         "P. Giannozzi et al., J. Phys.:Condens. Matter 29 465901 (2017);
         "P. Giannozzi et al., J. Chem. Phys. 152 154105 (2020);
          URL http://www.quantum-espresso.org", 
     in publications or presentations arising from this work. More details at
     http://www.quantum-espresso.org/quote

     Parallel version (MPI), running on    80 processors

     MPI processes distributed on     4 nodes
     95198 MiB available memory on the printing compute node when the environment starts
 
     Reading input from NaphthaleneOnGlassSite3Snapshot2.in
Warning: card &CELL ignored
Warning: card &FCP ignored
Warning: card &RISM ignored

     Current dimensions of program PWSCF are:
     Max number of different atomic species (ntypx) = 10
     Max number of k-points (npk) =  40000
     Max angular momentum in pseudopotentials (lmaxx) =  4
     file Na.paw.z_9.ld1.psl.v1.0.0-low.upf: wavefunction(s)  2P renormalized
     file O.pbe-n-kjpaw_psl.0.1.UPF: wavefunction(s)  2P renormalized
     file Al.pbe-n-kjpaw_psl.1.0.0.UPF: wavefunction(s)  3S 3P renormalized
     file C.pbe-n-kjpaw_psl.1.0.0.UPF: wavefunction(s)  2S 2P renormalized
 
     R & G space division:  proc/nbgrp/npool/nimage =      80
     Subspace diagonalization in iterative solution of the eigenvalue problem:
     one sub-group per band group will be used
     custom distributed-memory algorithm (size of sub-group:  8*  8 procs)

 
     Parallelization info
     --------------------
     sticks:   dense  smooth     PW     G-vecs:    dense   smooth      PW
     Min         450     400    100               199276   167008   20874
     Max         451     401    101               199303   167021   20885
     Sum       36073   32057   8021             15943719 13361281 1670237
 
     Using Slab Decomposition
 


     bravais-lattice index     =            0
     lattice parameter (alat)  =      35.4885  a.u.
     unit-cell volume          =  138228.4306 (a.u.)^3
     number of atoms/cell      =          358
     number of atomic types    =            7
     number of electrons       =      1872.00
     number of Kohn-Sham states=         1123
     kinetic-energy cutoff     =      80.0000  Ry
     charge density cutoff     =     360.0000  Ry
     scf convergence threshold =      1.0E-08
     mixing beta               =       0.1000
     number of iterations used =            8  plain     mixing
     Exchange-correlation= PBE
                           (   1   4   3   4   0   0   0)

     celldm(1)=  35.488539  celldm(2)=   0.000000  celldm(3)=   0.000000
     celldm(4)=   0.000000  celldm(5)=   0.000000  celldm(6)=   0.000000

     crystal axes: (cart. coord. in units of alat)
               a(1) = (   1.000000   0.000000   0.000000 )  
               a(2) = (   0.000000   1.000000   0.000000 )  
               a(3) = (   0.000000   0.000000   3.092666 )  

     reciprocal axes: (cart. coord. in units 2 pi/alat)
               b(1) = (  1.000000  0.000000  0.000000 )  
               b(2) = (  0.000000  1.000000  0.000000 )  
               b(3) = (  0.000000  0.000000  0.323346 )  


     PseudoPot. # 1 for Na read from file:
     /home/sabeel/VOCC_Simulation/pseudopotentials/SSSP_Precision/Na.paw.z_9.ld1.psl.v1.0.0-low.upf
     MD5 check sum: 32bccecb13d7399e6c7dae6fe6685ff0
     Pseudo is Projector augmented-wave + core cor, Zval =  9.0
     Generated using &quot;atomic&quot; code by A. Dal Corso  v.6.3MaX
     Shape of augmentation charge: PSQ
     Using radial grid of 1121 points,  4 beta functions with: 
                l(1) =   0
                l(2) =   0
                l(3) =   1
                l(4) =   1
     Q(r) pseudized with 0 coefficients 


     PseudoPot. # 2 for B  read from file:
     /home/sabeel/VOCC_Simulation/pseudopotentials/SSSP_Precision/B_pbe_v1.01.uspp.F.UPF
     MD5 check sum: d081ebb89d0c768e112975f650467a00
     Pseudo is Ultrasoft + core correction, Zval =  3.0
     Generated by new atomic code, or converted to UPF format
     Using radial grid of  781 points,  4 beta functions with: 
                l(1) =   0
                l(2) =   0
                l(3) =   1
                l(4) =   1
     Q(r) pseudized with  8 coefficients,  rinner =    1.100   1.100   1.100


     PseudoPot. # 3 for Si read from file:
     /home/sabeel/VOCC_Simulation/pseudopotentials/SSSP_Precision/Si.pbe-n-rrkjus_psl.1.0.0.UPF
     MD5 check sum: 0b0bb1205258b0d07b9f9672cf965d36
     Pseudo is Ultrasoft + core correction, Zval =  4.0
     Generated using "atomic" code by A. Dal Corso  v.5.1
     Using radial grid of 1141 points,  6 beta functions with: 
                l(1) =   0
                l(2) =   0
                l(3) =   1
                l(4) =   1
                l(5) =   2
                l(6) =   2
     Q(r) pseudized with 0 coefficients 


     PseudoPot. # 4 for O  read from file:
     /home/sabeel/VOCC_Simulation/pseudopotentials/SSSP_Precision/O.pbe-n-kjpaw_psl.0.1.UPF
     MD5 check sum: 0234752ac141de4415c5fc33072bef88
     Pseudo is Projector augmented-wave + core cor, Zval =  6.0
     Generated using "atomic" code by A. Dal Corso  v.5.0.99 svn rev. 10869
     Shape of augmentation charge: BESSEL
     Using radial grid of 1095 points,  4 beta functions with: 
                l(1) =   0
                l(2) =   0
                l(3) =   1
                l(4) =   1
     Q(r) pseudized with 0 coefficients 


     PseudoPot. # 5 for Al read from file:
     /home/sabeel/VOCC_Simulation/pseudopotentials/SSSP_Precision/Al.pbe-n-kjpaw_psl.1.0.0.UPF
     MD5 check sum: cfc449ca30b5f3223ec38ddd88ac046d
     Pseudo is Projector augmented-wave + core cor, Zval =  3.0
     Generated using "atomic" code by A. Dal Corso  v.5.1
     Shape of augmentation charge: PSQ
     Using radial grid of 1135 points,  6 beta functions with: 
                l(1) =   0
                l(2) =   0
                l(3) =   1
                l(4) =   1
                l(5) =   2
                l(6) =   2
     Q(r) pseudized with 0 coefficients 


     PseudoPot. # 6 for C  read from file:
     /home/sabeel/VOCC_Simulation/pseudopotentials/SSSP_Precision/C.pbe-n-kjpaw_psl.1.0.0.UPF
     MD5 check sum: 5d2aebdfa2cae82b50a7e79e9516da0f
     Pseudo is Projector augmented-wave + core cor, Zval =  4.0
     Generated using "atomic" code by A. Dal Corso  v.5.1
     Shape of augmentation charge: PSQ
     Using radial grid of 1073 points,  4 beta functions with: 
                l(1) =   0
                l(2) =   0
                l(3) =   1
                l(4) =   1
     Q(r) pseudized with 0 coefficients 


     PseudoPot. # 7 for H  read from file:
     /home/sabeel/VOCC_Simulation/pseudopotentials/SSSP_Precision/H_ONCV_PBE-1.0.oncvpsp.upf
     MD5 check sum: 1790becc920ee074925cf490c71280fe
     Pseudo is Norm-conserving, Zval =  1.0
     Generated using ONCVPSP code by D. R. Hamann
     Using radial grid of 1166 points,  2 beta functions with: 
                l(1) =   0
                l(2) =   0

     atomic species   valence    mass     pseudopotential
     Na                9.00    22.98977     Na( 1.00)
     B                 3.00    10.81000     B ( 1.00)
     Si                4.00    28.08500     Si( 1.00)
     O                 6.00    15.99900     O ( 1.00)
     Al                3.00    26.98154     Al( 1.00)
     C                 4.00    12.01100     C ( 1.00)
     H                 1.00     1.00800     H ( 1.00)

     No symmetry found



   Cartesian axes

     site n.     atom                  positions (alat units)
         1        Na     tau(   1) = (   0.2476327   0.1287261   1.4401902  )
         2        Na     tau(   2) = (   0.2347070   0.3964799   1.8357059  )
         3        Na     tau(   3) = (   0.2580766   0.4457236   1.6551511  )
         4        Na     tau(   4) = (   0.0484944   0.0277893   1.6277847  )
         5        Na     tau(   5) = (   0.2352313   0.0813062   1.2863150  )
         6        Na     tau(   6) = (   0.0747243   0.2371463   1.1982473  )
         7        Na     tau(   7) = (   0.1133306   0.7698962   1.8611434  )
         8        Na     tau(   8) = (   0.9037110   0.1954209   1.2700780  )
         9        Na     tau(   9) = (   0.5181841   0.1014052   1.4940734  )
        10        Na     tau(  10) = (   0.3803624   0.0140251   1.8302637  )
        11        Na     tau(  11) = (   0.3545179   0.4989222   1.3772145  )
        12        B      tau(  12) = (   0.9565860   0.6559989   1.4661680  )
        13        B      tau(  13) = (   0.3779039   0.3190213   1.8506233  )
        14        B      tau(  14) = (   0.6357433   0.7757670   1.3375748  )
        15        B      tau(  15) = (   0.9958362   0.0827877   1.8476266  )
        16        B      tau(  16) = (   0.6987179   0.5586979   1.3943070  )
        17        B      tau(  17) = (   0.0903279   0.5997535   1.2200041  )
        18        B      tau(  18) = (   0.9460845   0.5017876   1.4754679  )
        19        B      tau(  19) = (   0.0032347   0.0527127   1.2839437  )
        20        B      tau(  20) = (   0.1241012   0.5940167   1.6016841  )
        21        B      tau(  21) = (   0.4174729   0.9198072   1.5541475  )
        22        B      tau(  22) = (   0.4638227   0.9107282   1.2322731  )
        23        B      tau(  23) = (   0.5096053   0.7092947   1.5000083  )
        24        B      tau(  24) = (   0.4035376   0.9367665   1.6900270  )
        25        B      tau(  25) = (   0.7132674   0.8560217   1.2558196  )
        26        B      tau(  26) = (   0.2579773   0.4217781   1.2874388  )
        27        B      tau(  27) = (   0.1862793   0.2338812   1.3576537  )
        28        B      tau(  28) = (   0.2134919   0.3664862   1.5073156  )
        29        B      tau(  29) = (   0.3546252   0.0462610   1.5293894  )
        30        B      tau(  30) = (   0.8082206   0.9504483   1.6218439  )
        31        B      tau(  31) = (   0.4915043   0.5408159   1.2913026  )
        32        B      tau(  32) = (   0.2471486   0.9450605   1.4099193  )
        33        B      tau(  33) = (   0.7089246   0.1566090   1.6669558  )
        34        B      tau(  34) = (   0.4858908   0.1745693   1.3498737  )
        35        Si     tau(  35) = (   0.5740761   0.3686341   1.4981594  )
        36        Si     tau(  36) = (   0.9600416   0.6521543   1.2713743  )
        37        Si     tau(  37) = (   0.8029666   0.9237355   1.4090604  )
        38        Si     tau(  38) = (   0.6589027   0.0111466   1.4303706  )
        39        Si     tau(  39) = (   0.7148031   0.8518694   1.6658713  )
        40        Si     tau(  40) = (   0.4062844   0.4370669   1.7000479  )
        41        Si     tau(  41) = (   0.8652299   0.0194200   1.2866760  )
        42        Si     tau(  42) = (   0.8792462   0.4724358   1.3313926  )
        43        Si     tau(  43) = (   0.9761010   0.8191325   1.3004490  )
        44        Si     tau(  44) = (   0.0927580   0.6000365   1.4532062  )
        45        Si     tau(  45) = (   0.8492038   0.6801733   1.8429896  )
        46        Si     tau(  46) = (   0.7648638   0.9759642   1.8781504  )
        47        Si     tau(  47) = (   0.8282769   0.9005504   1.7531841  )
        48        Si     tau(  48) = (   0.2400871   0.2615564   1.6009290  )
        49        Si     tau(  49) = (   0.0782160   0.8578516   1.7113893  )
        50        Si     tau(  50) = (   0.1793983   0.5421597   1.3229395  )
        51        Si     tau(  51) = (   0.3045589   0.3154693   1.3856788  )
        52        Si     tau(  52) = (   0.1868342   0.9496617   1.8144358  )
        53        Si     tau(  53) = (   0.5597482   0.9942014   1.8563540  )
        54        Si     tau(  54) = (   0.3283405   0.8654915   1.7979255  )
        55        Si     tau(  55) = (   0.3944303   0.1342286   1.2558232  )
        56        Si     tau(  56) = (   0.5556116   0.4029995   1.7688172  )
        57        Si     tau(  57) = (   0.8886951   0.0519111   1.5515978  )
        58        Si     tau(  58) = (   0.9177874   0.8266438   1.8602018  )
        59        Si     tau(  59) = (   0.5141592   0.7513592   1.7304853  )
        60        Si     tau(  60) = (   0.6200680   0.7296116   1.5975635  )
        61        Si     tau(  61) = (   0.4531771   0.2653855   1.4551164  )
        62        Si     tau(  62) = (   0.9530092   0.1910999   1.6203079  )
        63        Si     tau(  63) = (   0.9806318   0.2594417   1.4695044  )
        64        Si     tau(  64) = (   0.1810221   0.5658568   1.7318917  )
        65        Si     tau(  65) = (   0.2276537   0.6624309   1.2309086  )
        66        Si     tau(  66) = (   0.7086066   0.3068958   1.4624957  )
        67        Si     tau(  67) = (   0.7573617   0.5008676   1.2102682  )
        68        Si     tau(  68) = (   0.0630774   0.5052222   1.8068999  )
        69        Si     tau(  69) = (   0.9531780   0.4208941   1.7332624  )
        70        Si     tau(  70) = (   0.8429520   0.6341042   1.3864806  )
        71        Si     tau(  71) = (   0.8255070   0.2513717   1.7092992  )
        72        Si     tau(  72) = (   0.4660404   0.3166643   1.5999861  )
        73        Si     tau(  73) = (   0.3218087   0.1696541   1.7095271  )
        74        Si     tau(  74) = (   0.6054871   0.0864265   1.2929813  )
        75        Si     tau(  75) = (   0.4402609   0.0821865   1.6559030  )
        76        Si     tau(  76) = (   0.3770531   0.0317907   1.3941734  )
        77        Si     tau(  77) = (   0.5059912   0.8072476   1.3243503  )
        78        Si     tau(  78) = (   0.6069382   0.5044701   1.6609957  )
        79        Si     tau(  79) = (   0.6370349   0.4244534   1.3741369  )
        80        Si     tau(  80) = (   0.6855674   0.7078304   1.8645318  )
        81        Si     tau(  81) = (   0.0765130   0.9298841   1.2314627  )
        82        Si     tau(  82) = (   0.9863684   0.4054382   1.2235204  )
        83        Si     tau(  83) = (   0.4950631   0.2585395   1.7548401  )
        84        Si     tau(  84) = (   0.5719431   0.1160579   1.7357262  )
        85        Si     tau(  85) = (   0.3566442   0.7389475   1.7027041  )
        86        Si     tau(  86) = (   0.5887626   0.6478135   1.7482870  )
        87        Si     tau(  87) = (   0.3778403   0.4701707   1.1981005  )
        88        Si     tau(  88) = (   0.7705746   0.7745811   1.3546535  )
        89        Si     tau(  89) = (   0.6353056   0.3899359   1.2194797  )
        90        Si     tau(  90) = (   0.3199297   0.6027545   1.8036004  )
        91        Si     tau(  91) = (   0.6901246   0.5787282   1.5496775  )
        92        Si     tau(  92) = (   0.1108815   0.9857043   1.4484254  )
        93        Si     tau(  93) = (   0.0087222   0.8101075   1.4596435  )
        94        Si     tau(  94) = (   0.4662737   0.5842118   1.4387730  )
        95        Si     tau(  95) = (   0.1497603   0.1150345   1.8191784  )
        96        Si     tau(  96) = (   0.9119816   0.9073773   1.5284091  )
        97        Si     tau(  97) = (   0.5081777   0.9347421   1.4393654  )
        98        Si     tau(  98) = (   0.9733658   0.9480751   1.7929925  )
        99        Si     tau(  99) = (   0.2449909   0.7736475   1.5958723  )
       100        Si     tau( 100) = (   0.2568298   0.7840856   1.3334763  )
       101        Si     tau( 101) = (   0.1600543   0.7576293   1.4557816  )
       102        Si     tau( 102) = (   0.9190690   0.2974838   1.8287833  )
       103        Si     tau( 103) = (   0.8499270   0.3745654   1.6104514  )
       104        Si     tau( 104) = (   0.8444491   0.5369054   1.7673517  )
       105        Si     tau( 105) = (   0.1203187   0.1732756   1.6597012  )
       106        Si     tau( 106) = (   0.6321686   0.6005607   1.2681838  )
       107        Si     tau( 107) = (   0.6235724   0.8470731   1.8048529  )
       108        Si     tau( 108) = (   0.7501132   0.1202716   1.2309056  )
       109        Si     tau( 109) = (   0.2746484   0.2046900   1.8670863  )
       110        Si     tau( 110) = (   0.2273259   0.0646953   1.6216725  )
       111        Si     tau( 111) = (   0.0729274   0.4042159   1.4579120  )
       112        Si     tau( 112) = (   0.6640697   0.1601480   1.5162335  )
       113        Si     tau( 113) = (   0.1226817   0.7031938   1.6887692  )
       114        Si     tau( 114) = (   0.8406300   0.5276586   1.5875131  )
       115        Si     tau( 115) = (   0.8389500   0.3149315   1.3901795  )
       116        Si     tau( 116) = (   0.1722727   0.9211130   1.5953570  )
       117        Si     tau( 117) = (   0.0763504   0.1375521   1.3930086  )
       118        Si     tau( 118) = (   0.3256209   0.9115638   1.2548481  )
       119        Si     tau( 119) = (   0.3955849   0.7224945   1.4035300  )
       120        Si     tau( 120) = (   0.4652418   0.5499611   1.5942954  )
       121        Si     tau( 121) = (   0.1212618   0.3651412   1.3045003  )
       122        O      tau( 122) = (   0.0295168   0.4481121   1.8630498  )
       123        O      tau( 123) = (   0.8632305   0.7660730   1.8351295  )
       124        O      tau( 124) = (   0.7865379   0.5198677   1.8292109  )
       125        O      tau( 125) = (   0.7687039   0.8065522   1.2712216  )
       126        O      tau( 126) = (   0.2613316   0.2462125   1.3627201  )
       127        O      tau( 127) = (   0.4383841   0.2721051   1.5384261  )
       128        O      tau( 128) = (   0.4075804   0.9041606   1.6244717  )
       129        O      tau( 129) = (   0.2891632   0.9821156   1.2266374  )
       130        O      tau( 130) = (   0.3003666   0.1796727   1.7902854  )
       131        O      tau( 131) = (   0.5973279   0.4225163   1.2949590  )
       132        O      tau( 132) = (   0.5334428   0.5020140   1.6146071  )
       133        O      tau( 133) = (   0.2755656   0.1058719   1.6786020  )
       134        O      tau( 134) = (   0.1545595   0.1075181   1.6150265  )
       135        O      tau( 135) = (   0.1198242   0.5723265   1.5291309  )
       136        O      tau( 136) = (   0.5826608   0.7211316   1.6806210  )
       137        O      tau( 137) = (   0.4384820   0.7620469   1.6969890  )
       138        O      tau( 138) = (   0.3813441   0.2977472   1.4178316  )
       139        O      tau( 139) = (   0.9518571   0.2429557   1.5505285  )
       140        O      tau( 140) = (   0.6668767   0.5177678   1.6031137  )
       141        O      tau( 141) = (   0.1520770   0.1695411   1.3620472  )
       142        O      tau( 142) = (   0.6925009   0.7509516   1.3753791  )
       143        O      tau( 143) = (   0.1434568   0.6580895   1.2139172  )
       144        O      tau( 144) = (   0.4761486   0.9028411   1.5138988  )
       145        O      tau( 145) = (   0.0631356   0.5782061   1.8492954  )
       146        O      tau( 146) = (   0.5876332   0.4146284   1.8503125  )
       147        O      tau( 147) = (   0.1071621   0.8902567   1.6361869  )
       148        O      tau( 148) = (   0.0331486   0.1967754   1.4407710  )
       149        O      tau( 149) = (   0.9443941   0.9810288   1.5588672  )
       150        O      tau( 150) = (   0.5485694   0.5774714   1.2625723  )
       151        O      tau( 151) = (   0.6090489   0.9225244   1.8421140  )
       152        O      tau( 152) = (   0.3184350   0.7927686   1.7545505  )
       153        O      tau( 153) = (   0.2965868   0.2359092   1.6579206  )
       154        O      tau( 154) = (   0.3399948   0.4149078   1.7451441  )
       155        O      tau( 155) = (   0.6583099   0.3076783   1.2358723  )
       156        O      tau( 156) = (   0.5620926   0.7442927   1.5385442  )
       157        O      tau( 157) = (   0.5556976   0.3175372   1.7688381  )
       158        O      tau( 158) = (   0.3525972   0.6632019   1.7471104  )
       159        O      tau( 159) = (   0.9620412   0.3446718   1.7697440  )
       160        O      tau( 160) = (   0.5313272   0.1848172   1.7709556  )
       161        O      tau( 161) = (   0.9429693   0.0183272   1.3239474  )
       162        O      tau( 162) = (   0.4858005   0.9533180   1.8755890  )
       163        O      tau( 163) = (   0.3657073   0.5328581   1.8345358  )
       164        O      tau( 164) = (   0.4406081   0.5066782   1.2484323  )
       165        O      tau( 165) = (   0.3135028   0.2834622   1.8690668  )
       166        O      tau( 166) = (   0.7907911   0.8360261   1.7119523  )
       167        O      tau( 167) = (   0.7289290   0.9234833   1.2340123  )
       168        O      tau( 168) = (   0.1454692   0.2885690   1.3267456  )
       169        O      tau( 169) = (   0.3914991   0.9066251   1.7575926  )
       170        O      tau( 170) = (   0.7079875   0.2222935   1.4707635  )
       171        O      tau( 171) = (   0.9743698   0.8515159   1.5269402  )
       172        O      tau( 172) = (   0.1330105   0.5361140   1.2470617  )
       173        O      tau( 173) = (   0.5827735   0.0420994   1.2254729  )
       174        O      tau( 174) = (   0.8602910   0.6220068   1.7811976  )
       175        O      tau( 175) = (   0.5252483   0.6418342   1.4684534  )
       176        O      tau( 176) = (   0.6556139   0.6691234   1.7930720  )
       177        O      tau( 177) = (   0.9478947   0.4555202   1.2814895  )
       178        O      tau( 178) = (   0.9699578   0.0766966   1.2188133  )
       179        O      tau( 179) = (   0.5480526   0.8088247   1.7836236  )
       180        O      tau( 180) = (   0.3152477   0.7447790   1.3880620  )
       181        O      tau( 181) = (   0.1477991   0.6460434   1.7450578  )
       182        O      tau( 182) = (   0.4226375   0.0083615   1.6949577  )
       183        O      tau( 183) = (   0.5004654   0.8461638   1.2447985  )
       184        O      tau( 184) = (   0.7864920   0.8423242   1.4036977  )
       185        O      tau( 185) = (   0.9046070   0.6136339   1.3286598  )
       186        O      tau( 186) = (   0.1308852   0.5564651   1.3912596  )
       187        O      tau( 187) = (   0.0181193   0.9388870   1.8632981  )
       188        O      tau( 188) = (   0.5236768   0.3172741   1.4469420  )
       189        O      tau( 189) = (   0.6771903   0.1363695   1.2729556  )
       190        O      tau( 190) = (   0.5668565   0.7520726   1.3411952  )
       191        O      tau( 191) = (   0.4390184   0.1054952   1.8920128  )
       192        O      tau( 192) = (   0.2801127   0.0556319   1.5537880  )
       193        O      tau( 193) = (   0.9517833   0.2240015   1.8530263  )
       194        O      tau( 194) = (   0.4078786   0.5134087   1.6517908  )
       195        O      tau( 195) = (   0.6735166   0.7941076   1.8547702  )
       196        O      tau( 196) = (   0.7896414   0.2674110   1.3392843  )
       197        O      tau( 197) = (   0.9136500   0.5214282   1.5392122  )
       198        O      tau( 198) = (   0.5881526   0.4350093   1.4460280  )
       199        O      tau( 199) = (   0.7745755   0.5842257   1.3844862  )
       200        O      tau( 200) = (   0.2034896   0.9862494   1.6415920  )
       201        O      tau( 201) = (   0.1233221   0.6813655   1.4530684  )
       202        O      tau( 202) = (   0.7937827   0.3272627   1.4639956  )
       203        O      tau( 203) = (   0.4473563   0.5396589   1.5104804  )
       204        O      tau( 204) = (   0.6542799   0.3403998   1.5182787  )
       205        O      tau( 205) = (   0.8234572   0.7113307   1.3622509  )
       206        O      tau( 206) = (   0.8127487   0.4431771   1.5824090  )
       207        O      tau( 207) = (   0.5134106   0.6764784   1.7758121  )
       208        O      tau( 208) = (   0.1836556   0.7783442   1.3761575  )
       209        O      tau( 209) = (   0.8104766   0.3105590   1.6473803  )
       210        O      tau( 210) = (   0.3044033   0.9850075   1.3843284  )
       211        O      tau( 211) = (   0.1301504   0.8965179   1.7717389  )
       212        O      tau( 212) = (   0.3197141   0.1653364   1.2298596  )
       213        O      tau( 213) = (   0.4699233   0.1934200   1.4196372  )
       214        O      tau( 214) = (   0.2809558   0.8612246   1.3097159  )
       215        O      tau( 215) = (   0.4264163   0.2824703   1.8051299  )
       216        O      tau( 216) = (   0.6599679   0.6539216   1.5790006  )
       217        O      tau( 217) = (   0.7349642   0.9291111   1.6364595  )
       218        O      tau( 218) = (   0.0099961   0.4612132   1.4800917  )
       219        O      tau( 219) = (   0.5892025   0.1978638   1.5290320  )
       220        O      tau( 220) = (   0.0485841   0.8646896   1.2765110  )
       221        O      tau( 221) = (   0.9732948   0.8322736   1.3845405  )
       222        O      tau( 222) = (   0.4005127   0.1467648   1.7001924  )
       223        O      tau( 223) = (   0.8561165   0.3880932   1.3551362  )
       224        O      tau( 224) = (   0.1908703   0.7320545   1.6493092  )
       225        O      tau( 225) = (   0.5316561   0.3624401   1.5720686  )
       226        O      tau( 226) = (   0.6407674   0.0341441   1.3503554  )
       227        O      tau( 227) = (   0.2507360   0.3493753   1.4464087  )
       228        O      tau( 228) = (   0.5138994   0.8709061   1.3834646  )
       229        O      tau( 229) = (   0.9079300   0.5013233   1.4088368  )
       230        O      tau( 230) = (   0.4395504   0.1937154   1.2966161  )
       231        O      tau( 231) = (   0.2308999   0.6103161   1.2990312  )
       232        O      tau( 232) = (   0.3685013   0.9700313   1.5258447  )
       233        O      tau( 233) = (   0.8514985   0.9494698   1.6877232  )
       234        O      tau( 234) = (   0.0187499   0.4824011   1.7364241  )
       235        O      tau( 235) = (   0.2414021   0.3421124   1.5740169  )
       236        O      tau( 236) = (   0.6097970   0.4413714   1.7163163  )
       237        O      tau( 237) = (   0.4788214   0.4352721   1.7472383  )
       238        O      tau( 238) = (   0.1395403   0.9630524   1.5257738  )
       239        O      tau( 239) = (   0.3787358   0.0784353   1.3203646  )
       240        O      tau( 240) = (   0.5839692   0.9685892   1.4551464  )
       241        O      tau( 241) = (   0.9110607   0.6557788   1.2003494  )
       242        O      tau( 242) = (   0.0686474   0.1043740   1.8437037  )
       243        O      tau( 243) = (   0.1460976   0.3999842   1.5060950  )
       244        O      tau( 244) = (   0.4166165   0.3782170   1.6358330  )
       245        O      tau( 245) = (   0.0075933   0.9084354   1.7265037  )
       246        O      tau( 246) = (   0.8482460   0.9888286   1.2074661  )
       247        O      tau( 247) = (   0.6787187   0.3475581   1.3906861  )
       248        O      tau( 248) = (   0.2793975   0.6318760   1.8700688  )
       249        O      tau( 249) = (   0.1753735   0.9662414   1.3957977  )
       250        O      tau( 250) = (   0.0079684   0.6039592   1.4520956  )
       251        O      tau( 251) = (   0.6799702   0.7916690   1.6137563  )
       252        O      tau( 252) = (   0.8228944   0.4963375   1.2716413  )
       253        O      tau( 253) = (   0.1652982   0.5553089   1.6491463  )
       254        O      tau( 254) = (   0.6527640   0.8346788   1.2935381  )
       255        O      tau( 255) = (   0.0358116   0.1810737   1.6422342  )
       256        O      tau( 256) = (   0.5638762   0.0484964   1.7892635  )
       257        O      tau( 257) = (   0.7314789   0.9670683   1.4359075  )
       258        O      tau( 258) = (   0.2559548   0.8899428   1.4535926  )
       259        O      tau( 259) = (   0.7774448   0.5773609   1.5598674  )
       260        O      tau( 260) = (   0.0868638   0.6515873   1.6288983  )
       261        O      tau( 261) = (   0.2614827   0.9212168   1.7891965  )
       262        O      tau( 262) = (   0.1954831   0.1735609   1.8664394  )
       263        O      tau( 263) = (   0.9906684   0.7948073   1.8435173  )
       264        O      tau( 264) = (   0.4575167   0.9955248   1.4051103  )
       265        O      tau( 265) = (   0.7735858   0.2011661   1.2118609  )
       266        O      tau( 266) = (   0.8814090   0.9281431   1.4499689  )
       267        O      tau( 267) = (   0.4072071   0.9256292   1.2771435  )
       268        O      tau( 268) = (   0.8399764   0.8937974   1.5751596  )
       269        O      tau( 269) = (   0.9802476   0.7272430   1.4739436  )
       270        O      tau( 270) = (   0.4029974   0.6353892   1.4077172  )
       271        O      tau( 271) = (   0.5236271   0.0940762   1.6637713  )
       272        O      tau( 272) = (   0.2291142   0.8566340   1.6031926  )
       273        O      tau( 273) = (   0.1369597   0.1529802   1.7410824  )
       274        O      tau( 274) = (   0.8956842   0.4684356   1.7728116  )
       275        O      tau( 275) = (   0.0304714   0.3296381   1.4668483  )
       276        O      tau( 276) = (   0.9261533   0.1126670   1.5937994  )
       277        O      tau( 277) = (   0.3196110   0.7473434   1.6269653  )
       278        O      tau( 278) = (   0.2346612   0.4755155   1.3381933  )
       279        O      tau( 279) = (   0.0309321   0.9618656   1.4299785  )
       280        O      tau( 280) = (   0.1026240   0.4047238   1.3770124  )
       281        O      tau( 281) = (   0.0996948   0.0720356   1.4419196  )
       282        O      tau( 282) = (   0.9796419   0.7336502   1.2951357  )
       283        O      tau( 283) = (   0.4798587   0.2721799   1.6719849  )
       284        O      tau( 284) = (   0.1447462   0.5042309   1.7791641  )
       285        O      tau( 285) = (   0.6584207   0.0850578   1.4744274  )
       286        O      tau( 286) = (   0.8447302   0.2856675   1.7867899  )
       287        O      tau( 287) = (   0.9236456   0.3532967   1.8933803  )
       288        O      tau( 288) = (   0.7131244   0.4260542   1.2089447  )
       289        O      tau( 289) = (   0.1815374   0.0351118   1.8104616  )
       290        O      tau( 290) = (   0.0329975   0.6097415   1.2681351  )
       291        O      tau( 291) = (   0.8998275   0.8951096   1.8045433  )
       292        O      tau( 292) = (   0.3016404   0.4593341   1.2337882  )
       293        O      tau( 293) = (   0.2631331   0.5633327   1.7490475  )
       294        O      tau( 294) = (   0.7023044   0.1539457   1.5910141  )
       295        O      tau( 295) = (   0.5450848   0.1349270   1.3303906  )
       296        O      tau( 296) = (   0.1632620   0.2443342   1.6379519  )
       297        O      tau( 297) = (   0.1916640   0.3894955   1.2601897  )
       298        O      tau( 298) = (   0.0615898   0.0043928   1.2718305  )
       299        O      tau( 299) = (   0.3967139   0.3875856   1.8762703  )
       300        O      tau( 300) = (   0.4846187   0.5410669   1.3666698  )
       301        O      tau( 301) = (   0.8186424   0.0168112   1.5820830  )
       302        O      tau( 302) = (   0.5974300   0.5762403   1.7036424  )
       303        O      tau( 303) = (   0.4323575   0.7667648   1.3386386  )
       304        O      tau( 304) = (   0.7719883   0.9374236   1.8028857  )
       305        O      tau( 305) = (   0.7672182   0.1900179   1.6976508  )
       306        O      tau( 306) = (   0.8994379   0.0650389   1.4672678  )
       307        O      tau( 307) = (   0.4462121   0.7426137   1.4731770  )
       308        O      tau( 308) = (   0.9211726   0.3961581   1.6533343  )
       309        O      tau( 309) = (   0.2420202   0.2200105   1.5251544  )
       310        O      tau( 310) = (   0.8842963   0.6436934   1.4589679  )
       311        O      tau( 311) = (   0.6482991   0.6785877   1.2330670  )
       312        O      tau( 312) = (   0.4832983   0.6325017   1.6039613  )
       313        O      tau( 313) = (   0.7361349   0.0571749   1.8732737  )
       314        O      tau( 314) = (   0.6649925   0.8590630   1.7336776  )
       315        O      tau( 315) = (   0.9130296   0.2721061   1.4159943  )
       316        O      tau( 316) = (   0.6511009   0.5989696   1.3506902  )
       317        O      tau( 317) = (   0.8131240   0.0898692   1.2825970  )
       318        O      tau( 318) = (   0.6524595   0.1336951   1.7108949  )
       319        O      tau( 319) = (   0.6784211   0.5695802   1.4690337  )
       320        O      tau( 320) = (   0.9018920   0.2183548   1.6834522  )
       321        O      tau( 321) = (   0.9678130   0.0358255   1.7940055  )
       322        O      tau( 322) = (   0.8368182   0.5391156   1.6776043  )
       323        O      tau( 323) = (   0.7668768   0.6856661   1.8697035  )
       324        O      tau( 324) = (   0.1531671   0.9301796   1.8945654  )
       325        O      tau( 325) = (   0.2178402   0.7542098   1.5177838  )
       326        O      tau( 326) = (   0.3614324   0.0782581   1.4600024  )
       327        O      tau( 327) = (   0.4053368   0.0766386   1.5793453  )
       328        O      tau( 328) = (   0.3320739   0.8564650   1.8828345  )
       329        O      tau( 329) = (   0.0914304   0.8126101   1.4681485  )
       330        O      tau( 330) = (   0.2416337   0.7445048   1.2588964  )
       331        O      tau( 331) = (   0.8232583   0.9617889   1.3373563  )
       332        O      tau( 332) = (   0.0224173   0.1103921   1.3331986  )
       333        O      tau( 333) = (   0.0827261   0.7743688   1.7158336  )
       334        O      tau( 334) = (   0.3058372   0.3697607   1.3216954  )
       335        O      tau( 335) = (   0.6940744   0.4843818   1.3763524  )
       336        O      tau( 336) = (   0.0505520   0.3569640   1.2588409  )
       337        O      tau( 337) = (   0.6956442   0.5556100   1.2255199  )
       338        O      tau( 338) = (   0.9205918   0.8444316   1.2442634  )
       339        Al     tau( 339) = (   0.9474166   0.9984982   1.4171699  )
       340        Al     tau( 340) = (   0.7317137   0.2651324   1.2660316  )
       341        C      tau( 341) = (   0.5691377   0.4617851   2.0067062  )
       342        C      tau( 342) = (   0.4944784   0.4516561   2.0081900  )
       343        C      tau( 343) = (   0.6140474   0.4021687   2.0020799  )
       344        C      tau( 344) = (   0.4669239   0.3822075   2.0050197  )
       345        C      tau( 345) = (   0.5966869   0.5312330   2.0098766  )
       346        C      tau( 346) = (   0.4495738   0.5112736   2.0128108  )
       347        C      tau( 347) = (   0.5857528   0.3335483   1.9989663  )
       348        C      tau( 348) = (   0.5123336   0.3235869   2.0004360  )
       349        C      tau( 349) = (   0.5512823   0.5898546   2.0144548  )
       350        C      tau( 350) = (   0.4778681   0.5798945   2.0159138  )
       351        H      tau( 351) = (   0.6715984   0.4086951   2.0008540  )
       352        H      tau( 352) = (   0.4097061   0.3731626   2.0060882  )
       353        H      tau( 353) = (   0.6539041   0.5402829   2.0088137  )
       354        H      tau( 354) = (   0.3920120   0.5047463   2.0140263  )
       355        H      tau( 355) = (   0.6210717   0.2878911   1.9954018  )
       356        H      tau( 356) = (   0.4903398   0.2701488   1.9980090  )
       357        H      tau( 357) = (   0.5732767   0.6432877   2.0168762  )
       358        H      tau( 358) = (   0.4425484   0.6255570   2.0194786  )

     number of k points=     1  Gaussian smearing, width (Ry)=  0.0100
                       cart. coord. in units 2pi/alat
        k(    1) = (   0.0000000   0.0000000   0.0000000), wk =   2.0000000

     Dense  grid: 15943719 G-vectors     FFT dimensions: ( 216, 216, 675)

     Smooth grid: 13361281 G-vectors     FFT dimensions: ( 216, 216, 625)

     Estimated max dynamical RAM per process >       4.14 GB

     Estimated total dynamical RAM >     331.13 GB

     Check: negative core charge=   -0.000001

     Initial potential from superposition of free atoms

     starting charge    1871.8703, renormalised to    1872.0000

     negative rho (up, down):  4.298E-02 0.000E+00
     Starting wfcs are 1419 randomized atomic wfcs
     Checking if some PAW data can be deallocated... 

     total cpu time spent up to now is      148.6 secs

     per-process dynamical memory:  1754.0 Mb

     Self-consistent Calculation

     iteration #  1     ecut=    80.00 Ry     beta= 0.10
     Davidson diagonalization with overlap
     ethr =  1.00E-02,  avg # of iterations =  3.0

     negative rho (up, down):  4.498E-02 0.000E+00

     total cpu time spent up to now is      628.5 secs

     total energy              =  -11693.34265272 Ry
     estimated scf accuracy    <     115.66232664 Ry

     iteration #  2     ecut=    80.00 Ry     beta= 0.10
     Davidson diagonalization with overlap
     ethr =  6.18E-03,  avg # of iterations =  1.0

     negative rho (up, down):  4.667E-02 0.000E+00

     total cpu time spent up to now is      911.0 secs

     total energy              =  -11688.10694784 Ry
     estimated scf accuracy    <      84.98664103 Ry

     iteration #  3     ecut=    80.00 Ry     beta= 0.10
     Davidson diagonalization with overlap
     ethr =  4.54E-03,  avg # of iterations =  1.0

     negative rho (up, down):  4.841E-02 0.000E+00

     total cpu time spent up to now is     1192.7 secs

     total energy              =  -11681.53662585 Ry
     estimated scf accuracy    <      59.47435542 Ry

     iteration #  4     ecut=    80.00 Ry     beta= 0.10
     Davidson diagonalization with overlap
     ethr =  3.18E-03,  avg # of iterations =  2.0

     negative rho (up, down):  4.947E-02 0.000E+00

     total cpu time spent up to now is     1509.7 secs

     total energy              =  -11682.87631823 Ry
     estimated scf accuracy    <      63.49171649 Ry

     iteration #  5     ecut=    80.00 Ry     beta= 0.10
     Davidson diagonalization with overlap
     ethr =  3.18E-03,  avg # of iterations =  1.0

     negative rho (up, down):  5.054E-02 0.000E+00

     total cpu time spent up to now is     1791.6 secs

     total energy              =  -11682.32435941 Ry
     estimated scf accuracy    <      42.71487585 Ry

     iteration #  6     ecut=    80.00 Ry     beta= 0.10
     Davidson diagonalization with overlap
     ethr =  2.28E-03,  avg # of iterations =  1.0

     negative rho (up, down):  5.139E-02 0.000E+00

     total cpu time spent up to now is     2073.8 secs

     total energy              =  -11682.52106860 Ry
     estimated scf accuracy    <      22.14239424 Ry

     iteration #  7     ecut=    80.00 Ry     beta= 0.10
     Davidson diagonalization with overlap
     ethr =  1.18E-03,  avg # of iterations =  6.0

     negative rho (up, down):  5.216E-02 0.000E+00

     total cpu time spent up to now is     2396.8 secs

     total energy              =  -11682.31735852 Ry
     estimated scf accuracy    <      30.72311534 Ry

     iteration #  8     ecut=    80.00 Ry     beta= 0.10
     Davidson diagonalization with overlap
     ethr =  1.18E-03,  avg # of iterations =  2.0

     negative rho (up, down):  5.269E-02 0.000E+00

     total cpu time spent up to now is     2712.6 secs

     total energy              =  -11682.38967900 Ry
     estimated scf accuracy    <      17.81463388 Ry

     iteration #  9     ecut=    80.00 Ry     beta= 0.10
     Davidson diagonalization with overlap
     ethr =  9.52E-04,  avg # of iterations =  1.0

     negative rho (up, down):  5.324E-02 0.000E+00

     total cpu time spent up to now is     2994.9 secs

     total energy              =  -11682.25958717 Ry
     estimated scf accuracy    <      10.72875571 Ry

     iteration # 10     ecut=    80.00 Ry     beta= 0.10
     Davidson diagonalization with overlap
     ethr =  5.73E-04,  avg # of iterations =  2.0

     negative rho (up, down):  5.376E-02 0.000E+00

     total cpu time spent up to now is     3312.1 secs

     total energy              =  -11682.04942271 Ry
     estimated scf accuracy    <      13.44579014 Ry

     iteration # 11     ecut=    80.00 Ry     beta= 0.10
     Davidson diagonalization with overlap
     ethr =  5.73E-04,  avg # of iterations =  2.0

     negative rho (up, down):  5.408E-02 0.000E+00

     total cpu time spent up to now is     3628.1 secs

     total energy              =  -11682.09093882 Ry
     estimated scf accuracy    <      21.42325714 Ry

     iteration # 12     ecut=    80.00 Ry     beta= 0.10
     Davidson diagonalization with overlap
     ethr =  5.73E-04,  avg # of iterations =  2.0

     negative rho (up, down):  5.438E-02 0.000E+00

     total cpu time spent up to now is     3944.7 secs

     total energy              =  -11682.28591964 Ry
     estimated scf accuracy    <       4.77914794 Ry

     iteration # 13     ecut=    80.00 Ry     beta= 0.10
     Davidson diagonalization with overlap
     ethr =  2.55E-04,  avg # of iterations = 19.0

     negative rho (up, down):  5.480E-02 0.000E+00

     total cpu time spent up to now is     4383.7 secs

     total energy              =  -11682.19419020 Ry
     estimated scf accuracy    <       5.56302686 Ry

     iteration # 14     ecut=    80.00 Ry     beta= 0.10
     Davidson diagonalization with overlap
     ethr =  2.55E-04,  avg # of iterations =  1.0

     negative rho (up, down):  5.512E-02 0.000E+00

     total cpu time spent up to now is     4667.8 secs

     total energy              =  -11682.24391235 Ry
     estimated scf accuracy    <       8.42008516 Ry

     iteration # 15     ecut=    80.00 Ry     beta= 0.10
     Davidson diagonalization with overlap
     ethr =  2.55E-04,  avg # of iterations =  1.0

     negative rho (up, down):  5.529E-02 0.000E+00

     total cpu time spent up to now is     4950.8 secs

     total energy              =  -11682.10961244 Ry
     estimated scf accuracy    <       5.65982714 Ry

     iteration # 16     ecut=    80.00 Ry     beta= 0.10
     Davidson diagonalization with overlap
     ethr =  2.55E-04,  avg # of iterations =  1.0

     negative rho (up, down):  5.561E-02 0.000E+00

     total cpu time spent up to now is     5234.5 secs

     total energy              =  -11682.17949567 Ry
     estimated scf accuracy    <       4.65004530 Ry

     iteration # 17     ecut=    80.00 Ry     beta= 0.10
     Davidson diagonalization with overlap
     ethr =  2.48E-04,  avg # of iterations =  1.0

     negative rho (up, down):  5.603E-02 0.000E+00

     total cpu time spent up to now is     5517.7 secs

     total energy              =  -11682.12833782 Ry
     estimated scf accuracy    <       4.45568675 Ry

     iteration # 18     ecut=    80.00 Ry     beta= 0.10
     Davidson diagonalization with overlap
     ethr =  2.38E-04,  avg # of iterations =  1.0

     negative rho (up, down):  5.609E-02 0.000E+00

     total cpu time spent up to now is     5800.7 secs

     total energy              =  -11682.09304354 Ry
     estimated scf accuracy    <       4.29596796 Ry

     iteration # 19     ecut=    80.00 Ry     beta= 0.10
     Davidson diagonalization with overlap
     ethr =  2.29E-04,  avg # of iterations =  1.0

     negative rho (up, down):  5.621E-02 0.000E+00

     total cpu time spent up to now is     6084.1 secs

     total energy              =  -11682.16212093 Ry
     estimated scf accuracy    <       3.11475623 Ry

     iteration # 20     ecut=    80.00 Ry     beta= 0.10
     Davidson diagonalization with overlap
     ethr =  1.66E-04,  avg # of iterations =  1.0

     negative rho (up, down):  5.650E-02 0.000E+00

     total cpu time spent up to now is     6368.5 secs

     total energy              =  -11682.14447531 Ry
     estimated scf accuracy    <       2.97707933 Ry

     iteration # 21     ecut=    80.00 Ry     beta= 0.10
     Davidson diagonalization with overlap
     ethr =  1.59E-04,  avg # of iterations =  1.0

     negative rho (up, down):  5.680E-02 0.000E+00

     total cpu time spent up to now is     6652.1 secs

     total energy              =  -11682.13378773 Ry
     estimated scf accuracy    <       3.80434256 Ry

     iteration # 22     ecut=    80.00 Ry     beta= 0.10
     Davidson diagonalization with overlap
     ethr =  1.59E-04,  avg # of iterations =  1.0

     negative rho (up, down):  5.679E-02 0.000E+00

     total cpu time spent up to now is     6936.0 secs

     total energy              =  -11682.10862332 Ry
     estimated scf accuracy    <       8.65114783 Ry

     iteration # 23     ecut=    80.00 Ry     beta= 0.10
     Davidson diagonalization with overlap
     ethr =  1.59E-04,  avg # of iterations =  1.0

     negative rho (up, down):  5.708E-02 0.000E+00

     total cpu time spent up to now is     7220.1 secs

     total energy              =  -11682.15261460 Ry
     estimated scf accuracy    <       1.53701662 Ry

     iteration # 24     ecut=    80.00 Ry     beta= 0.10
     Davidson diagonalization with overlap
     ethr =  8.21E-05,  avg # of iterations =  1.0

     negative rho (up, down):  5.709E-02 0.000E+00

     total cpu time spent up to now is     7502.8 secs

     total energy              =  -11682.12569306 Ry
     estimated scf accuracy    <       3.00481980 Ry

     iteration # 25     ecut=    80.00 Ry     beta= 0.10
     Davidson diagonalization with overlap
     ethr =  8.21E-05,  avg # of iterations =  1.0

     negative rho (up, down):  5.722E-02 0.000E+00

     total cpu time spent up to now is     7786.2 secs

     total energy              =  -11682.14478287 Ry
     estimated scf accuracy    <       2.36359374 Ry

     iteration # 26     ecut=    80.00 Ry     beta= 0.10
     Davidson diagonalization with overlap
     ethr =  8.21E-05,  avg # of iterations =  1.0

     negative rho (up, down):  5.768E-02 0.000E+00

     total cpu time spent up to now is     8069.3 secs

     total energy              =  -11682.13418445 Ry
     estimated scf accuracy    <       1.66110680 Ry

     iteration # 27     ecut=    80.00 Ry     beta= 0.10
     Davidson diagonalization with overlap
     ethr =  8.21E-05,  avg # of iterations =  1.0

     negative rho (up, down):  5.821E-02 0.000E+00

     total cpu time spent up to now is     8352.7 secs

     total energy              =  -11682.10141676 Ry
     estimated scf accuracy    <       4.57931283 Ry

     iteration # 28     ecut=    80.00 Ry     beta= 0.10
     Davidson diagonalization with overlap
     ethr =  8.21E-05,  avg # of iterations =  1.0

     negative rho (up, down):  5.770E-02 0.000E+00

     total cpu time spent up to now is     8636.1 secs

     total energy              =  -11682.03622330 Ry
     estimated scf accuracy    <       6.43125438 Ry

     iteration # 29     ecut=    80.00 Ry     beta= 0.10
     Davidson diagonalization with overlap
     ethr =  8.21E-05,  avg # of iterations =  1.0

     negative rho (up, down):  5.774E-02 0.000E+00

     total cpu time spent up to now is     8919.4 secs

     total energy              =  -11682.14678959 Ry
     estimated scf accuracy    <       1.03796091 Ry

     iteration # 30     ecut=    80.00 Ry     beta= 0.10
     Davidson diagonalization with overlap
     ethr =  5.54E-05,  avg # of iterations =  1.0

     negative rho (up, down):  5.794E-02 0.000E+00

     total cpu time spent up to now is     9202.6 secs

     total energy              =  -11682.14432989 Ry
     estimated scf accuracy    <       1.59636029 Ry

     iteration # 31     ecut=    80.00 Ry     beta= 0.10
     Davidson diagonalization with overlap
     ethr =  5.54E-05,  avg # of iterations =  1.0

     negative rho (up, down):  5.845E-02 0.000E+00

     total cpu time spent up to now is     9486.9 secs

     total energy              =  -11682.14276956 Ry
     estimated scf accuracy    <       1.51008352 Ry

     iteration # 32     ecut=    80.00 Ry     beta= 0.10
     Davidson diagonalization with overlap
     ethr =  5.54E-05,  avg # of iterations =  1.0

     negative rho (up, down):  5.823E-02 0.000E+00

     total cpu time spent up to now is     9770.4 secs

     total energy              =  -11682.12736295 Ry
     estimated scf accuracy    <       1.73828716 Ry

     iteration # 33     ecut=    80.00 Ry     beta= 0.10
     Davidson diagonalization with overlap
     ethr =  5.54E-05,  avg # of iterations =  1.0

     negative rho (up, down):  5.857E-02 0.000E+00

     total cpu time spent up to now is    10053.8 secs

     total energy              =  -11682.12590788 Ry
     estimated scf accuracy    <       2.97609817 Ry

     iteration # 34     ecut=    80.00 Ry     beta= 0.10
     Davidson diagonalization with overlap
     ethr =  5.54E-05,  avg # of iterations =  1.0

     negative rho (up, down):  5.826E-02 0.000E+00

     total cpu time spent up to now is    10337.3 secs

     total energy              =  -11682.13269558 Ry
     estimated scf accuracy    <       1.81055798 Ry

     iteration # 35     ecut=    80.00 Ry     beta= 0.10
     Davidson diagonalization with overlap
     ethr =  5.54E-05,  avg # of iterations =  1.0

     negative rho (up, down):  5.856E-02 0.000E+00

     total cpu time spent up to now is    10621.8 secs

     total energy              =  -11682.13605159 Ry
     estimated scf accuracy    <       3.52852744 Ry

     iteration # 36     ecut=    80.00 Ry     beta= 0.10
     Davidson diagonalization with overlap
     ethr =  5.54E-05,  avg # of iterations =  1.0

     negative rho (up, down):  5.879E-02 0.000E+00

     total cpu time spent up to now is    10904.3 secs

     total energy              =  -11682.14745605 Ry
     estimated scf accuracy    <       0.74758475 Ry

     iteration # 37     ecut=    80.00 Ry     beta= 0.10
     Davidson diagonalization with overlap
     ethr =  3.99E-05,  avg # of iterations =  1.0

     negative rho (up, down):  5.900E-02 0.000E+00

     total cpu time spent up to now is    11188.1 secs

     total energy              =  -11682.13944600 Ry
     estimated scf accuracy    <       1.19445308 Ry

     iteration # 38     ecut=    80.00 Ry     beta= 0.10
     Davidson diagonalization with overlap
     ethr =  3.99E-05,  avg # of iterations =  1.0

     negative rho (up, down):  5.889E-02 0.000E+00

     total cpu time spent up to now is    11472.5 secs

     total energy              =  -11682.12009163 Ry
     estimated scf accuracy    <       1.86692079 Ry

     iteration # 39     ecut=    80.00 Ry     beta= 0.10
     Davidson diagonalization with overlap
     ethr =  3.99E-05,  avg # of iterations =  1.0

     negative rho (up, down):  5.884E-02 0.000E+00

     total cpu time spent up to now is    11755.6 secs

     total energy              =  -11682.14090436 Ry
     estimated scf accuracy    <       1.23431988 Ry

     iteration # 40     ecut=    80.00 Ry     beta= 0.10
     Davidson diagonalization with overlap
     ethr =  3.99E-05,  avg # of iterations =  1.0

     negative rho (up, down):  5.889E-02 0.000E+00

     total cpu time spent up to now is    12038.4 secs

     total energy              =  -11682.14845722 Ry
     estimated scf accuracy    <       0.77117988 Ry

     iteration # 41     ecut=    80.00 Ry     beta= 0.10
     Davidson diagonalization with overlap
     ethr =  3.99E-05,  avg # of iterations =  1.0

     negative rho (up, down):  5.903E-02 0.000E+00

     total cpu time spent up to now is    12321.1 secs

     total energy              =  -11682.15317892 Ry
     estimated scf accuracy    <       0.29714376 Ry

     iteration # 42     ecut=    80.00 Ry     beta= 0.10
     Davidson diagonalization with overlap
     ethr =  1.59E-05,  avg # of iterations = 20.0

     negative rho (up, down):  5.905E-02 0.000E+00

     total cpu time spent up to now is    12724.7 secs

     total energy              =  -11682.15149200 Ry
     estimated scf accuracy    <       0.56949024 Ry

     iteration # 43     ecut=    80.00 Ry     beta= 0.10
     Davidson diagonalization with overlap
     ethr =  1.59E-05,  avg # of iterations =  1.0

     negative rho (up, down):  5.913E-02 0.000E+00

     total cpu time spent up to now is    13007.8 secs

     total energy              =  -11682.15533088 Ry
     estimated scf accuracy    <       0.16222887 Ry

     iteration # 44     ecut=    80.00 Ry     beta= 0.10
     Davidson diagonalization with overlap
     ethr =  8.67E-06,  avg # of iterations =  1.0

     negative rho (up, down):  5.911E-02 0.000E+00

     total cpu time spent up to now is    13291.8 secs

     total energy              =  -11682.15226009 Ry
     estimated scf accuracy    <       0.20126175 Ry

     iteration # 45     ecut=    80.00 Ry     beta= 0.10
     Davidson diagonalization with overlap
     ethr =  8.67E-06,  avg # of iterations =  1.0

     negative rho (up, down):  5.911E-02 0.000E+00

     total cpu time spent up to now is    13574.6 secs

     total energy              =  -11682.13949874 Ry
     estimated scf accuracy    <       3.44745156 Ry

     iteration # 46     ecut=    80.00 Ry     beta= 0.10
     Davidson diagonalization with overlap
     ethr =  8.67E-06,  avg # of iterations =  1.0

     negative rho (up, down):  5.921E-02 0.000E+00

     total cpu time spent up to now is    13857.8 secs

     total energy              =  -11682.15591667 Ry
     estimated scf accuracy    <       0.07580105 Ry

     iteration # 47     ecut=    80.00 Ry     beta= 0.10
     Davidson diagonalization with overlap
     ethr =  4.05E-06,  avg # of iterations =  1.0

     negative rho (up, down):  5.927E-02 0.000E+00

     total cpu time spent up to now is    14140.9 secs

     total energy              =  -11682.15253104 Ry
     estimated scf accuracy    <       0.11049085 Ry

     iteration # 48     ecut=    80.00 Ry     beta= 0.10
     Davidson diagonalization with overlap
     ethr =  4.05E-06,  avg # of iterations =  2.0

     negative rho (up, down):  5.932E-02 0.000E+00

     total cpu time spent up to now is    14458.5 secs

     total energy              =  -11682.14074184 Ry
     estimated scf accuracy    <       1.51981276 Ry

     iteration # 49     ecut=    80.00 Ry     beta= 0.10
     Davidson diagonalization with overlap
     ethr =  4.05E-06,  avg # of iterations =  2.0

     negative rho (up, down):  5.929E-02 0.000E+00

     total cpu time spent up to now is    14775.6 secs

     total energy              =  -11682.15563624 Ry
     estimated scf accuracy    <       0.04497564 Ry

     iteration # 50     ecut=    80.00 Ry     beta= 0.10
     Davidson diagonalization with overlap
     ethr =  2.40E-06,  avg # of iterations =  1.0

     negative rho (up, down):  5.930E-02 0.000E+00

     total cpu time spent up to now is    15059.0 secs

     total energy              =  -11682.15305409 Ry
     estimated scf accuracy    <       0.40963789 Ry

     iteration # 51     ecut=    80.00 Ry     beta= 0.10
     Davidson diagonalization with overlap
     ethr =  2.40E-06,  avg # of iterations =  1.0

     negative rho (up, down):  5.939E-02 0.000E+00

     total cpu time spent up to now is    15341.7 secs

     total energy              =  -11682.15404106 Ry
     estimated scf accuracy    <       0.32798883 Ry

     iteration # 52     ecut=    80.00 Ry     beta= 0.10
     Davidson diagonalization with overlap
     ethr =  2.40E-06,  avg # of iterations =  1.0

     negative rho (up, down):  5.945E-02 0.000E+00

     total cpu time spent up to now is    15624.8 secs

     total energy              =  -11682.15602107 Ry
     estimated scf accuracy    <       0.08601072 Ry

     iteration # 53     ecut=    80.00 Ry     beta= 0.10
     Davidson diagonalization with overlap
     ethr =  2.40E-06,  avg # of iterations =  1.0

     negative rho (up, down):  5.946E-02 0.000E+00

     total cpu time spent up to now is    15908.2 secs

     total energy              =  -11682.15556983 Ry
     estimated scf accuracy    <       0.18673530 Ry

     iteration # 54     ecut=    80.00 Ry     beta= 0.10
     Davidson diagonalization with overlap
     ethr =  2.40E-06,  avg # of iterations =  1.0

     negative rho (up, down):  5.956E-02 0.000E+00

     total cpu time spent up to now is    16191.6 secs

     total energy              =  -11682.15676317 Ry
     estimated scf accuracy    <       0.06322245 Ry

     iteration # 55     ecut=    80.00 Ry     beta= 0.10
     Davidson diagonalization with overlap
     ethr =  2.40E-06,  avg # of iterations =  1.0

     negative rho (up, down):  5.942E-02 0.000E+00

     total cpu time spent up to now is    16476.7 secs

     total energy              =  -11682.15313368 Ry
     estimated scf accuracy    <       0.60828332 Ry

     iteration # 56     ecut=    80.00 Ry     beta= 0.10
     Davidson diagonalization with overlap
     ethr =  2.40E-06,  avg # of iterations =  1.0

     negative rho (up, down):  5.949E-02 0.000E+00

     total cpu time spent up to now is    16759.0 secs

     total energy              =  -11682.15677236 Ry
     estimated scf accuracy    <       0.07771800 Ry

     iteration # 57     ecut=    80.00 Ry     beta= 0.10
     Davidson diagonalization with overlap
     ethr =  2.40E-06,  avg # of iterations =  1.0

     negative rho (up, down):  5.958E-02 0.000E+00

     total cpu time spent up to now is    17042.1 secs

     total energy              =  -11682.15742029 Ry
     estimated scf accuracy    <       0.03183114 Ry

     iteration # 58     ecut=    80.00 Ry     beta= 0.10
     Davidson diagonalization with overlap
     ethr =  1.70E-06,  avg # of iterations =  1.0

     negative rho (up, down):  5.954E-02 0.000E+00

     total cpu time spent up to now is    17324.7 secs

     total energy              =  -11682.15699973 Ry
     estimated scf accuracy    <       0.03246297 Ry

     iteration # 59     ecut=    80.00 Ry     beta= 0.10
     Davidson diagonalization with overlap
     ethr =  1.70E-06,  avg # of iterations =  1.0

     negative rho (up, down):  5.956E-02 0.000E+00

     total cpu time spent up to now is    17607.4 secs

     total energy              =  -11682.15731603 Ry
     estimated scf accuracy    <       0.02269040 Ry

     iteration # 60     ecut=    80.00 Ry     beta= 0.10
     Davidson diagonalization with overlap
     ethr =  1.21E-06,  avg # of iterations =  1.0

     negative rho (up, down):  5.958E-02 0.000E+00

     total cpu time spent up to now is    17890.5 secs

     total energy              =  -11682.15723761 Ry
     estimated scf accuracy    <       0.04762357 Ry

     iteration # 61     ecut=    80.00 Ry     beta= 0.10
     Davidson diagonalization with overlap
     ethr =  1.21E-06,  avg # of iterations =  1.0

     negative rho (up, down):  5.961E-02 0.000E+00

     total cpu time spent up to now is    18173.2 secs

     total energy              =  -11682.15737079 Ry
     estimated scf accuracy    <       0.05224442 Ry

     iteration # 62     ecut=    80.00 Ry     beta= 0.10
     Davidson diagonalization with overlap
     ethr =  1.21E-06,  avg # of iterations =  1.0

     negative rho (up, down):  5.966E-02 0.000E+00

     total cpu time spent up to now is    18456.4 secs

     total energy              =  -11682.15780956 Ry
     estimated scf accuracy    <       0.01855344 Ry

     iteration # 63     ecut=    80.00 Ry     beta= 0.10
     Davidson diagonalization with overlap
     ethr =  9.91E-07,  avg # of iterations =  1.0

     negative rho (up, down):  5.965E-02 0.000E+00

     total cpu time spent up to now is    18748.2 secs

     total energy              =  -11682.15751102 Ry
     estimated scf accuracy    <       0.04403064 Ry

     iteration # 64     ecut=    80.00 Ry     beta= 0.10
     Davidson diagonalization with overlap
     ethr =  9.91E-07,  avg # of iterations =  1.0

     negative rho (up, down):  5.971E-02 0.000E+00

     total cpu time spent up to now is    19031.0 secs

     total energy              =  -11682.15791466 Ry
     estimated scf accuracy    <       0.02487444 Ry

     iteration # 65     ecut=    80.00 Ry     beta= 0.10
     Davidson diagonalization with overlap
     ethr =  9.91E-07,  avg # of iterations =  1.0

     negative rho (up, down):  5.964E-02 0.000E+00

     total cpu time spent up to now is    19313.5 secs

     total energy              =  -11682.15716420 Ry
     estimated scf accuracy    <       0.09192239 Ry

     iteration # 66     ecut=    80.00 Ry     beta= 0.10
     Davidson diagonalization with overlap
     ethr =  9.91E-07,  avg # of iterations =  1.0

     negative rho (up, down):  5.968E-02 0.000E+00

     total cpu time spent up to now is    19596.6 secs

     total energy              =  -11682.15773063 Ry
     estimated scf accuracy    <       0.04000104 Ry

     iteration # 67     ecut=    80.00 Ry     beta= 0.10
     Davidson diagonalization with overlap
     ethr =  9.91E-07,  avg # of iterations =  1.0

     negative rho (up, down):  5.973E-02 0.000E+00

     total cpu time spent up to now is    19881.2 secs

     total energy              =  -11682.15798017 Ry
     estimated scf accuracy    <       0.02448409 Ry

     iteration # 68     ecut=    80.00 Ry     beta= 0.10
     Davidson diagonalization with overlap
     ethr =  9.91E-07,  avg # of iterations =  1.0

     negative rho (up, down):  5.972E-02 0.000E+00

     total cpu time spent up to now is    20163.8 secs

     total energy              =  -11682.15792180 Ry
     estimated scf accuracy    <       0.02143495 Ry

     iteration # 69     ecut=    80.00 Ry     beta= 0.10
     Davidson diagonalization with overlap
     ethr =  9.91E-07,  avg # of iterations =  1.0

     negative rho (up, down):  5.972E-02 0.000E+00

     total cpu time spent up to now is    20446.8 secs

     total energy              =  -11682.15800244 Ry
     estimated scf accuracy    <       0.01306036 Ry

     iteration # 70     ecut=    80.00 Ry     beta= 0.10
     Davidson diagonalization with overlap
     ethr =  6.98E-07,  avg # of iterations =  1.0

     negative rho (up, down):  5.974E-02 0.000E+00

     total cpu time spent up to now is    20729.2 secs

     total energy              =  -11682.15799735 Ry
     estimated scf accuracy    <       0.02345406 Ry

     iteration # 71     ecut=    80.00 Ry     beta= 0.10
     Davidson diagonalization with overlap
     ethr =  6.98E-07,  avg # of iterations =  1.0

     negative rho (up, down):  5.975E-02 0.000E+00

     total cpu time spent up to now is    21012.9 secs

     total energy              =  -11682.15812492 Ry
     estimated scf accuracy    <       0.01643939 Ry

     iteration # 72     ecut=    80.00 Ry     beta= 0.10
     Davidson diagonalization with overlap
     ethr =  6.98E-07,  avg # of iterations =  1.0

     negative rho (up, down):  5.979E-02 0.000E+00

     total cpu time spent up to now is    21295.8 secs

     total energy              =  -11682.15828048 Ry
     estimated scf accuracy    <       0.00760873 Ry

     iteration # 73     ecut=    80.00 Ry     beta= 0.10
     Davidson diagonalization with overlap
     ethr =  4.06E-07,  avg # of iterations =  1.0

     negative rho (up, down):  5.978E-02 0.000E+00

     total cpu time spent up to now is    21579.0 secs

     total energy              =  -11682.15819705 Ry
     estimated scf accuracy    <       0.01374089 Ry

     iteration # 74     ecut=    80.00 Ry     beta= 0.10
     Davidson diagonalization with overlap
     ethr =  4.06E-07,  avg # of iterations =  1.0

     negative rho (up, down):  5.982E-02 0.000E+00

     total cpu time spent up to now is    21861.5 secs

     total energy              =  -11682.15834652 Ry
     estimated scf accuracy    <       0.00952846 Ry

     iteration # 75     ecut=    80.00 Ry     beta= 0.10
     Davidson diagonalization with overlap
     ethr =  4.06E-07,  avg # of iterations =  1.0

     negative rho (up, down):  5.977E-02 0.000E+00

     total cpu time spent up to now is    22146.9 secs

     total energy              =  -11682.15811017 Ry
     estimated scf accuracy    <       0.01296736 Ry

     iteration # 76     ecut=    80.00 Ry     beta= 0.10
     Davidson diagonalization with overlap
     ethr =  4.06E-07,  avg # of iterations =  1.0

     negative rho (up, down):  5.981E-02 0.000E+00

     total cpu time spent up to now is    22430.4 secs

     total energy              =  -11682.15810548 Ry
     estimated scf accuracy    <       0.04974199 Ry

     iteration # 77     ecut=    80.00 Ry     beta= 0.10
     Davidson diagonalization with overlap
     ethr =  4.06E-07,  avg # of iterations =  1.0

     negative rho (up, down):  5.984E-02 0.000E+00

     total cpu time spent up to now is    22713.6 secs

     total energy              =  -11682.15835049 Ry
     estimated scf accuracy    <       0.01116687 Ry

     iteration # 78     ecut=    80.00 Ry     beta= 0.10
     Davidson diagonalization with overlap
     ethr =  4.06E-07,  avg # of iterations =  1.0

     negative rho (up, down):  5.984E-02 0.000E+00

     total cpu time spent up to now is    22997.2 secs

     total energy              =  -11682.15837956 Ry
     estimated scf accuracy    <       0.00857167 Ry

     iteration # 79     ecut=    80.00 Ry     beta= 0.10
     Davidson diagonalization with overlap
     ethr =  4.06E-07,  avg # of iterations =  1.0

     negative rho (up, down):  5.985E-02 0.000E+00

     total cpu time spent up to now is    23280.6 secs

     total energy              =  -11682.15838320 Ry
     estimated scf accuracy    <       0.00779396 Ry

     iteration # 80     ecut=    80.00 Ry     beta= 0.10
     Davidson diagonalization with overlap
     ethr =  4.06E-07,  avg # of iterations =  1.0

     negative rho (up, down):  5.985E-02 0.000E+00

     total cpu time spent up to now is    23563.6 secs

     total energy              =  -11682.15838574 Ry
     estimated scf accuracy    <       0.00920843 Ry

     iteration # 81     ecut=    80.00 Ry     beta= 0.10
     Davidson diagonalization with overlap
     ethr =  4.06E-07,  avg # of iterations =  1.0

     negative rho (up, down):  5.986E-02 0.000E+00

     total cpu time spent up to now is    23846.0 secs

     total energy              =  -11682.15842207 Ry
     estimated scf accuracy    <       0.00916864 Ry

     iteration # 82     ecut=    80.00 Ry     beta= 0.10
     Davidson diagonalization with overlap
     ethr =  4.06E-07,  avg # of iterations =  1.0

     negative rho (up, down):  5.988E-02 0.000E+00

     total cpu time spent up to now is    24128.9 secs

     total energy              =  -11682.15850696 Ry
     estimated scf accuracy    <       0.00329634 Ry

     iteration # 83     ecut=    80.00 Ry     beta= 0.10
     Davidson diagonalization with overlap
     ethr =  1.76E-07,  avg # of iterations =  1.0

     negative rho (up, down):  5.987E-02 0.000E+00

     total cpu time spent up to now is    24411.5 secs

     total energy              =  -11682.15848143 Ry
     estimated scf accuracy    <       0.00445995 Ry

     iteration # 84     ecut=    80.00 Ry     beta= 0.10
     Davidson diagonalization with overlap
     ethr =  1.76E-07,  avg # of iterations =  1.0

     negative rho (up, down):  5.989E-02 0.000E+00

     total cpu time spent up to now is    24694.3 secs

     total energy              =  -11682.15853562 Ry
     estimated scf accuracy    <       0.00401824 Ry

     iteration # 85     ecut=    80.00 Ry     beta= 0.10
     Davidson diagonalization with overlap
     ethr =  1.76E-07,  avg # of iterations =  1.0

     negative rho (up, down):  5.989E-02 0.000E+00

     total cpu time spent up to now is    24979.4 secs

     total energy              =  -11682.15851960 Ry
     estimated scf accuracy    <       0.00218641 Ry

     iteration # 86     ecut=    80.00 Ry     beta= 0.10
     Davidson diagonalization with overlap
     ethr =  1.17E-07,  avg # of iterations =  2.0

     negative rho (up, down):  5.990E-02 0.000E+00

     total cpu time spent up to now is    25296.4 secs

     total energy              =  -11682.15840660 Ry
     estimated scf accuracy    <       0.02730948 Ry

     iteration # 87     ecut=    80.00 Ry     beta= 0.10
     Davidson diagonalization with overlap
     ethr =  1.17E-07,  avg # of iterations =  1.0

     negative rho (up, down):  5.991E-02 0.000E+00

     total cpu time spent up to now is    25579.1 secs

     total energy              =  -11682.15856743 Ry
     estimated scf accuracy    <       0.00346603 Ry

     iteration # 88     ecut=    80.00 Ry     beta= 0.10
     Davidson diagonalization with overlap
     ethr =  1.17E-07,  avg # of iterations =  1.0

     negative rho (up, down):  5.992E-02 0.000E+00

     total cpu time spent up to now is    25862.5 secs

     total energy              =  -11682.15857992 Ry
     estimated scf accuracy    <       0.00320767 Ry

     iteration # 89     ecut=    80.00 Ry     beta= 0.10
     Davidson diagonalization with overlap
     ethr =  1.17E-07,  avg # of iterations =  1.0

     negative rho (up, down):  5.992E-02 0.000E+00

     total cpu time spent up to now is    26155.5 secs

     total energy              =  -11682.15857427 Ry
     estimated scf accuracy    <       0.00360416 Ry

     iteration # 90     ecut=    80.00 Ry     beta= 0.10
     Davidson diagonalization with overlap
     ethr =  1.17E-07,  avg # of iterations =  1.0

     negative rho (up, down):  5.993E-02 0.000E+00

     total cpu time spent up to now is    26438.2 secs

     total energy              =  -11682.15857339 Ry
     estimated scf accuracy    <       0.00519500 Ry

     iteration # 91     ecut=    80.00 Ry     beta= 0.10
     Davidson diagonalization with overlap
     ethr =  1.17E-07,  avg # of iterations =  1.0

     negative rho (up, down):  5.993E-02 0.000E+00

     total cpu time spent up to now is    26721.0 secs

     total energy              =  -11682.15858079 Ry
     estimated scf accuracy    <       0.00505901 Ry

     iteration # 92     ecut=    80.00 Ry     beta= 0.10
     Davidson diagonalization with overlap
     ethr =  1.17E-07,  avg # of iterations =  1.0

     negative rho (up, down):  5.994E-02 0.000E+00

     total cpu time spent up to now is    27007.1 secs

     total energy              =  -11682.15862223 Ry
     estimated scf accuracy    <       0.00204840 Ry

     iteration # 93     ecut=    80.00 Ry     beta= 0.10
     Davidson diagonalization with overlap
     ethr =  1.09E-07,  avg # of iterations =  1.0

     negative rho (up, down):  5.994E-02 0.000E+00

     total cpu time spent up to now is    27289.1 secs

     total energy              =  -11682.15861376 Ry
     estimated scf accuracy    <       0.00211129 Ry

     iteration # 94     ecut=    80.00 Ry     beta= 0.10
     Davidson diagonalization with overlap
     ethr =  1.09E-07,  avg # of iterations =  1.0

     negative rho (up, down):  5.995E-02 0.000E+00

     total cpu time spent up to now is    27572.9 secs

     total energy              =  -11682.15863716 Ry
     estimated scf accuracy    <       0.00223160 Ry

     iteration # 95     ecut=    80.00 Ry     beta= 0.10
     Davidson diagonalization with overlap
     ethr =  1.09E-07,  avg # of iterations =  1.0

     negative rho (up, down):  5.997E-02 0.000E+00

     total cpu time spent up to now is    27856.6 secs

     total energy              =  -11682.15866488 Ry
     estimated scf accuracy    <       0.00094058 Ry

     iteration # 96     ecut=    80.00 Ry     beta= 0.10
     Davidson diagonalization with overlap
     ethr =  5.02E-08,  avg # of iterations =  1.0

     negative rho (up, down):  5.996E-02 0.000E+00

     total cpu time spent up to now is    28138.6 secs

     total energy              =  -11682.15859483 Ry
     estimated scf accuracy    <       0.00974362 Ry

     iteration # 97     ecut=    80.00 Ry     beta= 0.10
     Davidson diagonalization with overlap
     ethr =  5.02E-08,  avg # of iterations =  1.0

     negative rho (up, down):  5.997E-02 0.000E+00

     total cpu time spent up to now is    28421.5 secs

     total energy              =  -11682.15865758 Ry
     estimated scf accuracy    <       0.00200369 Ry

     iteration # 98     ecut=    80.00 Ry     beta= 0.10
     Davidson diagonalization with overlap
     ethr =  5.02E-08,  avg # of iterations =  1.0

     negative rho (up, down):  5.998E-02 0.000E+00

     total cpu time spent up to now is    28704.2 secs

     total energy              =  -11682.15867305 Ry
     estimated scf accuracy    <       0.00110080 Ry

     iteration # 99     ecut=    80.00 Ry     beta= 0.10
     Davidson diagonalization with overlap
     ethr =  5.02E-08,  avg # of iterations =  1.0

     negative rho (up, down):  5.998E-02 0.000E+00

     total cpu time spent up to now is    28986.8 secs

     total energy              =  -11682.15866831 Ry
     estimated scf accuracy    <       0.00184946 Ry

     iteration #100     ecut=    80.00 Ry     beta= 0.10
     Davidson diagonalization with overlap
     ethr =  5.02E-08,  avg # of iterations =  1.0

     negative rho (up, down):  5.998E-02 0.000E+00

     total cpu time spent up to now is    29270.8 secs

     total energy              =  -11682.15867302 Ry
     estimated scf accuracy    <       0.00226980 Ry

     iteration #101     ecut=    80.00 Ry     beta= 0.10
     Davidson diagonalization with overlap
     ethr =  5.02E-08,  avg # of iterations =  1.0

     negative rho (up, down):  5.999E-02 0.000E+00

     total cpu time spent up to now is    29554.1 secs

     total energy              =  -11682.15867176 Ry
     estimated scf accuracy    <       0.00235382 Ry

     iteration #102     ecut=    80.00 Ry     beta= 0.10
     Davidson diagonalization with overlap
     ethr =  5.02E-08,  avg # of iterations =  1.0

     negative rho (up, down):  5.999E-02 0.000E+00

     total cpu time spent up to now is    29836.8 secs

     total energy              =  -11682.15868659 Ry
     estimated scf accuracy    <       0.00142096 Ry

     iteration #103     ecut=    80.00 Ry     beta= 0.10
     Davidson diagonalization with overlap
     ethr =  5.02E-08,  avg # of iterations =  1.0

     negative rho (up, down):  5.999E-02 0.000E+00

     total cpu time spent up to now is    30119.6 secs

     total energy              =  -11682.15868688 Ry
     estimated scf accuracy    <       0.00123142 Ry

     iteration #104     ecut=    80.00 Ry     beta= 0.10
     Davidson diagonalization with overlap
     ethr =  5.02E-08,  avg # of iterations =  1.0

     negative rho (up, down):  6.000E-02 0.000E+00

     total cpu time spent up to now is    30404.9 secs

     total energy              =  -11682.15869264 Ry
     estimated scf accuracy    <       0.00173856 Ry

     iteration #105     ecut=    80.00 Ry     beta= 0.10
     Davidson diagonalization with overlap
     ethr =  5.02E-08,  avg # of iterations =  1.0

     negative rho (up, down):  6.002E-02 0.000E+00

     total cpu time spent up to now is    30687.4 secs

     total energy              =  -11682.15872290 Ry
     estimated scf accuracy    <       0.00057415 Ry

     iteration #106     ecut=    80.00 Ry     beta= 0.10
     Davidson diagonalization with overlap
     ethr =  3.07E-08,  avg # of iterations =  1.0

     negative rho (up, down):  6.000E-02 0.000E+00

     total cpu time spent up to now is    30970.3 secs

     total energy              =  -11682.15868590 Ry
     estimated scf accuracy    <       0.00267504 Ry

     iteration #107     ecut=    80.00 Ry     beta= 0.10
     Davidson diagonalization with overlap
     ethr =  3.07E-08,  avg # of iterations =  1.0

     negative rho (up, down):  6.001E-02 0.000E+00

     total cpu time spent up to now is    31253.9 secs

     total energy              =  -11682.15870553 Ry
     estimated scf accuracy    <       0.00165402 Ry

     iteration #108     ecut=    80.00 Ry     beta= 0.10
     Davidson diagonalization with overlap
     ethr =  3.07E-08,  avg # of iterations =  1.0

     negative rho (up, down):  6.002E-02 0.000E+00

     total cpu time spent up to now is    31537.4 secs

     total energy              =  -11682.15871878 Ry
     estimated scf accuracy    <       0.00065143 Ry

     iteration #109     ecut=    80.00 Ry     beta= 0.10
     Davidson diagonalization with overlap
     ethr =  3.07E-08,  avg # of iterations =  1.0

     negative rho (up, down):  6.002E-02 0.000E+00

     total cpu time spent up to now is    31820.6 secs

     total energy              =  -11682.15871814 Ry
     estimated scf accuracy    <       0.00086208 Ry

     iteration #110     ecut=    80.00 Ry     beta= 0.10
     Davidson diagonalization with overlap
     ethr =  3.07E-08,  avg # of iterations =  1.0

     negative rho (up, down):  6.003E-02 0.000E+00

     total cpu time spent up to now is    32103.1 secs

     total energy              =  -11682.15872356 Ry
     estimated scf accuracy    <       0.00105858 Ry

     iteration #111     ecut=    80.00 Ry     beta= 0.10
     Davidson diagonalization with overlap
     ethr =  3.07E-08,  avg # of iterations =  1.0

     negative rho (up, down):  6.003E-02 0.000E+00

     total cpu time spent up to now is    32385.7 secs

     total energy              =  -11682.15872321 Ry
     estimated scf accuracy    <       0.00110585 Ry

     iteration #112     ecut=    80.00 Ry     beta= 0.10
     Davidson diagonalization with overlap
     ethr =  3.07E-08,  avg # of iterations =  1.0

     negative rho (up, down):  6.003E-02 0.000E+00

     total cpu time spent up to now is    32668.3 secs

     total energy              =  -11682.15872722 Ry
     estimated scf accuracy    <       0.00075952 Ry

     iteration #113     ecut=    80.00 Ry     beta= 0.10
     Davidson diagonalization with overlap
     ethr =  3.07E-08,  avg # of iterations =  1.0

     negative rho (up, down):  6.004E-02 0.000E+00

     total cpu time spent up to now is    32951.1 secs

     total energy              =  -11682.15873015 Ry
     estimated scf accuracy    <       0.00067413 Ry

     iteration #114     ecut=    80.00 Ry     beta= 0.10
     Davidson diagonalization with overlap
     ethr =  3.07E-08,  avg # of iterations =  1.0

     negative rho (up, down):  6.004E-02 0.000E+00

     total cpu time spent up to now is    33233.5 secs

     total energy              =  -11682.15872803 Ry
     estimated scf accuracy    <       0.00116635 Ry

     iteration #115     ecut=    80.00 Ry     beta= 0.10
     Davidson diagonalization with overlap
     ethr =  3.07E-08,  avg # of iterations =  1.0

     negative rho (up, down):  6.005E-02 0.000E+00

     total cpu time spent up to now is    33515.9 secs

     total energy              =  -11682.15874716 Ry
     estimated scf accuracy    <       0.00040171 Ry

     iteration #116     ecut=    80.00 Ry     beta= 0.10
     Davidson diagonalization with overlap
     ethr =  2.15E-08,  avg # of iterations =  1.0

     negative rho (up, down):  6.004E-02 0.000E+00

     total cpu time spent up to now is    33798.9 secs

     total energy              =  -11682.15873037 Ry
     estimated scf accuracy    <       0.00084809 Ry

     iteration #117     ecut=    80.00 Ry     beta= 0.10
     Davidson diagonalization with overlap
     ethr =  2.15E-08,  avg # of iterations =  1.0

     negative rho (up, down):  6.004E-02 0.000E+00

     total cpu time spent up to now is    34082.3 secs

     total energy              =  -11682.15873217 Ry
     estimated scf accuracy    <       0.00181841 Ry

     iteration #118     ecut=    80.00 Ry     beta= 0.10
     Davidson diagonalization with overlap
     ethr =  2.15E-08,  avg # of iterations =  1.0

     negative rho (up, down):  6.005E-02 0.000E+00

     total cpu time spent up to now is    34365.6 secs

     total energy              =  -11682.15874392 Ry
     estimated scf accuracy    <       0.00047776 Ry

     iteration #119     ecut=    80.00 Ry     beta= 0.10
     Davidson diagonalization with overlap
     ethr =  2.15E-08,  avg # of iterations =  1.0

     negative rho (up, down):  6.005E-02 0.000E+00

     total cpu time spent up to now is    34647.6 secs

     total energy              =  -11682.15874566 Ry
     estimated scf accuracy    <       0.00034614 Ry

     iteration #120     ecut=    80.00 Ry     beta= 0.10
     Davidson diagonalization with overlap
     ethr =  1.85E-08,  avg # of iterations =  1.0

     negative rho (up, down):  6.006E-02 0.000E+00

     total cpu time spent up to now is    34931.6 secs

     total energy              =  -11682.15874873 Ry
     estimated scf accuracy    <       0.00056329 Ry

     iteration #121     ecut=    80.00 Ry     beta= 0.10
     Davidson diagonalization with overlap
     ethr =  1.85E-08,  avg # of iterations =  1.0

     negative rho (up, down):  6.006E-02 0.000E+00

     total cpu time spent up to now is    35214.3 secs

     total energy              =  -11682.15874997 Ry
     estimated scf accuracy    <       0.00041147 Ry

     iteration #122     ecut=    80.00 Ry     beta= 0.10
     Davidson diagonalization with overlap
     ethr =  1.85E-08,  avg # of iterations =  1.0

     negative rho (up, down):  6.006E-02 0.000E+00

     total cpu time spent up to now is    35497.3 secs

     total energy              =  -11682.15875080 Ry
     estimated scf accuracy    <       0.00034731 Ry

     iteration #123     ecut=    80.00 Ry     beta= 0.10
     Davidson diagonalization with overlap
     ethr =  1.85E-08,  avg # of iterations =  1.0

     negative rho (up, down):  6.007E-02 0.000E+00

     total cpu time spent up to now is    35780.3 secs

     total energy              =  -11682.15875365 Ry
     estimated scf accuracy    <       0.00032806 Ry

     iteration #124     ecut=    80.00 Ry     beta= 0.10
     Davidson diagonalization with overlap
     ethr =  1.75E-08,  avg # of iterations =  1.0

     negative rho (up, down):  6.007E-02 0.000E+00

     total cpu time spent up to now is    36063.1 secs

     total energy              =  -11682.15874996 Ry
     estimated scf accuracy    <       0.00065403 Ry

     iteration #125     ecut=    80.00 Ry     beta= 0.10
     Davidson diagonalization with overlap
     ethr =  1.75E-08,  avg # of iterations =  1.0

     negative rho (up, down):  6.008E-02 0.000E+00

     total cpu time spent up to now is    36346.5 secs

     total energy              =  -11682.15875977 Ry
     estimated scf accuracy    <       0.00024449 Ry

     iteration #126     ecut=    80.00 Ry     beta= 0.10
     Davidson diagonalization with overlap
     ethr =  1.31E-08,  avg # of iterations =  1.0

     negative rho (up, down):  6.008E-02 0.000E+00

     total cpu time spent up to now is    36629.2 secs

     total energy              =  -11682.15875634 Ry
     estimated scf accuracy    <       0.00022337 Ry

     iteration #127     ecut=    80.00 Ry     beta= 0.10
     Davidson diagonalization with overlap
     ethr =  1.19E-08,  avg # of iterations =  1.0

     negative rho (up, down):  6.007E-02 0.000E+00

     total cpu time spent up to now is    36912.0 secs

     total energy              =  -11682.15874558 Ry
     estimated scf accuracy    <       0.00233051 Ry

     iteration #128     ecut=    80.00 Ry     beta= 0.10
     Davidson diagonalization with overlap
     ethr =  1.19E-08,  avg # of iterations =  1.0

     negative rho (up, down):  6.008E-02 0.000E+00

     total cpu time spent up to now is    37195.5 secs

     total energy              =  -11682.15875682 Ry
     estimated scf accuracy    <       0.00047125 Ry

     iteration #129     ecut=    80.00 Ry     beta= 0.10
     Davidson diagonalization with overlap
     ethr =  1.19E-08,  avg # of iterations =  1.0

     negative rho (up, down):  6.008E-02 0.000E+00

     total cpu time spent up to now is    37477.8 secs

     total energy              =  -11682.15876084 Ry
     estimated scf accuracy    <       0.00012730 Ry

     iteration #130     ecut=    80.00 Ry     beta= 0.10
     Davidson diagonalization with overlap
     ethr =  6.80E-09,  avg # of iterations =  1.0

     negative rho (up, down):  6.008E-02 0.000E+00

     total cpu time spent up to now is    37761.3 secs

     total energy              =  -11682.15876158 Ry
     estimated scf accuracy    <       0.00028539 Ry

     iteration #131     ecut=    80.00 Ry     beta= 0.10
     Davidson diagonalization with overlap
     ethr =  6.80E-09,  avg # of iterations =  1.0

     negative rho (up, down):  6.009E-02 0.000E+00

     total cpu time spent up to now is    38043.7 secs

     total energy              =  -11682.15876312 Ry
     estimated scf accuracy    <       0.00017091 Ry

     iteration #132     ecut=    80.00 Ry     beta= 0.10
     Davidson diagonalization with overlap
     ethr =  6.80E-09,  avg # of iterations =  1.0

     negative rho (up, down):  6.009E-02 0.000E+00

     total cpu time spent up to now is    38326.2 secs

     total energy              =  -11682.15876304 Ry
     estimated scf accuracy    <       0.00014466 Ry

     iteration #133     ecut=    80.00 Ry     beta= 0.10
     Davidson diagonalization with overlap
     ethr =  6.80E-09,  avg # of iterations =  1.0

     negative rho (up, down):  6.009E-02 0.000E+00

     total cpu time spent up to now is    38609.4 secs

     total energy              =  -11682.15876508 Ry
     estimated scf accuracy    <       0.00014561 Ry

     iteration #134     ecut=    80.00 Ry     beta= 0.10
     Davidson diagonalization with overlap
     ethr =  6.80E-09,  avg # of iterations =  1.0

     negative rho (up, down):  6.009E-02 0.000E+00

     total cpu time spent up to now is    38892.8 secs

     total energy              =  -11682.15876302 Ry
     estimated scf accuracy    <       0.00023277 Ry

     iteration #135     ecut=    80.00 Ry     beta= 0.10
     Davidson diagonalization with overlap
     ethr =  6.80E-09,  avg # of iterations =  1.0

     negative rho (up, down):  6.009E-02 0.000E+00

     total cpu time spent up to now is    39176.8 secs

     total energy              =  -11682.15876690 Ry
     estimated scf accuracy    <       0.00012190 Ry

     iteration #136     ecut=    80.00 Ry     beta= 0.10
     Davidson diagonalization with overlap
     ethr =  6.51E-09,  avg # of iterations =  1.0

     negative rho (up, down):  6.010E-02 0.000E+00

     total cpu time spent up to now is    39460.6 secs

     total energy              =  -11682.15876865 Ry
     estimated scf accuracy    <       0.00007130 Ry

     iteration #137     ecut=    80.00 Ry     beta= 0.10
     Davidson diagonalization with overlap
     ethr =  3.81E-09,  avg # of iterations =  1.0

     negative rho (up, down):  6.010E-02 0.000E+00

     total cpu time spent up to now is    39743.7 secs

     total energy              =  -11682.15876279 Ry
     estimated scf accuracy    <       0.00076275 Ry

     iteration #138     ecut=    80.00 Ry     beta= 0.10
     Davidson diagonalization with overlap
     ethr =  3.81E-09,  avg # of iterations =  1.0

     negative rho (up, down):  6.010E-02 0.000E+00

     total cpu time spent up to now is    40027.6 secs

     total energy              =  -11682.15876544 Ry
     estimated scf accuracy    <       0.00029020 Ry

     iteration #139     ecut=    80.00 Ry     beta= 0.10
     Davidson diagonalization with overlap
     ethr =  3.81E-09,  avg # of iterations =  1.0

     negative rho (up, down):  6.010E-02 0.000E+00

     total cpu time spent up to now is    40312.0 secs

     total energy              =  -11682.15876811 Ry
     estimated scf accuracy    <       0.00009953 Ry

     iteration #140     ecut=    80.00 Ry     beta= 0.10
     Davidson diagonalization with overlap
     ethr =  3.81E-09,  avg # of iterations =  1.0

     negative rho (up, down):  6.010E-02 0.000E+00

     total cpu time spent up to now is    40594.6 secs

     total energy              =  -11682.15876844 Ry
     estimated scf accuracy    <       0.00014934 Ry

     iteration #141     ecut=    80.00 Ry     beta= 0.10
     Davidson diagonalization with overlap
     ethr =  3.81E-09,  avg # of iterations =  1.0

     negative rho (up, down):  6.010E-02 0.000E+00

     total cpu time spent up to now is    40878.1 secs

     total energy              =  -11682.15876938 Ry
     estimated scf accuracy    <       0.00009858 Ry

     iteration #142     ecut=    80.00 Ry     beta= 0.10
     Davidson diagonalization with overlap
     ethr =  3.81E-09,  avg # of iterations =  1.0

     negative rho (up, down):  6.010E-02 0.000E+00

     total cpu time spent up to now is    41161.0 secs

     total energy              =  -11682.15876914 Ry
     estimated scf accuracy    <       0.00007880 Ry

     iteration #143     ecut=    80.00 Ry     beta= 0.10
     Davidson diagonalization with overlap
     ethr =  3.81E-09,  avg # of iterations =  1.0

     negative rho (up, down):  6.011E-02 0.000E+00

     total cpu time spent up to now is    41443.9 secs

     total energy              =  -11682.15877042 Ry
     estimated scf accuracy    <       0.00008653 Ry

     iteration #144     ecut=    80.00 Ry     beta= 0.10
     Davidson diagonalization with overlap
     ethr =  3.81E-09,  avg # of iterations =  1.0

     negative rho (up, down):  6.010E-02 0.000E+00

     total cpu time spent up to now is    41728.2 secs

     total energy              =  -11682.15876950 Ry
     estimated scf accuracy    <       0.00009029 Ry

     iteration #145     ecut=    80.00 Ry     beta= 0.10
     Davidson diagonalization with overlap
     ethr =  3.81E-09,  avg # of iterations =  1.0

     negative rho (up, down):  6.011E-02 0.000E+00

     total cpu time spent up to now is    42011.2 secs

     total energy              =  -11682.15877092 Ry
     estimated scf accuracy    <       0.00007260 Ry

     iteration #146     ecut=    80.00 Ry     beta= 0.10
     Davidson diagonalization with overlap
     ethr =  3.81E-09,  avg # of iterations =  1.0

     negative rho (up, down):  6.011E-02 0.000E+00

     total cpu time spent up to now is    42295.1 secs

     total energy              =  -11682.15877257 Ry
     estimated scf accuracy    <       0.00002622 Ry

     iteration #147     ecut=    80.00 Ry     beta= 0.10
     Davidson diagonalization with overlap
     ethr =  1.40E-09,  avg # of iterations =  1.0

     negative rho (up, down):  6.011E-02 0.000E+00

     total cpu time spent up to now is    42579.0 secs

     total energy              =  -11682.15877058 Ry
     estimated scf accuracy    <       0.00019270 Ry

     iteration #148     ecut=    80.00 Ry     beta= 0.10
     Davidson diagonalization with overlap
     ethr =  1.40E-09,  avg # of iterations =  1.0

     negative rho (up, down):  6.011E-02 0.000E+00

     total cpu time spent up to now is    42861.3 secs

     total energy              =  -11682.15877051 Ry
     estimated scf accuracy    <       0.00015095 Ry

     iteration #149     ecut=    80.00 Ry     beta= 0.10
     Davidson diagonalization with overlap
     ethr =  1.40E-09,  avg # of iterations =  1.0

     negative rho (up, down):  6.011E-02 0.000E+00

     total cpu time spent up to now is    43143.7 secs

     total energy              =  -11682.15877189 Ry
     estimated scf accuracy    <       0.00007622 Ry

     iteration #150     ecut=    80.00 Ry     beta= 0.10
     Davidson diagonalization with overlap
     ethr =  1.40E-09,  avg # of iterations =  1.0

     negative rho (up, down):  6.011E-02 0.000E+00

     total cpu time spent up to now is    43426.5 secs

     total energy              =  -11682.15877213 Ry
     estimated scf accuracy    <       0.00007014 Ry

     iteration #151     ecut=    80.00 Ry     beta= 0.10
     Davidson diagonalization with overlap
     ethr =  1.40E-09,  avg # of iterations =  1.0

     negative rho (up, down):  6.012E-02 0.000E+00

     total cpu time spent up to now is    43709.0 secs

     total energy              =  -11682.15877261 Ry
     estimated scf accuracy    <       0.00006171 Ry

     iteration #152     ecut=    80.00 Ry     beta= 0.10
     Davidson diagonalization with overlap
     ethr =  1.40E-09,  avg # of iterations =  1.0

     negative rho (up, down):  6.011E-02 0.000E+00

     total cpu time spent up to now is    43992.1 secs

     total energy              =  -11682.15877242 Ry
     estimated scf accuracy    <       0.00004430 Ry

     iteration #153     ecut=    80.00 Ry     beta= 0.10
     Davidson diagonalization with overlap
     ethr =  1.40E-09,  avg # of iterations =  1.0

     negative rho (up, down):  6.012E-02 0.000E+00

     total cpu time spent up to now is    44274.4 secs

     total energy              =  -11682.15877308 Ry
     estimated scf accuracy    <       0.00005819 Ry

     iteration #154     ecut=    80.00 Ry     beta= 0.10
     Davidson diagonalization with overlap
     ethr =  1.40E-09,  avg # of iterations =  1.0

     negative rho (up, down):  6.012E-02 0.000E+00

     total cpu time spent up to now is    44557.8 secs

     total energy              =  -11682.15877286 Ry
     estimated scf accuracy    <       0.00004214 Ry

     iteration #155     ecut=    80.00 Ry     beta= 0.10
     Davidson diagonalization with overlap
     ethr =  1.40E-09,  avg # of iterations =  1.0

     negative rho (up, down):  6.012E-02 0.000E+00

     total cpu time spent up to now is    44840.7 secs

     total energy              =  -11682.15877310 Ry
     estimated scf accuracy    <       0.00005467 Ry

     iteration #156     ecut=    80.00 Ry     beta= 0.10
     Davidson diagonalization with overlap
     ethr =  1.40E-09,  avg # of iterations =  1.0

     negative rho (up, down):  6.012E-02 0.000E+00

     total cpu time spent up to now is    45123.6 secs

     total energy              =  -11682.15877412 Ry
     estimated scf accuracy    <       0.00001245 Ry

     iteration #157     ecut=    80.00 Ry     beta= 0.10
     Davidson diagonalization with overlap
     ethr =  6.65E-10,  avg # of iterations =  1.0

     negative rho (up, down):  6.012E-02 0.000E+00

     total cpu time spent up to now is    45406.6 secs

     total energy              =  -11682.15877366 Ry
     estimated scf accuracy    <       0.00004443 Ry

     iteration #158     ecut=    80.00 Ry     beta= 0.10
     Davidson diagonalization with overlap
     ethr =  6.65E-10,  avg # of iterations =  1.0

     negative rho (up, down):  6.012E-02 0.000E+00

     total cpu time spent up to now is    45689.0 secs

     total energy              =  -11682.15877339 Ry
     estimated scf accuracy    <       0.00006389 Ry

     iteration #159     ecut=    80.00 Ry     beta= 0.10
     Davidson diagonalization with overlap
     ethr =  6.65E-10,  avg # of iterations =  1.0

     negative rho (up, down):  6.012E-02 0.000E+00

     total cpu time spent up to now is    45972.1 secs

     total energy              =  -11682.15877390 Ry
     estimated scf accuracy    <       0.00004807 Ry

     iteration #160     ecut=    80.00 Ry     beta= 0.10
     Davidson diagonalization with overlap
     ethr =  6.65E-10,  avg # of iterations =  1.0

     negative rho (up, down):  6.012E-02 0.000E+00

     total cpu time spent up to now is    46254.4 secs

     total energy              =  -11682.15877412 Ry
     estimated scf accuracy    <       0.00002499 Ry

     iteration #161     ecut=    80.00 Ry     beta= 0.10
     Davidson diagonalization with overlap
     ethr =  6.65E-10,  avg # of iterations =  1.0

     negative rho (up, down):  6.012E-02 0.000E+00

     total cpu time spent up to now is    46537.0 secs

     total energy              =  -11682.15877430 Ry
     estimated scf accuracy    <       0.00003448 Ry

     iteration #162     ecut=    80.00 Ry     beta= 0.10
     Davidson diagonalization with overlap
     ethr =  6.65E-10,  avg # of iterations =  1.0

     negative rho (up, down):  6.012E-02 0.000E+00

     total cpu time spent up to now is    46819.8 secs

     total energy              =  -11682.15877427 Ry
     estimated scf accuracy    <       0.00002054 Ry

     iteration #163     ecut=    80.00 Ry     beta= 0.10
     Davidson diagonalization with overlap
     ethr =  6.65E-10,  avg # of iterations =  1.0

     negative rho (up, down):  6.013E-02 0.000E+00

     total cpu time spent up to now is    47102.6 secs

     total energy              =  -11682.15877450 Ry
     estimated scf accuracy    <       0.00003674 Ry

     iteration #164     ecut=    80.00 Ry     beta= 0.10
     Davidson diagonalization with overlap
     ethr =  6.65E-10,  avg # of iterations =  1.0

     negative rho (up, down):  6.013E-02 0.000E+00

     total cpu time spent up to now is    47386.0 secs

     total energy              =  -11682.15877461 Ry
     estimated scf accuracy    <       0.00002321 Ry

     iteration #165     ecut=    80.00 Ry     beta= 0.10
     Davidson diagonalization with overlap
     ethr =  6.65E-10,  avg # of iterations =  1.0

     negative rho (up, down):  6.012E-02 0.000E+00

     total cpu time spent up to now is    47668.2 secs

     total energy              =  -11682.15877435 Ry
     estimated scf accuracy    <       0.00003645 Ry

     iteration #166     ecut=    80.00 Ry     beta= 0.10
     Davidson diagonalization with overlap
     ethr =  6.65E-10,  avg # of iterations =  1.0

     negative rho (up, down):  6.013E-02 0.000E+00

     total cpu time spent up to now is    47950.6 secs

     total energy              =  -11682.15877498 Ry
     estimated scf accuracy    <       0.00000819 Ry

     iteration #167     ecut=    80.00 Ry     beta= 0.10
     Davidson diagonalization with overlap
     ethr =  4.38E-10,  avg # of iterations =  1.0

     negative rho (up, down):  6.013E-02 0.000E+00

     total cpu time spent up to now is    48234.4 secs

     total energy              =  -11682.15877492 Ry
     estimated scf accuracy    <       0.00001507 Ry

     iteration #168     ecut=    80.00 Ry     beta= 0.10
     Davidson diagonalization with overlap
     ethr =  4.38E-10,  avg # of iterations =  1.0

     negative rho (up, down):  6.013E-02 0.000E+00

     total cpu time spent up to now is    48518.1 secs

     total energy              =  -11682.15877482 Ry
     estimated scf accuracy    <       0.00002610 Ry

     iteration #169     ecut=    80.00 Ry     beta= 0.10
     Davidson diagonalization with overlap
     ethr =  4.38E-10,  avg # of iterations =  1.0

     negative rho (up, down):  6.013E-02 0.000E+00

     total cpu time spent up to now is    48801.3 secs

     total energy              =  -11682.15877495 Ry
     estimated scf accuracy    <       0.00002322 Ry

     iteration #170     ecut=    80.00 Ry     beta= 0.10
     Davidson diagonalization with overlap
     ethr =  4.38E-10,  avg # of iterations =  1.0

     negative rho (up, down):  6.013E-02 0.000E+00

     total cpu time spent up to now is    49084.0 secs

     total energy              =  -11682.15877509 Ry
     estimated scf accuracy    <       0.00001011 Ry

     iteration #171     ecut=    80.00 Ry     beta= 0.10
     Davidson diagonalization with overlap
     ethr =  4.38E-10,  avg # of iterations =  1.0

     negative rho (up, down):  6.013E-02 0.000E+00

     total cpu time spent up to now is    49367.0 secs

     total energy              =  -11682.15877517 Ry
     estimated scf accuracy    <       0.00001653 Ry

     iteration #172     ecut=    80.00 Ry     beta= 0.10
     Davidson diagonalization with overlap
     ethr =  4.38E-10,  avg # of iterations =  1.0

     negative rho (up, down):  6.013E-02 0.000E+00

     total cpu time spent up to now is    49649.2 secs

     total energy              =  -11682.15877523 Ry
     estimated scf accuracy    <       0.00000820 Ry

     iteration #173     ecut=    80.00 Ry     beta= 0.10
     Davidson diagonalization with overlap
     ethr =  4.38E-10,  avg # of iterations =  1.0

     negative rho (up, down):  6.013E-02 0.000E+00

     total cpu time spent up to now is    49932.0 secs

     total energy              =  -11682.15877526 Ry
     estimated scf accuracy    <       0.00001868 Ry

     iteration #174     ecut=    80.00 Ry     beta= 0.10
     Davidson diagonalization with overlap
     ethr =  4.38E-10,  avg # of iterations =  1.0

     negative rho (up, down):  6.013E-02 0.000E+00

     total cpu time spent up to now is    50215.7 secs

     total energy              =  -11682.15877545 Ry
     estimated scf accuracy    <       0.00001211 Ry

     iteration #175     ecut=    80.00 Ry     beta= 0.10
     Davidson diagonalization with overlap
     ethr =  4.38E-10,  avg # of iterations =  1.0

     negative rho (up, down):  6.013E-02 0.000E+00

     total cpu time spent up to now is    50498.9 secs

     total energy              =  -11682.15877514 Ry
     estimated scf accuracy    <       0.00001606 Ry

     iteration #176     ecut=    80.00 Ry     beta= 0.10
     Davidson diagonalization with overlap
     ethr =  4.38E-10,  avg # of iterations =  1.0

     negative rho (up, down):  6.013E-02 0.000E+00

     total cpu time spent up to now is    50782.0 secs

     total energy              =  -11682.15877546 Ry
     estimated scf accuracy    <       0.00000782 Ry

     iteration #177     ecut=    80.00 Ry     beta= 0.10
     Davidson diagonalization with overlap
     ethr =  4.18E-10,  avg # of iterations =  1.0

     negative rho (up, down):  6.013E-02 0.000E+00

     total cpu time spent up to now is    51065.6 secs

     total energy              =  -11682.15877550 Ry
     estimated scf accuracy    <       0.00000770 Ry

     iteration #178     ecut=    80.00 Ry     beta= 0.10
     Davidson diagonalization with overlap
     ethr =  4.11E-10,  avg # of iterations =  1.0

     negative rho (up, down):  6.013E-02 0.000E+00

     total cpu time spent up to now is    51348.3 secs

     total energy              =  -11682.15877548 Ry
     estimated scf accuracy    <       0.00001282 Ry

     iteration #179     ecut=    80.00 Ry     beta= 0.10
     Davidson diagonalization with overlap
     ethr =  4.11E-10,  avg # of iterations =  1.0

     negative rho (up, down):  6.013E-02 0.000E+00

     total cpu time spent up to now is    51630.8 secs

     total energy              =  -11682.15877549 Ry
     estimated scf accuracy    <       0.00001317 Ry

     iteration #180     ecut=    80.00 Ry     beta= 0.10
     Davidson diagonalization with overlap
     ethr =  4.11E-10,  avg # of iterations =  1.0

     negative rho (up, down):  6.013E-02 0.000E+00

     total cpu time spent up to now is    51914.0 secs

     total energy              =  -11682.15877557 Ry
     estimated scf accuracy    <       0.00000554 Ry

     iteration #181     ecut=    80.00 Ry     beta= 0.10
     Davidson diagonalization with overlap
     ethr =  2.96E-10,  avg # of iterations =  1.0

     negative rho (up, down):  6.013E-02 0.000E+00

     total cpu time spent up to now is    52197.7 secs

     total energy              =  -11682.15877561 Ry
     estimated scf accuracy    <       0.00000798 Ry

     iteration #182     ecut=    80.00 Ry     beta= 0.10
     Davidson diagonalization with overlap
     ethr =  2.96E-10,  avg # of iterations =  1.0

     negative rho (up, down):  6.013E-02 0.000E+00

     total cpu time spent up to now is    52480.5 secs

     total energy              =  -11682.15877568 Ry
     estimated scf accuracy    <       0.00000336 Ry

     iteration #183     ecut=    80.00 Ry     beta= 0.10
     Davidson diagonalization with overlap
     ethr =  1.80E-10,  avg # of iterations =  1.0

     negative rho (up, down):  6.013E-02 0.000E+00

     total cpu time spent up to now is    52764.7 secs

     total energy              =  -11682.15877566 Ry
     estimated scf accuracy    <       0.00000742 Ry

     iteration #184     ecut=    80.00 Ry     beta= 0.10
     Davidson diagonalization with overlap
     ethr =  1.80E-10,  avg # of iterations =  1.0

     negative rho (up, down):  6.014E-02 0.000E+00

     total cpu time spent up to now is    53047.5 secs

     total energy              =  -11682.15877578 Ry
     estimated scf accuracy    <       0.00000559 Ry

     iteration #185     ecut=    80.00 Ry     beta= 0.10
     Davidson diagonalization with overlap
     ethr =  1.80E-10,  avg # of iterations =  1.0

     negative rho (up, down):  6.013E-02 0.000E+00

     total cpu time spent up to now is    53332.0 secs

     total energy              =  -11682.15877563 Ry
     estimated scf accuracy    <       0.00000478 Ry

     iteration #186     ecut=    80.00 Ry     beta= 0.10
     Davidson diagonalization with overlap
     ethr =  1.80E-10,  avg # of iterations =  1.0

     negative rho (up, down):  6.014E-02 0.000E+00

     total cpu time spent up to now is    53615.7 secs

     total energy              =  -11682.15877571 Ry
     estimated scf accuracy    <       0.00000825 Ry

     iteration #187     ecut=    80.00 Ry     beta= 0.10
     Davidson diagonalization with overlap
     ethr =  1.80E-10,  avg # of iterations =  1.0

     negative rho (up, down):  6.014E-02 0.000E+00

     total cpu time spent up to now is    53899.0 secs

     total energy              =  -11682.15877579 Ry
     estimated scf accuracy    <       0.00000469 Ry

     iteration #188     ecut=    80.00 Ry     beta= 0.10
     Davidson diagonalization with overlap
     ethr =  1.80E-10,  avg # of iterations =  1.0

     negative rho (up, down):  6.014E-02 0.000E+00

     total cpu time spent up to now is    54182.1 secs

     total energy              =  -11682.15877580 Ry
     estimated scf accuracy    <       0.00000698 Ry

     iteration #189     ecut=    80.00 Ry     beta= 0.10
     Davidson diagonalization with overlap
     ethr =  1.80E-10,  avg # of iterations =  1.0

     negative rho (up, down):  6.014E-02 0.000E+00

     total cpu time spent up to now is    54465.1 secs

     total energy              =  -11682.15877577 Ry
     estimated scf accuracy    <       0.00000732 Ry

     iteration #190     ecut=    80.00 Ry     beta= 0.10
     Davidson diagonalization with overlap
     ethr =  1.80E-10,  avg # of iterations =  1.0

     negative rho (up, down):  6.014E-02 0.000E+00

     total cpu time spent up to now is    54748.2 secs

     total energy              =  -11682.15877581 Ry
     estimated scf accuracy    <       0.00000380 Ry

     iteration #191     ecut=    80.00 Ry     beta= 0.10
     Davidson diagonalization with overlap
     ethr =  1.80E-10,  avg # of iterations =  1.0

     negative rho (up, down):  6.014E-02 0.000E+00

     total cpu time spent up to now is    55030.5 secs

     total energy              =  -11682.15877583 Ry
     estimated scf accuracy    <       0.00000476 Ry

     iteration #192     ecut=    80.00 Ry     beta= 0.10
     Davidson diagonalization with overlap
     ethr =  1.80E-10,  avg # of iterations =  1.0

     negative rho (up, down):  6.014E-02 0.000E+00

     total cpu time spent up to now is    55314.7 secs

     total energy              =  -11682.15877588 Ry
     estimated scf accuracy    <       0.00000173 Ry

     iteration #193     ecut=    80.00 Ry     beta= 0.10
     Davidson diagonalization with overlap
     ethr =  9.22E-11,  avg # of iterations =  1.0

     negative rho (up, down):  6.014E-02 0.000E+00

     total cpu time spent up to now is    55597.4 secs

     total energy              =  -11682.15877587 Ry
     estimated scf accuracy    <       0.00000282 Ry

     iteration #194     ecut=    80.00 Ry     beta= 0.10
     Davidson diagonalization with overlap
     ethr =  9.22E-11,  avg # of iterations =  1.0

     negative rho (up, down):  6.014E-02 0.000E+00

     total cpu time spent up to now is    55881.6 secs

     total energy              =  -11682.15877592 Ry
     estimated scf accuracy    <       0.00000249 Ry

     iteration #195     ecut=    80.00 Ry     beta= 0.10
     Davidson diagonalization with overlap
     ethr =  9.22E-11,  avg # of iterations =  1.0

     negative rho (up, down):  6.014E-02 0.000E+00

     total cpu time spent up to now is    56164.7 secs

     total energy              =  -11682.15877589 Ry
     estimated scf accuracy    <       0.00000128 Ry

     iteration #196     ecut=    80.00 Ry     beta= 0.10
     Davidson diagonalization with overlap
     ethr =  6.85E-11,  avg # of iterations =  1.0

     negative rho (up, down):  6.014E-02 0.000E+00

     total cpu time spent up to now is    56447.3 secs

     total energy              =  -11682.15877586 Ry
     estimated scf accuracy    <       0.00000639 Ry

     iteration #197     ecut=    80.00 Ry     beta= 0.10
     Davidson diagonalization with overlap
     ethr =  6.85E-11,  avg # of iterations =  1.0

     negative rho (up, down):  6.014E-02 0.000E+00

     total cpu time spent up to now is    56730.0 secs

     total energy              =  -11682.15877593 Ry
     estimated scf accuracy    <       0.00000297 Ry

     iteration #198     ecut=    80.00 Ry     beta= 0.10
     Davidson diagonalization with overlap
     ethr =  6.85E-11,  avg # of iterations =  1.0

     negative rho (up, down):  6.014E-02 0.000E+00

     total cpu time spent up to now is    57012.7 secs

     total energy              =  -11682.15877595 Ry
     estimated scf accuracy    <       0.00000275 Ry

     iteration #199     ecut=    80.00 Ry     beta= 0.10
     Davidson diagonalization with overlap
     ethr =  6.85E-11,  avg # of iterations =  1.0

     negative rho (up, down):  6.014E-02 0.000E+00

     total cpu time spent up to now is    57295.9 secs

     total energy              =  -11682.15877593 Ry
     estimated scf accuracy    <       0.00000335 Ry

     iteration #200     ecut=    80.00 Ry     beta= 0.10
     Davidson diagonalization with overlap
     ethr =  6.85E-11,  avg # of iterations =  1.0

     negative rho (up, down):  6.014E-02 0.000E+00

     total cpu time spent up to now is    57579.0 secs

     total energy              =  -11682.15877594 Ry
     estimated scf accuracy    <       0.00000277 Ry

     iteration #201     ecut=    80.00 Ry     beta= 0.10
     Davidson diagonalization with overlap
     ethr =  6.85E-11,  avg # of iterations =  1.0

     negative rho (up, down):  6.014E-02 0.000E+00

     total cpu time spent up to now is    57862.4 secs

     total energy              =  -11682.15877594 Ry
     estimated scf accuracy    <       0.00000325 Ry

     iteration #202     ecut=    80.00 Ry     beta= 0.10
     Davidson diagonalization with overlap
     ethr =  6.85E-11,  avg # of iterations =  1.0

     negative rho (up, down):  6.014E-02 0.000E+00

     total cpu time spent up to now is    58145.3 secs

     total energy              =  -11682.15877597 Ry
     estimated scf accuracy    <       0.00000122 Ry

     iteration #203     ecut=    80.00 Ry     beta= 0.10
     Davidson diagonalization with overlap
     ethr =  6.51E-11,  avg # of iterations =  1.0

     negative rho (up, down):  6.014E-02 0.000E+00

     total cpu time spent up to now is    58428.4 secs

     total energy              =  -11682.15877596 Ry
     estimated scf accuracy    <       0.00000146 Ry

     iteration #204     ecut=    80.00 Ry     beta= 0.10
     Davidson diagonalization with overlap
     ethr =  6.51E-11,  avg # of iterations =  1.0

     negative rho (up, down):  6.014E-02 0.000E+00

     total cpu time spent up to now is    58711.6 secs

     total energy              =  -11682.15877599 Ry
     estimated scf accuracy    <       0.00000140 Ry

     iteration #205     ecut=    80.00 Ry     beta= 0.10
     Davidson diagonalization with overlap
     ethr =  6.51E-11,  avg # of iterations =  1.0

     negative rho (up, down):  6.014E-02 0.000E+00

     total cpu time spent up to now is    58994.1 secs

     total energy              =  -11682.15877599 Ry
     estimated scf accuracy    <       0.00000041 Ry

     iteration #206     ecut=    80.00 Ry     beta= 0.10
     Davidson diagonalization with overlap
     ethr =  2.19E-11,  avg # of iterations =  1.0

     negative rho (up, down):  6.014E-02 0.000E+00

     total cpu time spent up to now is    59277.5 secs

     total energy              =  -11682.15877597 Ry
     estimated scf accuracy    <       0.00000233 Ry

     iteration #207     ecut=    80.00 Ry     beta= 0.10
     Davidson diagonalization with overlap
     ethr =  2.19E-11,  avg # of iterations =  1.0

     negative rho (up, down):  6.014E-02 0.000E+00

     total cpu time spent up to now is    59560.5 secs

     total energy              =  -11682.15877599 Ry
     estimated scf accuracy    <       0.00000150 Ry

     iteration #208     ecut=    80.00 Ry     beta= 0.10
     Davidson diagonalization with overlap
     ethr =  2.19E-11,  avg # of iterations =  1.0

     negative rho (up, down):  6.014E-02 0.000E+00

     total cpu time spent up to now is    59842.7 secs

     total energy              =  -11682.15877601 Ry
     estimated scf accuracy    <       0.00000100 Ry

     iteration #209     ecut=    80.00 Ry     beta= 0.10
     Davidson diagonalization with overlap
     ethr =  2.19E-11,  avg # of iterations =  1.0

     negative rho (up, down):  6.014E-02 0.000E+00

     total cpu time spent up to now is    60125.6 secs

     total energy              =  -11682.15877600 Ry
     estimated scf accuracy    <       0.00000122 Ry

     iteration #210     ecut=    80.00 Ry     beta= 0.10
     Davidson diagonalization with overlap
     ethr =  2.19E-11,  avg # of iterations =  1.0

     negative rho (up, down):  6.014E-02 0.000E+00

     total cpu time spent up to now is    60408.1 secs

     total energy              =  -11682.15877600 Ry
     estimated scf accuracy    <       0.00000155 Ry

     iteration #211     ecut=    80.00 Ry     beta= 0.10
     Davidson diagonalization with overlap
     ethr =  2.19E-11,  avg # of iterations =  1.0

     negative rho (up, down):  6.014E-02 0.000E+00

     total cpu time spent up to now is    60691.0 secs

     total energy              =  -11682.15877600 Ry
     estimated scf accuracy    <       0.00000196 Ry

     iteration #212     ecut=    80.00 Ry     beta= 0.10
     Davidson diagonalization with overlap
     ethr =  2.19E-11,  avg # of iterations =  1.0

     negative rho (up, down):  6.014E-02 0.000E+00

     total cpu time spent up to now is    60973.3 secs

     total energy              =  -11682.15877601 Ry
     estimated scf accuracy    <       0.00000106 Ry

     iteration #213     ecut=    80.00 Ry     beta= 0.10
     Davidson diagonalization with overlap
     ethr =  2.19E-11,  avg # of iterations =  1.0

     negative rho (up, down):  6.014E-02 0.000E+00

     total cpu time spent up to now is    61255.5 secs

     total energy              =  -11682.15877601 Ry
     estimated scf accuracy    <       0.00000096 Ry

     iteration #214     ecut=    80.00 Ry     beta= 0.10
     Davidson diagonalization with overlap
     ethr =  2.19E-11,  avg # of iterations =  1.0

     negative rho (up, down):  6.014E-02 0.000E+00

     total cpu time spent up to now is    61539.3 secs

     total energy              =  -11682.15877602 Ry
     estimated scf accuracy    <       0.00000123 Ry

     iteration #215     ecut=    80.00 Ry     beta= 0.10
     Davidson diagonalization with overlap
     ethr =  2.19E-11,  avg # of iterations =  1.0

     negative rho (up, down):  6.014E-02 0.000E+00

     total cpu time spent up to now is    61822.8 secs

     total energy              =  -11682.15877603 Ry
     estimated scf accuracy    <       0.00000020 Ry

     iteration #216     ecut=    80.00 Ry     beta= 0.10
     Davidson diagonalization with overlap
     ethr =  1.05E-11,  avg # of iterations =  1.0

     negative rho (up, down):  6.014E-02 0.000E+00

     total cpu time spent up to now is    62106.7 secs

     total energy              =  -11682.15877601 Ry
     estimated scf accuracy    <       0.00000067 Ry

     iteration #217     ecut=    80.00 Ry     beta= 0.10
     Davidson diagonalization with overlap
     ethr =  1.05E-11,  avg # of iterations =  1.0

     negative rho (up, down):  6.014E-02 0.000E+00

     total cpu time spent up to now is    62389.6 secs

     total energy              =  -11682.15877602 Ry
     estimated scf accuracy    <       0.00000086 Ry

     iteration #218     ecut=    80.00 Ry     beta= 0.10
     Davidson diagonalization with overlap
     ethr =  1.05E-11,  avg # of iterations =  1.0

     negative rho (up, down):  6.014E-02 0.000E+00

     total cpu time spent up to now is    62671.9 secs

     total energy              =  -11682.15877603 Ry
     estimated scf accuracy    <       0.00000039 Ry

     iteration #219     ecut=    80.00 Ry     beta= 0.10
     Davidson diagonalization with overlap
     ethr =  1.05E-11,  avg # of iterations =  1.0

     negative rho (up, down):  6.014E-02 0.000E+00

     total cpu time spent up to now is    62954.6 secs

     total energy              =  -11682.15877603 Ry
     estimated scf accuracy    <       0.00000038 Ry

     iteration #220     ecut=    80.00 Ry     beta= 0.10
     Davidson diagonalization with overlap
     ethr =  1.05E-11,  avg # of iterations =  1.0

     negative rho (up, down):  6.014E-02 0.000E+00

     total cpu time spent up to now is    63237.7 secs

     total energy              =  -11682.15877603 Ry
     estimated scf accuracy    <       0.00000059 Ry

     iteration #221     ecut=    80.00 Ry     beta= 0.10
     Davidson diagonalization with overlap
     ethr =  1.05E-11,  avg # of iterations =  1.0

     negative rho (up, down):  6.014E-02 0.000E+00

     total cpu time spent up to now is    63520.5 secs

     total energy              =  -11682.15877602 Ry
     estimated scf accuracy    <       0.00000087 Ry

     iteration #222     ecut=    80.00 Ry     beta= 0.10
     Davidson diagonalization with overlap
     ethr =  1.05E-11,  avg # of iterations =  1.0

     negative rho (up, down):  6.014E-02 0.000E+00

     total cpu time spent up to now is    63803.2 secs

     total energy              =  -11682.15877603 Ry
     estimated scf accuracy    <       0.00000075 Ry

     iteration #223     ecut=    80.00 Ry     beta= 0.10
     Davidson diagonalization with overlap
     ethr =  1.05E-11,  avg # of iterations =  1.0

     negative rho (up, down):  6.014E-02 0.000E+00

     total cpu time spent up to now is    64086.0 secs

     total energy              =  -11682.15877603 Ry
     estimated scf accuracy    <       0.00000052 Ry

     iteration #224     ecut=    80.00 Ry     beta= 0.10
     Davidson diagonalization with overlap
     ethr =  1.05E-11,  avg # of iterations =  1.0

     negative rho (up, down):  6.014E-02 0.000E+00

     total cpu time spent up to now is    64368.8 secs

     total energy              =  -11682.15877602 Ry
     estimated scf accuracy    <       0.00000112 Ry

     iteration #225     ecut=    80.00 Ry     beta= 0.10
     Davidson diagonalization with overlap
     ethr =  1.05E-11,  avg # of iterations =  1.0

     negative rho (up, down):  6.014E-02 0.000E+00

     total cpu time spent up to now is    64651.1 secs

     total energy              =  -11682.15877603 Ry
     estimated scf accuracy    <       0.00000012 Ry

     iteration #226     ecut=    80.00 Ry     beta= 0.10
     Davidson diagonalization with overlap
     ethr =  6.67E-12,  avg # of iterations =  1.0

     negative rho (up, down):  6.014E-02 0.000E+00

     total cpu time spent up to now is    64933.6 secs

     total energy              =  -11682.15877603 Ry
     estimated scf accuracy    <       0.00000025 Ry

     iteration #227     ecut=    80.00 Ry     beta= 0.10
     Davidson diagonalization with overlap
     ethr =  6.67E-12,  avg # of iterations =  1.0

     negative rho (up, down):  6.014E-02 0.000E+00

     total cpu time spent up to now is    65216.7 secs

     total energy              =  -11682.15877603 Ry
     estimated scf accuracy    <       0.00000080 Ry

     iteration #228     ecut=    80.00 Ry     beta= 0.10
     Davidson diagonalization with overlap
     ethr =  6.67E-12,  avg # of iterations =  1.0

     negative rho (up, down):  6.014E-02 0.000E+00

     total cpu time spent up to now is    65499.7 secs

     total energy              =  -11682.15877603 Ry
     estimated scf accuracy    <       0.00000019 Ry

     iteration #229     ecut=    80.00 Ry     beta= 0.10
     Davidson diagonalization with overlap
     ethr =  6.67E-12,  avg # of iterations =  1.0

     negative rho (up, down):  6.014E-02 0.000E+00

     total cpu time spent up to now is    65781.7 secs

     total energy              =  -11682.15877603 Ry
     estimated scf accuracy    <       0.00000015 Ry

     iteration #230     ecut=    80.00 Ry     beta= 0.10
     Davidson diagonalization with overlap
     ethr =  6.67E-12,  avg # of iterations =  1.0

     negative rho (up, down):  6.014E-02 0.000E+00

     total cpu time spent up to now is    66065.2 secs

     total energy              =  -11682.15877603 Ry
     estimated scf accuracy    <       0.00000015 Ry

     iteration #231     ecut=    80.00 Ry     beta= 0.10
     Davidson diagonalization with overlap
     ethr =  6.67E-12,  avg # of iterations =  1.0

     negative rho (up, down):  6.014E-02 0.000E+00

     total cpu time spent up to now is    66350.2 secs

     total energy              =  -11682.15877603 Ry
     estimated scf accuracy    <       0.00000029 Ry

     iteration #232     ecut=    80.00 Ry     beta= 0.10
     Davidson diagonalization with overlap
     ethr =  6.67E-12,  avg # of iterations =  1.0

     negative rho (up, down):  6.014E-02 0.000E+00

     total cpu time spent up to now is    66634.0 secs

     total energy              =  -11682.15877603 Ry
     estimated scf accuracy    <       0.00000034 Ry

     iteration #233     ecut=    80.00 Ry     beta= 0.10
     Davidson diagonalization with overlap
     ethr =  6.67E-12,  avg # of iterations =  1.0

     negative rho (up, down):  6.014E-02 0.000E+00

     total cpu time spent up to now is    66917.2 secs

     total energy              =  -11682.15877603 Ry
     estimated scf accuracy    <       0.00000023 Ry

     iteration #234     ecut=    80.00 Ry     beta= 0.10
     Davidson diagonalization with overlap
     ethr =  6.67E-12,  avg # of iterations =  1.0

     negative rho (up, down):  6.014E-02 0.000E+00

     total cpu time spent up to now is    67201.4 secs

     total energy              =  -11682.15877603 Ry
     estimated scf accuracy    <       0.00000057 Ry

     iteration #235     ecut=    80.00 Ry     beta= 0.10
     Davidson diagonalization with overlap
     ethr =  6.67E-12,  avg # of iterations =  1.0

     negative rho (up, down):  6.014E-02 0.000E+00

     total cpu time spent up to now is    67484.8 secs

     total energy              =  -11682.15877603 Ry
     estimated scf accuracy    <       0.00000008 Ry

     iteration #236     ecut=    80.00 Ry     beta= 0.10
     Davidson diagonalization with overlap
     ethr =  4.53E-12,  avg # of iterations =  1.0

     negative rho (up, down):  6.014E-02 0.000E+00

     total cpu time spent up to now is    67767.8 secs

     total energy              =  -11682.15877603 Ry
     estimated scf accuracy    <       0.00000010 Ry

     iteration #237     ecut=    80.00 Ry     beta= 0.10
     Davidson diagonalization with overlap
     ethr =  4.53E-12,  avg # of iterations =  1.0

     negative rho (up, down):  6.014E-02 0.000E+00

     total cpu time spent up to now is    68050.9 secs

     total energy              =  -11682.15877603 Ry
     estimated scf accuracy    <       0.00000063 Ry

     iteration #238     ecut=    80.00 Ry     beta= 0.10
     Davidson diagonalization with overlap
     ethr =  4.53E-12,  avg # of iterations =  1.0

     negative rho (up, down):  6.014E-02 0.000E+00

     total cpu time spent up to now is    68334.4 secs

     total energy              =  -11682.15877603 Ry
     estimated scf accuracy    <       0.00000020 Ry

     iteration #239     ecut=    80.00 Ry     beta= 0.10
     Davidson diagonalization with overlap
     ethr =  4.53E-12,  avg # of iterations =  1.0

     negative rho (up, down):  6.014E-02 0.000E+00

     total cpu time spent up to now is    68617.7 secs

     total energy              =  -11682.15877603 Ry
     estimated scf accuracy    <       0.00000008 Ry

     iteration #240     ecut=    80.00 Ry     beta= 0.10
     Davidson diagonalization with overlap
     ethr =  4.43E-12,  avg # of iterations =  1.0

     negative rho (up, down):  6.014E-02 0.000E+00

     total cpu time spent up to now is    68901.4 secs

     total energy              =  -11682.15877603 Ry
     estimated scf accuracy    <       0.00000007 Ry

     iteration #241     ecut=    80.00 Ry     beta= 0.10
     Davidson diagonalization with overlap
     ethr =  3.89E-12,  avg # of iterations =  1.0

     negative rho (up, down):  6.014E-02 0.000E+00

     total cpu time spent up to now is    69184.6 secs

     total energy              =  -11682.15877603 Ry
     estimated scf accuracy    <       0.00000010 Ry

     iteration #242     ecut=    80.00 Ry     beta= 0.10
     Davidson diagonalization with overlap
     ethr =  3.89E-12,  avg # of iterations =  1.0

     negative rho (up, down):  6.014E-02 0.000E+00

     total cpu time spent up to now is    69467.7 secs

     total energy              =  -11682.15877603 Ry
     estimated scf accuracy    <       0.00000013 Ry

     iteration #243     ecut=    80.00 Ry     beta= 0.10
     Davidson diagonalization with overlap
     ethr =  3.89E-12,  avg # of iterations =  1.0

     negative rho (up, down):  6.014E-02 0.000E+00

     total cpu time spent up to now is    69750.9 secs

     total energy              =  -11682.15877603 Ry
     estimated scf accuracy    <       0.00000009 Ry

     iteration #244     ecut=    80.00 Ry     beta= 0.10
     Davidson diagonalization with overlap
     ethr =  3.89E-12,  avg # of iterations =  1.0

     negative rho (up, down):  6.014E-02 0.000E+00

     total cpu time spent up to now is    70034.8 secs

     total energy              =  -11682.15877603 Ry
     estimated scf accuracy    <       0.00000019 Ry

     iteration #245     ecut=    80.00 Ry     beta= 0.10
     Davidson diagonalization with overlap
     ethr =  3.89E-12,  avg # of iterations =  1.0

     negative rho (up, down):  6.014E-02 0.000E+00

     total cpu time spent up to now is    70317.6 secs

     total energy              =  -11682.15877603 Ry
     estimated scf accuracy    <       0.00000006 Ry

     iteration #246     ecut=    80.00 Ry     beta= 0.10
     Davidson diagonalization with overlap
     ethr =  3.07E-12,  avg # of iterations =  1.0

     negative rho (up, down):  6.014E-02 0.000E+00

     total cpu time spent up to now is    70600.1 secs

     total energy              =  -11682.15877603 Ry
     estimated scf accuracy    <       0.00000004 Ry

     iteration #247     ecut=    80.00 Ry     beta= 0.10
     Davidson diagonalization with overlap
     ethr =  2.01E-12,  avg # of iterations =  1.0

     negative rho (up, down):  6.014E-02 0.000E+00

     total cpu time spent up to now is    70882.8 secs

     total energy              =  -11682.15877603 Ry
     estimated scf accuracy    <       0.00000024 Ry

     iteration #248     ecut=    80.00 Ry     beta= 0.10
     Davidson diagonalization with overlap
     ethr =  2.01E-12,  avg # of iterations =  1.0

     negative rho (up, down):  6.014E-02 0.000E+00

     total cpu time spent up to now is    71165.5 secs

     total energy              =  -11682.15877603 Ry
     estimated scf accuracy    <       0.00000019 Ry

     iteration #249     ecut=    80.00 Ry     beta= 0.10
     Davidson diagonalization with overlap
     ethr =  2.01E-12,  avg # of iterations =  1.0

     negative rho (up, down):  6.014E-02 0.000E+00

     total cpu time spent up to now is    71447.6 secs

     total energy              =  -11682.15877603 Ry
     estimated scf accuracy    <       0.00000007 Ry

     iteration #250     ecut=    80.00 Ry     beta= 0.10
     Davidson diagonalization with overlap
     ethr =  2.01E-12,  avg # of iterations =  1.0

     negative rho (up, down):  6.014E-02 0.000E+00

     total cpu time spent up to now is    71729.6 secs

     total energy              =  -11682.15877603 Ry
     estimated scf accuracy    <       0.00000005 Ry

     iteration #251     ecut=    80.00 Ry     beta= 0.10
     Davidson diagonalization with overlap
     ethr =  2.01E-12,  avg # of iterations =  1.0

     negative rho (up, down):  6.014E-02 0.000E+00

     total cpu time spent up to now is    72012.3 secs

     total energy              =  -11682.15877603 Ry
     estimated scf accuracy    <       0.00000006 Ry

     iteration #252     ecut=    80.00 Ry     beta= 0.10
     Davidson diagonalization with overlap
     ethr =  2.01E-12,  avg # of iterations =  1.0

     negative rho (up, down):  6.014E-02 0.000E+00

     total cpu time spent up to now is    72295.6 secs

     total energy              =  -11682.15877603 Ry
     estimated scf accuracy    <       0.00000006 Ry

     iteration #253     ecut=    80.00 Ry     beta= 0.10
     Davidson diagonalization with overlap
     ethr =  2.01E-12,  avg # of iterations =  1.0

     negative rho (up, down):  6.014E-02 0.000E+00

     total cpu time spent up to now is    72579.0 secs

     total energy              =  -11682.15877603 Ry
     estimated scf accuracy    <       0.00000004 Ry

     iteration #254     ecut=    80.00 Ry     beta= 0.10
     Davidson diagonalization with overlap
     ethr =  2.01E-12,  avg # of iterations =  1.0

     negative rho (up, down):  6.014E-02 0.000E+00

     total cpu time spent up to now is    72862.0 secs

     total energy              =  -11682.15877603 Ry
     estimated scf accuracy    <       0.00000006 Ry

     iteration #255     ecut=    80.00 Ry     beta= 0.10
     Davidson diagonalization with overlap
     ethr =  2.01E-12,  avg # of iterations =  1.0

     negative rho (up, down):  6.014E-02 0.000E+00

     total cpu time spent up to now is    73146.4 secs

     total energy              =  -11682.15877603 Ry
     estimated scf accuracy    <       0.00000004 Ry

     iteration #256     ecut=    80.00 Ry     beta= 0.10
     Davidson diagonalization with overlap
     ethr =  1.97E-12,  avg # of iterations =  1.0

     negative rho (up, down):  6.014E-02 0.000E+00

     total cpu time spent up to now is    73428.8 secs

     total energy              =  -11682.15877603 Ry
     estimated scf accuracy    <       0.00000002 Ry

     iteration #257     ecut=    80.00 Ry     beta= 0.10
     Davidson diagonalization with overlap
     ethr =  8.66E-13,  avg # of iterations =  1.0

     negative rho (up, down):  6.014E-02 0.000E+00

     total cpu time spent up to now is    73711.0 secs

     total energy              =  -11682.15877603 Ry
     estimated scf accuracy    <       0.00000003 Ry

     iteration #258     ecut=    80.00 Ry     beta= 0.10
     Davidson diagonalization with overlap
     ethr =  8.66E-13,  avg # of iterations =  1.0

     negative rho (up, down):  6.014E-02 0.000E+00

     total cpu time spent up to now is    73993.4 secs

     total energy              =  -11682.15877603 Ry
     estimated scf accuracy    <       0.00000014 Ry

     iteration #259     ecut=    80.00 Ry     beta= 0.10
     Davidson diagonalization with overlap
     ethr =  8.66E-13,  avg # of iterations =  1.0

     negative rho (up, down):  6.014E-02 0.000E+00

     total cpu time spent up to now is    74277.0 secs

     total energy              =  -11682.15877603 Ry
     estimated scf accuracy    <       0.00000005 Ry

     iteration #260     ecut=    80.00 Ry     beta= 0.10
     Davidson diagonalization with overlap
     ethr =  8.66E-13,  avg # of iterations =  1.0

     negative rho (up, down):  6.014E-02 0.000E+00

     total cpu time spent up to now is    74559.8 secs

     total energy              =  -11682.15877603 Ry
     estimated scf accuracy    <       0.00000003 Ry

     iteration #261     ecut=    80.00 Ry     beta= 0.10
     Davidson diagonalization with overlap
     ethr =  8.66E-13,  avg # of iterations =  1.0

     negative rho (up, down):  6.014E-02 0.000E+00

     total cpu time spent up to now is    74842.4 secs

     total energy              =  -11682.15877603 Ry
     estimated scf accuracy    <       0.00000004 Ry

     iteration #262     ecut=    80.00 Ry     beta= 0.10
     Davidson diagonalization with overlap
     ethr =  8.66E-13,  avg # of iterations =  1.0

     negative rho (up, down):  6.014E-02 0.000E+00

     total cpu time spent up to now is    75125.0 secs

     total energy              =  -11682.15877603 Ry
     estimated scf accuracy    <       0.00000004 Ry

     iteration #263     ecut=    80.00 Ry     beta= 0.10
     Davidson diagonalization with overlap
     ethr =  8.66E-13,  avg # of iterations =  1.0

     negative rho (up, down):  6.014E-02 0.000E+00

     total cpu time spent up to now is    75408.6 secs

     total energy              =  -11682.15877602 Ry
     estimated scf accuracy    <       0.00000002 Ry

     iteration #264     ecut=    80.00 Ry     beta= 0.10
     Davidson diagonalization with overlap
     ethr =  8.66E-13,  avg # of iterations =  1.0

     negative rho (up, down):  6.014E-02 0.000E+00

     total cpu time spent up to now is    75690.7 secs

     total energy              =  -11682.15877603 Ry
     estimated scf accuracy    <       0.00000002 Ry

     iteration #265     ecut=    80.00 Ry     beta= 0.10
     Davidson diagonalization with overlap
     ethr =  8.66E-13,  avg # of iterations =  1.0

     negative rho (up, down):  6.014E-02 0.000E+00

     total cpu time spent up to now is    75973.9 secs

     total energy              =  -11682.15877603 Ry
     estimated scf accuracy    <       0.00000002 Ry

     iteration #266     ecut=    80.00 Ry     beta= 0.10
     Davidson diagonalization with overlap
     ethr =  8.66E-13,  avg # of iterations =  1.0

     negative rho (up, down):  6.014E-02 0.000E+00

     total cpu time spent up to now is    76256.3 secs

     End of self-consistent calculation

          k = 0.0000 0.0000 0.0000 (****** PWs)   bands (ev):

   -58.0100 -56.2467 -55.9156 -55.8806 -55.7733 -55.6352 -55.0957 -55.0837
   -54.8085 -54.5574 -53.9223 -29.9366 -29.9192 -29.8815 -28.1975 -28.1548
   -28.1137 -27.8488 -27.8413 -27.8173 -27.8013 -27.7988 -27.7758 -27.7087
   -27.6779 -27.6405 -27.6029 -27.5373 -27.5087 -27.1807 -27.0665 -27.0371
   -27.0058 -26.9751 -26.9722 -26.9550 -26.8007 -26.7493 -26.7087 -26.5337
   -26.4951 -26.4398 -26.3272 -26.1731 -25.9256 -25.8741 -25.8453 -25.8261
   -25.8167 -25.8093 -25.6606 -25.6411 -25.6256 -25.6140 -25.5029 -25.4056
   -25.3495 -25.2945 -25.2429 -25.1843 -25.1581 -25.1091 -25.0852 -25.0676
   -25.0555 -25.0458 -25.0028 -24.9618 -24.9471 -24.9374 -24.9052 -24.9014
   -24.8606 -24.8402 -24.8104 -24.7903 -24.7609 -24.7212 -24.7046 -24.6783
   -24.6668 -24.6590 -24.6270 -24.6029 -24.5925 -24.5661 -24.5502 -24.5083
   -24.4941 -24.4652 -24.4596 -24.4370 -24.4172 -24.3892 -24.3821 -24.3716
   -24.3563 -24.3369 -24.3112 -24.2991 -24.2705 -24.2640 -24.2408 -24.2379
   -24.2066 -24.1767 -24.1586 -24.1545 -24.1344 -24.1168 -24.1065 -24.0746
   -24.0487 -24.0322 -24.0175 -23.9997 -23.9845 -23.9571 -23.9274 -23.9221
   -23.8700 -23.8489 -23.8432 -23.8335 -23.8132 -23.7948 -23.7875 -23.7795
   -23.7651 -23.7560 -23.7497 -23.7393 -23.7276 -23.7247 -23.6914 -23.6794
   -23.6643 -23.6599 -23.6433 -23.6247 -23.6100 -23.5984 -23.5794 -23.5660
   -23.5575 -23.5407 -23.5274 -23.5040 -23.4672 -23.4562 -23.4429 -23.4398
   -23.4169 -23.4051 -23.3997 -23.3677 -23.3568 -23.3402 -23.3349 -23.3183
   -23.3023 -23.2845 -23.2828 -23.2471 -23.2388 -23.2099 -23.1984 -23.1804
   -23.1769 -23.1603 -23.1524 -23.1372 -23.1123 -23.1052 -23.1016 -23.0935
   -23.0715 -23.0671 -23.0479 -23.0126 -22.9854 -22.9674 -22.9572 -22.9448
   -22.9304 -22.9111 -22.8981 -22.8864 -22.8849 -22.8583 -22.8452 -22.8353
   -22.8213 -22.8109 -22.7668 -22.7574 -22.7533 -22.7495 -22.7153 -22.7103
   -22.6893 -22.6326 -22.5786 -22.5744 -22.5230 -22.5126 -22.4571 -22.4443
   -22.4405 -22.4395 -22.4305 -22.3923 -22.3202 -22.3179 -22.2876 -22.2783
   -22.2610 -22.2344 -22.1651 -22.0877 -22.0424 -22.0308 -21.9973 -21.8884
   -21.7038 -21.6316 -21.6296 -21.6133 -21.5647 -21.5014 -21.4739 -21.4437
   -21.3712 -21.3623 -20.7268 -20.6476 -20.6211 -20.6062 -20.6016 -20.5730
   -20.5727 -20.5418 -20.5376 -20.4971 -20.4089 -20.2785 -20.2107 -20.1190
   -20.0618 -19.8739 -19.7822 -19.7774 -19.7770 -19.7681 -19.7585 -19.7577
   -19.7561 -19.7236 -19.7228 -19.7086 -19.6504 -19.0593 -18.5635 -17.8024
   -17.0167 -16.2942 -15.3948 -15.2662 -15.1932 -15.1291 -15.0184 -14.9531
   -14.9139 -14.8365 -14.8001 -14.7542 -14.7084 -14.6462 -14.6303 -14.5811
   -14.5601 -14.4774 -14.3923 -14.3545 -14.2586 -14.2297 -14.1807 -14.1539
   -14.1001 -14.0837 -14.0627 -14.0096 -13.9735 -13.9542 -13.9358 -13.8653
   -13.8531 -13.8086 -13.7921 -13.7429 -13.7133 -13.6611 -13.6208 -13.5888
   -13.5790 -13.4977 -13.4960 -13.4734 -13.4271 -13.3783 -13.3498 -13.3375
   -13.2839 -13.2694 -13.2616 -13.2087 -13.1828 -13.1390 -13.1328 -13.1038
   -13.0591 -13.0453 -13.0143 -12.9827 -12.9563 -12.9376 -12.9037 -12.8798
   -12.8537 -12.8241 -12.7892 -12.7789 -12.7186 -12.6958 -12.6825 -12.6093
   -12.5975 -12.5703 -12.5365 -12.5022 -12.4645 -12.4285 -12.4143 -12.3800
   -12.3677 -12.3500 -12.3476 -12.2827 -12.2662 -12.2217 -12.1963 -12.1799
   -12.1356 -12.0921 -12.0765 -12.0507 -12.0350 -11.9982 -11.9691 -11.9421
   -11.9173 -11.9053 -11.8811 -11.8605 -11.8361 -11.7998 -11.7914 -11.7574
   -11.7525 -11.7449 -11.7005 -11.6958 -11.6522 -11.6484 -11.6321 -11.6197
   -11.5948 -11.5893 -11.5712 -11.5488 -11.5338 -11.5217 -11.5167 -11.4985
   -11.4807 -11.4662 -11.4407 -11.4300 -11.4231 -11.3861 -11.3750 -11.3485
   -11.3255 -11.3217 -11.3009 -11.2666 -11.2484 -11.2434 -11.2248 -11.2198
   -11.1991 -11.1937 -11.1720 -11.1520 -11.1408 -11.1207 -11.1133 -11.0867
   -11.0452 -11.0406 -11.0147 -11.0035 -10.9866 -10.9557 -10.9448 -10.9415
   -10.9346 -10.9323 -10.9055 -10.9032 -10.8889 -10.8748 -10.8680 -10.8380
   -10.8269 -10.8012 -10.7739 -10.7705 -10.7500 -10.7425 -10.7140 -10.7073
   -10.6966 -10.6710 -10.6319 -10.6138 -10.5979 -10.5834 -10.5687 -10.5392
   -10.5226 -10.5105 -10.4801 -10.4417 -10.4373 -10.3844 -10.3581 -10.3471
   -10.3315 -10.2856 -10.2640 -10.2574 -10.2394 -10.2204 -10.1638 -10.1286
   -10.1264 -10.1000 -10.0785 -10.0478 -10.0064  -9.9624  -9.9504  -9.9244
    -9.9116  -9.8944  -9.8626  -9.8472  -9.8365  -9.8218  -9.7996  -9.7657
    -9.7172  -9.7039  -9.6426  -9.6367  -9.6214  -9.6148  -9.5816  -9.5659
    -9.5471  -9.5356  -9.5174  -9.5005  -9.4680  -9.4488  -9.4266  -9.4187
    -9.4022  -9.3878  -9.3852  -9.3785  -9.3739  -9.3623  -9.3519  -9.3409
    -9.2928  -9.2799  -9.2738  -9.2390  -9.2344  -9.2204  -9.1994  -9.1886
    -9.1739  -9.1581  -9.1291  -9.1094  -9.0952  -9.0677  -9.0651  -9.0282
    -9.0152  -8.9927  -8.9619  -8.9595  -8.9332  -8.9228  -8.9072  -8.8993
    -8.8958  -8.8855  -8.8606  -8.8464  -8.8273  -8.8144  -8.8081  -8.7839
    -8.7728  -8.7688  -8.7617  -8.7542  -8.7369  -8.7187  -8.7097  -8.7073
    -8.6976  -8.6899  -8.6733  -8.6464  -8.6437  -8.6306  -8.6233  -8.6210
    -8.6101  -8.6010  -8.5917  -8.5772  -8.5637  -8.5549  -8.5470  -8.5386
    -8.5233  -8.5062  -8.5016  -8.4903  -8.4689  -8.4525  -8.4447  -8.4361
    -8.4270  -8.4201  -8.4152  -8.3956  -8.3868  -8.3816  -8.3703  -8.3592
    -8.3512  -8.3418  -8.3375  -8.3240  -8.3154  -8.3002  -8.2852  -8.2773
    -8.2659  -8.2553  -8.2472  -8.2301  -8.2256  -8.2172  -8.2013  -8.1947
    -8.1913  -8.1807  -8.1624  -8.1434  -8.1356  -8.1262  -8.1137  -8.1032
    -8.0912  -8.0882  -8.0873  -8.0810  -8.0734  -8.0580  -8.0499  -8.0437
    -8.0320  -8.0146  -8.0011  -7.9973  -7.9928  -7.9711  -7.9672  -7.9647
    -7.9410  -7.9354  -7.9239  -7.9142  -7.9060  -7.8946  -7.8882  -7.8794
    -7.8738  -7.8594  -7.8580  -7.8464  -7.8306  -7.8270  -7.8180  -7.8055
    -7.8027  -7.7987  -7.7858  -7.7801  -7.7667  -7.7561  -7.7476  -7.7326
    -7.7305  -7.7231  -7.7105  -7.6998  -7.6916  -7.6815  -7.6755  -7.6676
    -7.6555  -7.6494  -7.6384  -7.6328  -7.6251  -7.6099  -7.6063  -7.5920
    -7.5854  -7.5702  -7.5617  -7.5557  -7.5449  -7.5359  -7.5199  -7.5182
    -7.5041  -7.5023  -7.4941  -7.4827  -7.4700  -7.4674  -7.4573  -7.4528
    -7.4433  -7.4352  -7.4249  -7.4224  -7.4099  -7.3829  -7.3670  -7.3572
    -7.3457  -7.3417  -7.3380  -7.3297  -7.3132  -7.3081  -7.3024  -7.2865
    -7.2816  -7.2697  -7.2586  -7.2530  -7.2435  -7.2381  -7.2339  -7.2211
    -7.2135  -7.1991  -7.1893  -7.1701  -7.1659  -7.1481  -7.1396  -7.1330
    -7.1197  -7.1167  -7.1040  -7.0927  -7.0871  -7.0746  -7.0691  -7.0578
    -7.0478  -7.0452  -7.0371  -7.0240  -7.0187  -7.0119  -6.9896  -6.9776
    -6.9662  -6.9488  -6.9442  -6.9321  -6.9293  -6.9116  -6.9031  -6.8966
    -6.8805  -6.8750  -6.8686  -6.8466  -6.8358  -6.8285  -6.8252  -6.8130
    -6.8045  -6.7930  -6.7837  -6.7787  -6.7701  -6.7670  -6.7454  -6.7378
    -6.7368  -6.7276  -6.7152  -6.7094  -6.7047  -6.6844  -6.6723  -6.6625
    -6.6585  -6.6431  -6.6423  -6.6342  -6.6178  -6.6081  -6.6064  -6.5881
    -6.5784  -6.5548  -6.5454  -6.5425  -6.5386  -6.5277  -6.5165  -6.5032
    -6.4989  -6.4877  -6.4861  -6.4735  -6.4653  -6.4586  -6.4425  -6.4312
    -6.4279  -6.4237  -6.4066  -6.3997  -6.3884  -6.3790  -6.3621  -6.3556
    -6.3396  -6.3360  -6.3222  -6.3204  -6.3069  -6.3005  -6.2863  -6.2750
    -6.2653  -6.2609  -6.2398  -6.2261  -6.2251  -6.1950  -6.1918  -6.1772
    -6.1526  -6.1419  -6.1279  -6.1156  -6.1130  -6.0915  -6.0872  -6.0728
    -6.0536  -6.0412  -6.0271  -6.0134  -6.0064  -5.9950  -5.9920  -5.9815
    -5.9768  -5.9585  -5.9379  -5.9341  -5.9175  -5.8996  -5.8943  -5.8918
    -5.8809  -5.8701  -5.8498  -5.8390  -5.8299  -5.8292  -5.8112  -5.7861
    -5.7789  -5.7751  -5.7687  -5.7623  -5.7539  -5.7357  -5.7331  -5.7219
    -5.7041  -5.6812  -5.6734  -5.6534  -5.6501  -5.6401  -5.6299  -5.6185
    -5.5890  -5.5661  -5.5454  -5.5355  -5.5273  -5.5184  -5.5027  -5.4887
    -5.4764  -5.4540  -5.4404  -5.4244  -5.3997  -5.3927  -5.3891  -5.3854
    -5.3800  -5.3624  -5.3371  -5.3268  -5.3116  -5.3054  -5.2706  -5.2520
    -5.2239  -5.2025  -5.1971  -5.1954  -5.1556  -5.1170  -5.1036  -5.0854
    -5.0717  -5.0172  -4.9456  -4.9153  -4.9139  -4.9034  -4.8815  -4.8603
    -4.8278  -4.8191  -4.7857  -4.7766  -4.7381  -4.7303  -4.6778  -4.6527
    -4.6344  -4.5569  -4.5396  -4.5191  -4.5053  -4.5019  -4.4945  -4.4771
    -4.3907  -4.3426  -4.2602  -4.2503  -4.2043  -4.1914  -4.1552  -4.1006
    -4.0868  -4.0780  -4.0775  -4.0625  -4.0217  -4.0184  -3.9868  -3.9771
    -3.9738  -3.9584  -3.9431  -3.9330  -3.9056  -3.9018  -3.8796  -3.8768
    -3.8717  -3.8615  -3.8578  -3.8510  -3.8471  -3.8463  -3.8393  -3.8337
    -3.8292  -3.8234  -3.8136  -3.8039  -3.7897  -3.7888  -3.7794  -3.7748
    -3.7581  -3.7457  -3.7142  -3.7073  -3.6871  -3.6776  -3.6757  -3.6643
    -3.5808  -3.4975  -3.4495  -3.4268  -3.3620  -3.3445  -3.2452  -3.1710
    -2.8407  -2.6723  -2.2569  -2.0286  -1.5981  -0.6916  -0.6594  -0.5198
    -0.4812  -0.4703  -0.3250  -0.3108  -0.2536  -0.1550  -0.0861  -0.0431
    -0.0093   0.1034   0.1812   0.2884   0.3155   0.4091   0.4839   0.5753
     0.6136   0.6511   0.6858   0.7223   0.7785   0.8168   0.8633   0.9224
     0.9692   0.9801   1.0104   1.0418   1.0670   1.0918   1.1456   1.1552
     1.1902   1.2181   1.2529   1.2640   1.2939   1.2980   1.3210   1.3260
     1.3727   1.3766   1.4068   1.4334   1.4515   1.4885   1.5344   1.5612
     1.5899   1.6117   1.6356   1.6535   1.6596   1.6835   1.6963   1.7312
     1.7348   1.7645   1.7777   1.7947   1.8188   1.8343   1.8505   1.8747
     1.8873   1.8972   1.9195   1.9412   1.9587   1.9612   1.9809   1.9994
     2.0187   2.0325   2.0547   2.0650   2.0765   2.0909   2.1100   2.1172
     2.1243   2.1408   2.1527   2.1679   2.1830   2.1989   2.2081   2.2200
     2.2234   2.2332   2.2346   2.2487   2.2598   2.2722   2.2890   2.2976
     2.3163   2.3231   2.3322   2.3455   2.3520   2.3642   2.3677   2.3818
     2.3935   2.4018   2.4081   2.4360   2.4406   2.4482   2.4603   2.4744
     2.4926   2.4948   2.5080   2.5231   2.5308   2.5425   2.5563   2.5577
     2.5672   2.5851   2.6008   2.6032   2.6142   2.6183   2.6291   2.6361
     2.6450   2.6531   2.6595   2.6710   2.6748   2.6866   2.6900   2.6993
     2.7145   2.7231   2.7266   2.7340   2.7452   2.7462   2.7551   2.7571
     2.7714   2.7781   2.7801   2.7882   2.7978   2.8065   2.8236   2.8326
     2.8381   2.8474   2.8590   2.8726   2.8764   2.8860   2.8899   2.9013
     2.9020   2.9177   2.9311

     the Fermi energy is    -3.7332 ev

!    total energy              =  -11682.15877601 Ry
     estimated scf accuracy    <          6.9E-09 Ry
     smearing contrib. (-TS)   =      -0.10771145 Ry
     internal energy E=F+TS    =  -11682.05106456 Ry

     The total energy is F=E-TS. E is the sum of the following terms:
     one-electron contribution = -375697.09565845 Ry
     hartree contribution      =  188307.74544777 Ry
     xc contribution           =   -2470.95871877 Ry
     ewald contribution        =  180537.95444993 Ry
     one-center paw contrib.   =   -2359.69658504 Ry

     convergence has been achieved in 266 iterations

     negative rho (up, down):  6.014E-02 0.000E+00

     Forces acting on atoms (cartesian axes, Ry/au):

     atom    1 type  1   force =     0.01197591    0.01355531    0.05500333
     atom    2 type  1   force =     0.02767168    0.02447310   -0.00334721
     atom    3 type  1   force =     0.00763649    0.00098431   -0.00365532
     atom    4 type  1   force =    -0.01245341   -0.01526863   -0.01031684
     atom    5 type  1   force =     0.01476909   -0.02238442   -0.02723352
     atom    6 type  1   force =     0.00356765   -0.00142265    0.00418950
     atom    7 type  1   force =    -0.00883451    0.01240926    0.01061981
     atom    8 type  1   force =    -0.01211013   -0.03101244    0.00320692
     atom    9 type  1   force =    -0.00148122    0.00648879    0.01335934
     atom   10 type  1   force =     0.01843676   -0.00136087    0.01743137
     atom   11 type  1   force =    -0.01122488   -0.00526182   -0.01237110
     atom   12 type  2   force =     0.00698435    0.12281658   -0.04040802
     atom   13 type  2   force =     0.13606521    0.09602089   -0.01345962
     atom   14 type  2   force =     0.08061339    0.03202788   -0.06299220
     atom   15 type  2   force =     0.14552525   -0.03934365   -0.15244238
     atom   16 type  2   force =     0.02150260    0.03842558    0.03996350
     atom   17 type  2   force =     0.15431677    0.01480982    0.25407955
     atom   18 type  2   force =    -0.01241025   -0.04670889   -0.04972122
     atom   19 type  2   force =    -0.01083538    0.03869367   -0.10083061
     atom   20 type  2   force =    -0.02597452   -0.01326331   -0.04205696
     atom   21 type  2   force =    -0.05467977    0.13506322   -0.03971335
     atom   22 type  2   force =     0.03604931   -0.13342778    0.09295908
     atom   23 type  2   force =    -0.03948211   -0.06850028   -0.05877251
     atom   24 type  2   force =     0.03236207    0.02634175    0.00990564
     atom   25 type  2   force =     0.06547867    0.00663383    0.07185473
     atom   26 type  2   force =    -0.01669464   -0.00981923   -0.01126717
     atom   27 type  2   force =     0.04174024    0.11816048   -0.07361825
     atom   28 type  2   force =    -0.00189915   -0.05843321   -0.01159784
     atom   29 type  2   force =    -0.03158606   -0.05052466    0.08126065
     atom   30 type  2   force =     0.03247564   -0.03183698   -0.03943430
     atom   31 type  2   force =     0.03577724    0.02206225    0.00202987
     atom   32 type  2   force =    -0.00990389   -0.06587213    0.08803797
     atom   33 type  2   force =    -0.05559266    0.01778710   -0.05721056
     atom   34 type  2   force =     0.06101196   -0.02689664   -0.02239664
     atom   35 type  3   force =    -0.01359397   -0.07811923    0.00313183
     atom   36 type  3   force =    -0.16396154    0.08784638   -0.04851688
     atom   37 type  3   force =    -0.06763492    0.03580385   -0.01412110
     atom   38 type  3   force =    -0.05431231   -0.00016773   -0.00954173
     atom   39 type  3   force =     0.07427519    0.00713653    0.01054903
     atom   40 type  3   force =     0.08728514    0.02204954   -0.04445322
     atom   41 type  3   force =    -0.10880785   -0.09032314   -0.13258249
     atom   42 type  3   force =     0.01250430   -0.06068811    0.06431224
     atom   43 type  3   force =     0.01840658   -0.02244450   -0.04853996
     atom   44 type  3   force =     0.06110921    0.10569600    0.04095139
     atom   45 type  3   force =    -0.03151239   -0.00059225   -0.03233049
     atom   46 type  3   force =    -0.03509570    0.12207784    0.06101325
     atom   47 type  3   force =    -0.05619253    0.00765925   -0.14695816
     atom   48 type  3   force =    -0.02869415   -0.12207568   -0.13817118
     atom   49 type  3   force =     0.06198369    0.18270552    0.05229355
     atom   50 type  3   force =     0.04358082   -0.02232833   -0.09804578
     atom   51 type  3   force =    -0.01920695    0.04787522    0.07036531
     atom   52 type  3   force =    -0.12126474   -0.10647187    0.12005999
     atom   53 type  3   force =    -0.12312516   -0.11104408   -0.05528202
     atom   54 type  3   force =    -0.03724859   -0.02257976    0.10256844
     atom   55 type  3   force =    -0.15034751    0.03133543    0.03085463
     atom   56 type  3   force =    -0.01938692    0.00817648    0.12701796
     atom   57 type  3   force =     0.00712556   -0.09527842   -0.04917215
     atom   58 type  3   force =     0.05976201   -0.00792610    0.04786815
     atom   59 type  3   force =    -0.03523245   -0.00982059    0.03684141
     atom   60 type  3   force =     0.07916701   -0.07450950   -0.00407903
     atom   61 type  3   force =     0.01535763    0.19124643    0.03549230
     atom   62 type  3   force =    -0.01878377   -0.01675729   -0.00668388
     atom   63 type  3   force =     0.01640542    0.01198562   -0.00676187
     atom   64 type  3   force =     0.00339015    0.05960207    0.08230102
     atom   65 type  3   force =    -0.00882650    0.02329653    0.02064422
     atom   66 type  3   force =    -0.01597267    0.00338035   -0.01893399
     atom   67 type  3   force =     0.03097840    0.00050159    0.10250800
     atom   68 type  3   force =    -0.06628982   -0.03461208    0.08033679
     atom   69 type  3   force =     0.04554890    0.03734448    0.03221180
     atom   70 type  3   force =    -0.05032919   -0.06706488   -0.05587024
     atom   71 type  3   force =     0.04983664   -0.03757150    0.05016573
     atom   72 type  3   force =     0.01388737    0.11173604    0.19923358
     atom   73 type  3   force =    -0.07908754    0.05096149   -0.07675221
     atom   74 type  3   force =     0.00517162   -0.06453908   -0.04804536
     atom   75 type  3   force =    -0.06399654    0.00851066   -0.00271055
     atom   76 type  3   force =     0.04443677   -0.10610186   -0.06075295
     atom   77 type  3   force =    -0.03075691    0.07728326    0.03329352
     atom   78 type  3   force =    -0.09901500   -0.02092402   -0.06993765
     atom   79 type  3   force =    -0.00398483   -0.04279794    0.03492516
     atom   80 type  3   force =    -0.03854567    0.03683929    0.00174071
     atom   81 type  3   force =     0.03034417    0.01869174   -0.03950028
     atom   82 type  3   force =    -0.04206735    0.01720771   -0.05481943
     atom   83 type  3   force =    -0.05084090    0.09763568    0.01844647
     atom   84 type  3   force =    -0.02544907    0.03829129   -0.04275821
     atom   85 type  3   force =    -0.01207427   -0.09869564    0.07661158
     atom   86 type  3   force =    -0.02420477   -0.07769225   -0.10565511
     atom   87 type  3   force =     0.02202944   -0.00716818   -0.06788285
     atom   88 type  3   force =    -0.00065326    0.05376877   -0.11896368
     atom   89 type  3   force =    -0.04821130   -0.02079059    0.06500150
     atom   90 type  3   force =     0.05198423   -0.04937642   -0.04548781
     atom   91 type  3   force =     0.06652636    0.04083419   -0.01575681
     atom   92 type  3   force =    -0.00903681   -0.00578025   -0.02101410
     atom   93 type  3   force =    -0.08708760   -0.10491232   -0.00542232
     atom   94 type  3   force =     0.07178523    0.08988944    0.05010951
     atom   95 type  3   force =    -0.01115449   -0.01105410   -0.06991258
     atom   96 type  3   force =    -0.09370021   -0.01187199    0.15318511
     atom   97 type  3   force =    -0.02817983   -0.04657446   -0.00195225
     atom   98 type  3   force =     0.10420360    0.01108945    0.09551587
     atom   99 type  3   force =    -0.05556616   -0.00665018    0.03626236
     atom  100 type  3   force =     0.02263175   -0.07808600    0.07959852
     atom  101 type  3   force =    -0.06018371    0.02734117   -0.01105821
     atom  102 type  3   force =     0.03443441    0.01882677    0.03298111
     atom  103 type  3   force =     0.04745801    0.03163708    0.09683053
     atom  104 type  3   force =    -0.08388283   -0.07674049   -0.00377135
     atom  105 type  3   force =     0.02920646    0.05408013   -0.00674603
     atom  106 type  3   force =     0.03800151    0.11410742   -0.01566894
     atom  107 type  3   force =    -0.02511729   -0.00403161    0.02798246
     atom  108 type  3   force =     0.04693259   -0.00941442    0.04590056
     atom  109 type  3   force =     0.10916388    0.01277981   -0.03819004
     atom  110 type  3   force =     0.13931713    0.00792446   -0.06110965
     atom  111 type  3   force =    -0.02022075   -0.01790527    0.01739441
     atom  112 type  3   force =    -0.06783461    0.09547333   -0.01145661
     atom  113 type  3   force =     0.02120133   -0.01976950   -0.05639918
     atom  114 type  3   force =    -0.03881979    0.02194730    0.08090674
     atom  115 type  3   force =     0.01344322   -0.02835669    0.07626071
     atom  116 type  3   force =     0.08466385    0.00794466   -0.04845210
     atom  117 type  3   force =    -0.06865474    0.00337849    0.03756839
     atom  118 type  3   force =    -0.11871970    0.11199770    0.02557600
     atom  119 type  3   force =     0.07045778   -0.00676760    0.03232718
     atom  120 type  3   force =     0.00935490    0.02884154    0.10484967
     atom  121 type  3   force =     0.12979076    0.07608697    0.01587314
     atom  122 type  4   force =     0.04032579    0.01291599    0.02876686
     atom  123 type  4   force =    -0.06117191   -0.03936667   -0.01004022
     atom  124 type  4   force =     0.00354517    0.02399612   -0.04508342
     atom  125 type  4   force =     0.01814777   -0.00575306   -0.00419560
     atom  126 type  4   force =    -0.13129095   -0.14924526   -0.01132046
     atom  127 type  4   force =    -0.09947706   -0.12889544   -0.07374372
     atom  128 type  4   force =     0.01054971   -0.04946611    0.05980818
     atom  129 type  4   force =     0.00897019   -0.06173585   -0.01128946
     atom  130 type  4   force =     0.00887597   -0.02062145    0.00865586
     atom  131 type  4   force =     0.00670134   -0.01824024   -0.01316354
     atom  132 type  4   force =     0.04933493   -0.03850191   -0.01644582
     atom  133 type  4   force =    -0.03645472   -0.05911683    0.03641616
     atom  134 type  4   force =    -0.09353441    0.00763071   -0.04002709
     atom  135 type  4   force =     0.02245241   -0.02686924    0.12475967
     atom  136 type  4   force =     0.01697786   -0.01018158   -0.01748889
     atom  137 type  4   force =     0.05437003    0.04118881   -0.03373714
     atom  138 type  4   force =     0.01584638    0.00195790   -0.01524659
     atom  139 type  4   force =    -0.00688770    0.02795746   -0.02041457
     atom  140 type  4   force =     0.02144640   -0.06879591    0.02238489
     atom  141 type  4   force =     0.05834333   -0.01210130    0.00222667
     atom  142 type  4   force =    -0.10494719   -0.05313557    0.04680389
     atom  143 type  4   force =    -0.14987563   -0.03704025   -0.09744358
     atom  144 type  4   force =    -0.00566596   -0.01757238    0.03007741
     atom  145 type  4   force =    -0.03975819    0.03695261    0.01639326
     atom  146 type  4   force =    -0.02181074    0.02451584   -0.02449601
     atom  147 type  4   force =    -0.13171871   -0.04979000    0.03203368
     atom  148 type  4   force =     0.01358011   -0.02067454   -0.01283339
     atom  149 type  4   force =     0.06866323    0.03551627    0.01733907
     atom  150 type  4   force =    -0.06340310   -0.05300071   -0.01990046
     atom  151 type  4   force =     0.05080875    0.03687359    0.02458506
     atom  152 type  4   force =    -0.05788692    0.02432380    0.01493184
     atom  153 type  4   force =     0.07638510    0.01866422    0.07663418
     atom  154 type  4   force =    -0.09685832    0.00413907    0.00997713
     atom  155 type  4   force =    -0.01261594   -0.01419821   -0.00918472
     atom  156 type  4   force =    -0.05007145    0.04132921   -0.02229134
     atom  157 type  4   force =     0.04093892   -0.01572692   -0.00398621
     atom  158 type  4   force =     0.01394136    0.01227685   -0.02429351
     atom  159 type  4   force =     0.06666616    0.00726146   -0.05954132
     atom  160 type  4   force =     0.04010259   -0.08941006    0.01590119
     atom  161 type  4   force =     0.00297120   -0.02881944    0.07153612
     atom  162 type  4   force =     0.05296080    0.09445711    0.01593109
     atom  163 type  4   force =    -0.01346906    0.06016101   -0.01200074
     atom  164 type  4   force =     0.02449575    0.02901808    0.06698671
     atom  165 type  4   force =    -0.07210146    0.01377723    0.05022951
     atom  166 type  4   force =    -0.00164931   -0.10198570    0.00484553
     atom  167 type  4   force =    -0.03905034   -0.03989745   -0.01504080
     atom  168 type  4   force =     0.01700230   -0.18447306    0.05862045
     atom  169 type  4   force =     0.05267331    0.04502327   -0.09531066
     atom  170 type  4   force =     0.02803807   -0.04782530   -0.03569382
     atom  171 type  4   force =     0.01256232   -0.01689888    0.00348149
     atom  172 type  4   force =    -0.06996639    0.01242607   -0.04370083
     atom  173 type  4   force =    -0.03893478    0.00692573   -0.02529753
     atom  174 type  4   force =     0.05722705    0.08562131    0.01766348
     atom  175 type  4   force =     0.01312813    0.04186194    0.00299101
     atom  176 type  4   force =     0.03636571   -0.00646090    0.02044928
     atom  177 type  4   force =     0.06392297   -0.00433115   -0.00797195
     atom  178 type  4   force =    -0.00371842    0.03652690    0.04568658
     atom  179 type  4   force =    -0.01282113    0.02800501    0.00339397
     atom  180 type  4   force =    -0.05734718    0.00563977   -0.00718706
     atom  181 type  4   force =     0.00002162   -0.00054249    0.09602844
     atom  182 type  4   force =    -0.02430853   -0.06121612    0.05019710
     atom  183 type  4   force =    -0.03325681    0.10710994   -0.05874617
     atom  184 type  4   force =     0.01828362   -0.01121740    0.05182635
     atom  185 type  4   force =     0.04926427   -0.03490790   -0.01725370
     atom  186 type  4   force =    -0.01145101   -0.01723847    0.00184370
     atom  187 type  4   force =    -0.02778095   -0.01194037    0.05056869
     atom  188 type  4   force =    -0.02031616   -0.01781201   -0.04713053
     atom  189 type  4   force =    -0.01978544    0.03509293   -0.00051101
     atom  190 type  4   force =     0.05860288   -0.03609338    0.00667130
     atom  191 type  4   force =    -0.01886977   -0.00112777   -0.00461884
     atom  192 type  4   force =    -0.03509027    0.02414053   -0.03090603
     atom  193 type  4   force =     0.03567963   -0.06484254    0.02227422
     atom  194 type  4   force =    -0.05006691    0.00064690   -0.00547905
     atom  195 type  4   force =    -0.01118650   -0.00216382    0.01609646
     atom  196 type  4   force =     0.00240032   -0.02549267   -0.06095858
     atom  197 type  4   force =     0.00910351    0.01573091    0.00009881
     atom  198 type  4   force =    -0.03838800    0.04138986   -0.01352563
     atom  199 type  4   force =     0.00810345   -0.02592108    0.00628647
     atom  200 type  4   force =    -0.00956980   -0.03598479    0.05785989
     atom  201 type  4   force =    -0.01077445   -0.04756878   -0.02848215
     atom  202 type  4   force =     0.01617134    0.01503787    0.04174699
     atom  203 type  4   force =    -0.05690248   -0.05922326   -0.10298032
     atom  204 type  4   force =    -0.00223819    0.01815483    0.06253988
     atom  205 type  4   force =     0.01020015    0.07385177   -0.01366586
     atom  206 type  4   force =    -0.04080281   -0.03160884   -0.04454221
     atom  207 type  4   force =    -0.00572392   -0.03087595    0.03683069
     atom  208 type  4   force =    -0.00082738    0.01179743   -0.01003710
     atom  209 type  4   force =    -0.04476625    0.03119051   -0.05011446
     atom  210 type  4   force =    -0.01129328    0.01311541   -0.05114342
     atom  211 type  4   force =    -0.00072263   -0.03503789   -0.05674172
     atom  212 type  4   force =     0.04280682   -0.03970885   -0.03298763
     atom  213 type  4   force =     0.04284081   -0.14884557   -0.08356424
     atom  214 type  4   force =     0.05177607    0.06491572   -0.05766150
     atom  215 type  4   force =    -0.02859408   -0.03129613    0.00861777
     atom  216 type  4   force =    -0.02215336    0.07573397    0.04103480
     atom  217 type  4   force =    -0.02422207    0.03774310   -0.04192671
     atom  218 type  4   force =     0.01487555    0.02518479   -0.00780085
     atom  219 type  4   force =    -0.04373638   -0.04039304   -0.00905156
     atom  220 type  4   force =     0.01259970   -0.04145379    0.02295540
     atom  221 type  4   force =    -0.00422969    0.03039246    0.06504346
     atom  222 type  4   force =     0.10427222   -0.01661141    0.00593656
     atom  223 type  4   force =     0.02169501    0.08576260   -0.05078819
     atom  224 type  4   force =     0.03972438    0.02487909   -0.01329987
     atom  225 type  4   force =     0.06139206    0.04948516   -0.00350320
     atom  226 type  4   force =     0.02012381   -0.02512093    0.02098385
     atom  227 type  4   force =    -0.02264670    0.05205606    0.04195497
     atom  228 type  4   force =     0.00320776   -0.01701607   -0.02713786
     atom  229 type  4   force =     0.01368743    0.00009488    0.05437467
     atom  230 type  4   force =     0.05295556    0.04898898   -0.00146896
     atom  231 type  4   force =     0.04269002   -0.02078592    0.07111349
     atom  232 type  4   force =     0.04284191   -0.06430302   -0.00866050
     atom  233 type  4   force =     0.03887361    0.05829599    0.02886585
     atom  234 type  4   force =    -0.03282984   -0.05971412   -0.11454159
     atom  235 type  4   force =    -0.01907682    0.15902380   -0.01430631
     atom  236 type  4   force =     0.08801696   -0.01593048   -0.04552110
     atom  237 type  4   force =     0.00702961    0.00738797    0.01218430
     atom  238 type  4   force =    -0.01092118   -0.01291157    0.04271938
     atom  239 type  4   force =     0.01924038   -0.03615950    0.00739850
     atom  240 type  4   force =     0.07763901    0.03086065    0.02828519
     atom  241 type  4   force =     0.03115017   -0.01969180   -0.00483190
     atom  242 type  4   force =    -0.20298358   -0.02953386    0.07895047
     atom  243 type  4   force =     0.02974876    0.00105585    0.02054313
     atom  244 type  4   force =    -0.05088122   -0.00157457   -0.04509128
     atom  245 type  4   force =    -0.01908267   -0.02922850   -0.09478358
     atom  246 type  4   force =     0.02441889   -0.00900604   -0.03117178
     atom  247 type  4   force =    -0.00633791   -0.01717352   -0.06711296
     atom  248 type  4   force =    -0.01543683    0.03070934    0.06007836
     atom  249 type  4   force =     0.03803355    0.02615725   -0.06218881
     atom  250 type  4   force =    -0.08197262   -0.01670110    0.00427290
     atom  251 type  4   force =    -0.00793786   -0.00403290   -0.01947166
     atom  252 type  4   force =    -0.07129424    0.01914279   -0.05262365
     atom  253 type  4   force =     0.00132979   -0.04532977   -0.11010161
     atom  254 type  4   force =    -0.09101245    0.01336428   -0.01468520
     atom  255 type  4   force =     0.01605807   -0.01876724    0.02043276
     atom  256 type  4   force =     0.03203287   -0.00709872    0.03476131
     atom  257 type  4   force =     0.02690667   -0.02498041    0.03384507
     atom  258 type  4   force =     0.00066221    0.01269689   -0.02907772
     atom  259 type  4   force =     0.04799919    0.01497269   -0.00884388
     atom  260 type  4   force =    -0.04565441   -0.01159223   -0.06084356
     atom  261 type  4   force =     0.04135176    0.02811852   -0.03983379
     atom  262 type  4   force =    -0.05742855   -0.01094233    0.04497837
     atom  263 type  4   force =     0.09715489   -0.02676006    0.01794269
     atom  264 type  4   force =    -0.04569497    0.04257736   -0.02244812
     atom  265 type  4   force =     0.02482784    0.01495089   -0.03956085
     atom  266 type  4   force =     0.02703201    0.02038327   -0.04794137
     atom  267 type  4   force =     0.07758428   -0.00410080   -0.04303347
     atom  268 type  4   force =     0.02714913   -0.04391311   -0.03136335
     atom  269 type  4   force =    -0.01663476   -0.06671090    0.00513522
     atom  270 type  4   force =    -0.07175938   -0.01323675   -0.02959658
     atom  271 type  4   force =     0.07030360    0.01221367    0.00945092
     atom  272 type  4   force =     0.02767502    0.05481480   -0.01270940
     atom  273 type  4   force =     0.00241433   -0.00621203    0.04761367
     atom  274 type  4   force =    -0.02420829    0.00239178    0.02692644
     atom  275 type  4   force =    -0.01188924   -0.02063362    0.01829408
     atom  276 type  4   force =     0.04362237    0.07933158    0.06983654
     atom  277 type  4   force =     0.02681352   -0.01180554   -0.07636140
     atom  278 type  4   force =    -0.02156678    0.06316313    0.04442349
     atom  279 type  4   force =    -0.01204512   -0.02157397    0.00409369
     atom  280 type  4   force =    -0.02696587    0.05676688    0.00980926
     atom  281 type  4   force =     0.04151403    0.03153756    0.04335351
     atom  282 type  4   force =     0.03671343   -0.05133927    0.01540215
     atom  283 type  4   force =     0.00332008   -0.06595997   -0.03149823
     atom  284 type  4   force =     0.07251039   -0.05419993   -0.03023264
     atom  285 type  4   force =     0.01860679   -0.01655497    0.01476761
     atom  286 type  4   force =    -0.12061070   -0.02975141   -0.06874928
     atom  287 type  4   force =    -0.01848266   -0.00308548    0.04441274
     atom  288 type  4   force =     0.06711493   -0.00374445   -0.05577079
     atom  289 type  4   force =     0.02109442    0.09155546   -0.02686334
     atom  290 type  4   force =     0.10184251   -0.05820239   -0.11024815
     atom  291 type  4   force =    -0.03009312    0.01400787   -0.01588598
     atom  292 type  4   force =    -0.01942362   -0.01124983    0.01438287
     atom  293 type  4   force =    -0.00692025   -0.02660488   -0.04992064
     atom  294 type  4   force =     0.08047096   -0.02998422    0.16912494
     atom  295 type  4   force =    -0.05384354    0.06399641    0.06802132
     atom  296 type  4   force =    -0.06000139    0.01922447    0.03749900
     atom  297 type  4   force =    -0.01775016    0.01405832   -0.02409726
     atom  298 type  4   force =     0.01310588    0.01324804    0.01795920
     atom  299 type  4   force =    -0.06342129   -0.13598740   -0.01570325
     atom  300 type  4   force =    -0.01171226   -0.05288423   -0.03399393
     atom  301 type  4   force =    -0.07380978    0.03978469    0.02587901
     atom  302 type  4   force =     0.00533862    0.12631548    0.11109007
     atom  303 type  4   force =    -0.01421057   -0.02291290   -0.03981259
     atom  304 type  4   force =    -0.03916785   -0.00110244    0.01053181
     atom  305 type  4   force =    -0.03642798   -0.01628391    0.00777337
     atom  306 type  4   force =     0.00807543    0.01581794   -0.05855712
     atom  307 type  4   force =     0.02345380    0.02019951    0.04241998
     atom  308 type  4   force =     0.00945777    0.00075605   -0.05131348
     atom  309 type  4   force =     0.00195230   -0.02055501    0.01412558
     atom  310 type  4   force =     0.09237636   -0.00427892    0.11087488
     atom  311 type  4   force =    -0.03269262   -0.01333324    0.01163035
     atom  312 type  4   force =    -0.02335985    0.02147901    0.01477612
     atom  313 type  4   force =     0.01326314   -0.08522496    0.01962009
     atom  314 type  4   force =    -0.04610264    0.01326378   -0.02427549
     atom  315 type  4   force =    -0.01721349   -0.00384658   -0.02777296
     atom  316 type  4   force =    -0.00555427   -0.00390879    0.01820882
     atom  317 type  4   force =    -0.00182781    0.06898487    0.03997412
     atom  318 type  4   force =     0.03997259    0.00280387   -0.01666016
     atom  319 type  4   force =    -0.02971533   -0.01473494   -0.06086908
     atom  320 type  4   force =     0.04191530   -0.01824356   -0.02618676
     atom  321 type  4   force =    -0.02600650    0.12822131    0.03741179
     atom  322 type  4   force =     0.02371227    0.01075261   -0.06514787
     atom  323 type  4   force =     0.03974093   -0.03648155    0.04934995
     atom  324 type  4   force =     0.05264573    0.00490953   -0.02307152
     atom  325 type  4   force =     0.03446329   -0.02326153   -0.02820024
     atom  326 type  4   force =    -0.00821335    0.11662721    0.05613339
     atom  327 type  4   force =     0.04766071    0.04966624   -0.03946243
     atom  328 type  4   force =     0.02126661    0.00032192   -0.02037278
     atom  329 type  4   force =     0.10558168    0.01068553    0.01858280
     atom  330 type  4   force =     0.02373481   -0.03665541   -0.05450727
     atom  331 type  4   force =     0.03236372    0.04217103   -0.00799902
     atom  332 type  4   force =     0.02198053    0.05072712   -0.01239063
     atom  333 type  4   force =    -0.05385677   -0.05603235    0.02746804
     atom  334 type  4   force =     0.02379511    0.04553097   -0.02786962
     atom  335 type  4   force =     0.06795164    0.02174312   -0.02184851
     atom  336 type  4   force =    -0.03932690   -0.03109498   -0.04376387
     atom  337 type  4   force =    -0.00461500   -0.00478800   -0.02316706
     atom  338 type  4   force =    -0.05726897    0.04319616   -0.01892494
     atom  339 type  5   force =    -0.02042756    0.02370025    0.03454617
     atom  340 type  5   force =     0.00643206   -0.02892546    0.02799893
     atom  341 type  6   force =     0.01674975    0.00396296    0.00134233
     atom  342 type  6   force =    -0.01791639    0.01221036    0.00150165
     atom  343 type  6   force =     0.01011143   -0.01553625   -0.00246162
     atom  344 type  6   force =    -0.01557248   -0.02507801   -0.00817037
     atom  345 type  6   force =     0.00400038    0.02107266   -0.00045173
     atom  346 type  6   force =    -0.00610838    0.01291036    0.00201811
     atom  347 type  6   force =     0.00038475   -0.00407468    0.00113626
     atom  348 type  6   force =    -0.00008295   -0.00352961    0.00042331
     atom  349 type  6   force =     0.00967744   -0.00282136   -0.00217900
     atom  350 type  6   force =    -0.00998747   -0.00089824    0.00010690
     atom  351 type  7   force =     0.00228631    0.00549582   -0.00257633
     atom  352 type  7   force =    -0.00029426    0.00649027    0.00423184
     atom  353 type  7   force =     0.00463989   -0.00620324   -0.00090940
     atom  354 type  7   force =    -0.00113347   -0.00468858   -0.00327767
     atom  355 type  7   force =     0.00333806   -0.00221234   -0.00109015
     atom  356 type  7   force =    -0.00192606   -0.00454277   -0.00136626
     atom  357 type  7   force =     0.00260088    0.00501879    0.00164372
     atom  358 type  7   force =    -0.00411827    0.00246383   -0.00093289

     Total force =     1.683401     Total SCF correction =     0.000137


     Computing stress (Cartesian axis) and pressure


     negative rho (up, down):  6.014E-02 0.000E+00
          total   stress  (Ry/bohr**3)                   (kbar)     P=        8.00
   0.00005194   0.00000162  -0.00000318            7.64        0.24       -0.47
   0.00000162   0.00006224   0.00000375            0.24        9.16        0.55
  -0.00000318   0.00000375   0.00004890           -0.47        0.55        7.19


     Writing all to output data dir ./outputs/pwscf.save/ :
     XML data file, charge density, pseudopotentials, collected wavefunctions
 
     init_run     :    145.08s CPU    148.12s WALL (       1 calls)
     electrons    :  74904.20s CPU  76110.28s WALL (       1 calls)
     forces       :     92.61s CPU     95.50s WALL (       1 calls)
     stress       :    349.87s CPU    354.87s WALL (       1 calls)

     Called by init_run:
     wfcinit      :    129.23s CPU    131.02s WALL (       1 calls)
     potinit      :      1.18s CPU      1.28s WALL (       1 calls)
     hinit0       :      1.40s CPU      1.45s WALL (       1 calls)

     Called by electrons:
     c_bands      :  62674.65s CPU  63323.76s WALL (     266 calls)
     sum_band     :  10974.53s CPU  11286.22s WALL (     266 calls)
     v_of_rho     :    121.72s CPU    126.15s WALL (     267 calls)
     newd         :    901.13s CPU   1135.64s WALL (     267 calls)
     PAW_pot      :    150.15s CPU    151.89s WALL (     267 calls)
     mix_rho      :     66.09s CPU     69.15s WALL (     266 calls)

     Called by c_bands:
     init_us_2    :    585.15s CPU    594.71s WALL (     534 calls)
     cegterg      :  61884.82s CPU  62521.94s WALL (     266 calls)

     Called by *egterg:
     cdiaghg      :    897.95s CPU    905.13s WALL (     584 calls)
     h_psi        :  34660.32s CPU  34996.34s WALL (     585 calls)
     s_psi        :  10265.93s CPU  10336.67s WALL (     585 calls)
     g_psi        :     40.23s CPU     40.79s WALL (     318 calls)

     Called by h_psi:
     h_psi:calbec :  10281.83s CPU  10346.30s WALL (     585 calls)
     vloc_psi     :  14043.11s CPU  14179.84s WALL (     585 calls)
                                        0.00s GPU  (     585 calls)
     add_vuspsi   :  10269.81s CPU  10342.90s WALL (     585 calls)

     General routines
     calbec       :  15710.18s CPU  15808.89s WALL (     868 calls)
     fft          :    125.86s CPU    130.74s WALL (    3494 calls)
     ffts         :     11.60s CPU     11.95s WALL (     533 calls)
     fftw         :  13561.45s CPU  13683.51s WALL ( 1501302 calls)
     interpolate  :     14.76s CPU     15.25s WALL (     267 calls)
 
     Parallel routines
 
     PWSCF        :     20h58m CPU     21h19m WALL

 
   This run was terminated on:  11:56:28   3Mar2026            

=------------------------------------------------------------------------------=
   JOB DONE.
=------------------------------------------------------------------------------=
