
     Program PWSCF v.7.5 starts on 14Mar2026 at 12:15:25 

     This program is part of the open-source Quantum ESPRESSO suite
     for quantum simulation of materials; please cite
         "P. Giannozzi et al., J. Phys.:Condens. Matter 21 395502 (2009);
         "P. Giannozzi et al., J. Phys.:Condens. Matter 29 465901 (2017);
         "P. Giannozzi et al., J. Chem. Phys. 152 154105 (2020);
          URL http://www.quantum-espresso.org", 
     in publications or presentations arising from this work. More details at
     http://www.quantum-espresso.org/quote

     Parallel version (MPI), running on    80 processors

     MPI processes distributed on     4 nodes
     56135 MiB available memory on the printing compute node when the environment starts
 
     Reading input from NaphthaleneOnGlassSite3Snapshot28.in
Warning: card &CELL ignored
Warning: card &FCP ignored
Warning: card &RISM ignored

     Current dimensions of program PWSCF are:
     Max number of different atomic species (ntypx) = 10
     Max number of k-points (npk) =  40000
     Max angular momentum in pseudopotentials (lmaxx) =  4
     file Na.paw.z_9.ld1.psl.v1.0.0-low.upf: wavefunction(s)  2P renormalized
     file O.pbe-n-kjpaw_psl.0.1.UPF: wavefunction(s)  2P renormalized
     file Al.pbe-n-kjpaw_psl.1.0.0.UPF: wavefunction(s)  3S 3P renormalized
     file C.pbe-n-kjpaw_psl.1.0.0.UPF: wavefunction(s)  2S 2P renormalized
 
     R & G space division:  proc/nbgrp/npool/nimage =      80
     Subspace diagonalization in iterative solution of the eigenvalue problem:
     one sub-group per band group will be used
     custom distributed-memory algorithm (size of sub-group:  8*  8 procs)

 
     Parallelization info
     --------------------
     sticks:   dense  smooth     PW     G-vecs:    dense   smooth      PW
     Min         450     400    100               199276   167008   20874
     Max         451     401    101               199303   167021   20885
     Sum       36073   32057   8021             15943719 13361281 1670237
 
     Using Slab Decomposition
 


     bravais-lattice index     =            0
     lattice parameter (alat)  =      35.4885  a.u.
     unit-cell volume          =  138228.4306 (a.u.)^3
     number of atoms/cell      =          358
     number of atomic types    =            7
     number of electrons       =      1872.00
     number of Kohn-Sham states=         1123
     kinetic-energy cutoff     =      80.0000  Ry
     charge density cutoff     =     360.0000  Ry
     scf convergence threshold =      1.0E-08
     mixing beta               =       0.1000
     number of iterations used =            8  plain     mixing
     Exchange-correlation= PBE
                           (   1   4   3   4   0   0   0)

     celldm(1)=  35.488539  celldm(2)=   0.000000  celldm(3)=   0.000000
     celldm(4)=   0.000000  celldm(5)=   0.000000  celldm(6)=   0.000000

     crystal axes: (cart. coord. in units of alat)
               a(1) = (   1.000000   0.000000   0.000000 )  
               a(2) = (   0.000000   1.000000   0.000000 )  
               a(3) = (   0.000000   0.000000   3.092666 )  

     reciprocal axes: (cart. coord. in units 2 pi/alat)
               b(1) = (  1.000000  0.000000  0.000000 )  
               b(2) = (  0.000000  1.000000  0.000000 )  
               b(3) = (  0.000000  0.000000  0.323346 )  


     PseudoPot. # 1 for Na read from file:
     /home/sabeel/VOCC_Simulation/pseudopotentials/SSSP_Precision/Na.paw.z_9.ld1.psl.v1.0.0-low.upf
     MD5 check sum: 32bccecb13d7399e6c7dae6fe6685ff0
     Pseudo is Projector augmented-wave + core cor, Zval =  9.0
     Generated using &quot;atomic&quot; code by A. Dal Corso  v.6.3MaX
     Shape of augmentation charge: PSQ
     Using radial grid of 1121 points,  4 beta functions with: 
                l(1) =   0
                l(2) =   0
                l(3) =   1
                l(4) =   1
     Q(r) pseudized with 0 coefficients 


     PseudoPot. # 2 for B  read from file:
     /home/sabeel/VOCC_Simulation/pseudopotentials/SSSP_Precision/B_pbe_v1.01.uspp.F.UPF
     MD5 check sum: d081ebb89d0c768e112975f650467a00
     Pseudo is Ultrasoft + core correction, Zval =  3.0
     Generated by new atomic code, or converted to UPF format
     Using radial grid of  781 points,  4 beta functions with: 
                l(1) =   0
                l(2) =   0
                l(3) =   1
                l(4) =   1
     Q(r) pseudized with  8 coefficients,  rinner =    1.100   1.100   1.100


     PseudoPot. # 3 for Si read from file:
     /home/sabeel/VOCC_Simulation/pseudopotentials/SSSP_Precision/Si.pbe-n-rrkjus_psl.1.0.0.UPF
     MD5 check sum: 0b0bb1205258b0d07b9f9672cf965d36
     Pseudo is Ultrasoft + core correction, Zval =  4.0
     Generated using "atomic" code by A. Dal Corso  v.5.1
     Using radial grid of 1141 points,  6 beta functions with: 
                l(1) =   0
                l(2) =   0
                l(3) =   1
                l(4) =   1
                l(5) =   2
                l(6) =   2
     Q(r) pseudized with 0 coefficients 


     PseudoPot. # 4 for O  read from file:
     /home/sabeel/VOCC_Simulation/pseudopotentials/SSSP_Precision/O.pbe-n-kjpaw_psl.0.1.UPF
     MD5 check sum: 0234752ac141de4415c5fc33072bef88
     Pseudo is Projector augmented-wave + core cor, Zval =  6.0
     Generated using "atomic" code by A. Dal Corso  v.5.0.99 svn rev. 10869
     Shape of augmentation charge: BESSEL
     Using radial grid of 1095 points,  4 beta functions with: 
                l(1) =   0
                l(2) =   0
                l(3) =   1
                l(4) =   1
     Q(r) pseudized with 0 coefficients 


     PseudoPot. # 5 for Al read from file:
     /home/sabeel/VOCC_Simulation/pseudopotentials/SSSP_Precision/Al.pbe-n-kjpaw_psl.1.0.0.UPF
     MD5 check sum: cfc449ca30b5f3223ec38ddd88ac046d
     Pseudo is Projector augmented-wave + core cor, Zval =  3.0
     Generated using "atomic" code by A. Dal Corso  v.5.1
     Shape of augmentation charge: PSQ
     Using radial grid of 1135 points,  6 beta functions with: 
                l(1) =   0
                l(2) =   0
                l(3) =   1
                l(4) =   1
                l(5) =   2
                l(6) =   2
     Q(r) pseudized with 0 coefficients 


     PseudoPot. # 6 for C  read from file:
     /home/sabeel/VOCC_Simulation/pseudopotentials/SSSP_Precision/C.pbe-n-kjpaw_psl.1.0.0.UPF
     MD5 check sum: 5d2aebdfa2cae82b50a7e79e9516da0f
     Pseudo is Projector augmented-wave + core cor, Zval =  4.0
     Generated using "atomic" code by A. Dal Corso  v.5.1
     Shape of augmentation charge: PSQ
     Using radial grid of 1073 points,  4 beta functions with: 
                l(1) =   0
                l(2) =   0
                l(3) =   1
                l(4) =   1
     Q(r) pseudized with 0 coefficients 


     PseudoPot. # 7 for H  read from file:
     /home/sabeel/VOCC_Simulation/pseudopotentials/SSSP_Precision/H_ONCV_PBE-1.0.oncvpsp.upf
     MD5 check sum: 1790becc920ee074925cf490c71280fe
     Pseudo is Norm-conserving, Zval =  1.0
     Generated using ONCVPSP code by D. R. Hamann
     Using radial grid of 1166 points,  2 beta functions with: 
                l(1) =   0
                l(2) =   0

     atomic species   valence    mass     pseudopotential
     Na                9.00    22.98977     Na( 1.00)
     B                 3.00    10.81000     B ( 1.00)
     Si                4.00    28.08500     Si( 1.00)
     O                 6.00    15.99900     O ( 1.00)
     Al                3.00    26.98154     Al( 1.00)
     C                 4.00    12.01100     C ( 1.00)
     H                 1.00     1.00800     H ( 1.00)

     No symmetry found



   Cartesian axes

     site n.     atom                  positions (alat units)
         1        Na     tau(   1) = (   0.2476327   0.1287261   1.4401902  )
         2        Na     tau(   2) = (   0.2347070   0.3964799   1.8357059  )
         3        Na     tau(   3) = (   0.2580766   0.4457236   1.6551511  )
         4        Na     tau(   4) = (   0.0484944   0.0277893   1.6277847  )
         5        Na     tau(   5) = (   0.2352313   0.0813062   1.2863150  )
         6        Na     tau(   6) = (   0.0747243   0.2371463   1.1982473  )
         7        Na     tau(   7) = (   0.1133306   0.7698962   1.8611434  )
         8        Na     tau(   8) = (   0.9037110   0.1954209   1.2700780  )
         9        Na     tau(   9) = (   0.5181841   0.1014052   1.4940734  )
        10        Na     tau(  10) = (   0.3803624   0.0140251   1.8302637  )
        11        Na     tau(  11) = (   0.3545179   0.4989222   1.3772145  )
        12        B      tau(  12) = (   0.9565860   0.6559989   1.4661680  )
        13        B      tau(  13) = (   0.3779039   0.3190213   1.8506233  )
        14        B      tau(  14) = (   0.6357433   0.7757670   1.3375748  )
        15        B      tau(  15) = (   0.9958362   0.0827877   1.8476266  )
        16        B      tau(  16) = (   0.6987179   0.5586979   1.3943070  )
        17        B      tau(  17) = (   0.0903279   0.5997535   1.2200041  )
        18        B      tau(  18) = (   0.9460845   0.5017876   1.4754679  )
        19        B      tau(  19) = (   0.0032347   0.0527127   1.2839437  )
        20        B      tau(  20) = (   0.1241012   0.5940167   1.6016841  )
        21        B      tau(  21) = (   0.4174729   0.9198072   1.5541475  )
        22        B      tau(  22) = (   0.4638227   0.9107282   1.2322731  )
        23        B      tau(  23) = (   0.5096053   0.7092947   1.5000083  )
        24        B      tau(  24) = (   0.4035376   0.9367665   1.6900270  )
        25        B      tau(  25) = (   0.7132674   0.8560217   1.2558196  )
        26        B      tau(  26) = (   0.2579773   0.4217781   1.2874388  )
        27        B      tau(  27) = (   0.1862793   0.2338812   1.3576537  )
        28        B      tau(  28) = (   0.2134919   0.3664862   1.5073156  )
        29        B      tau(  29) = (   0.3546252   0.0462610   1.5293894  )
        30        B      tau(  30) = (   0.8082206   0.9504483   1.6218439  )
        31        B      tau(  31) = (   0.4915043   0.5408159   1.2913026  )
        32        B      tau(  32) = (   0.2471486   0.9450605   1.4099193  )
        33        B      tau(  33) = (   0.7089246   0.1566090   1.6669558  )
        34        B      tau(  34) = (   0.4858908   0.1745693   1.3498737  )
        35        Si     tau(  35) = (   0.5740761   0.3686341   1.4981594  )
        36        Si     tau(  36) = (   0.9600416   0.6521543   1.2713743  )
        37        Si     tau(  37) = (   0.8029666   0.9237355   1.4090604  )
        38        Si     tau(  38) = (   0.6589027   0.0111466   1.4303706  )
        39        Si     tau(  39) = (   0.7148031   0.8518694   1.6658713  )
        40        Si     tau(  40) = (   0.4062844   0.4370669   1.7000479  )
        41        Si     tau(  41) = (   0.8652299   0.0194200   1.2866760  )
        42        Si     tau(  42) = (   0.8792462   0.4724358   1.3313926  )
        43        Si     tau(  43) = (   0.9761010   0.8191325   1.3004490  )
        44        Si     tau(  44) = (   0.0927580   0.6000365   1.4532062  )
        45        Si     tau(  45) = (   0.8492038   0.6801733   1.8429896  )
        46        Si     tau(  46) = (   0.7648638   0.9759642   1.8781504  )
        47        Si     tau(  47) = (   0.8282769   0.9005504   1.7531841  )
        48        Si     tau(  48) = (   0.2400871   0.2615564   1.6009290  )
        49        Si     tau(  49) = (   0.0782160   0.8578516   1.7113893  )
        50        Si     tau(  50) = (   0.1793983   0.5421597   1.3229395  )
        51        Si     tau(  51) = (   0.3045589   0.3154693   1.3856788  )
        52        Si     tau(  52) = (   0.1868342   0.9496617   1.8144358  )
        53        Si     tau(  53) = (   0.5597482   0.9942014   1.8563540  )
        54        Si     tau(  54) = (   0.3283405   0.8654915   1.7979255  )
        55        Si     tau(  55) = (   0.3944303   0.1342286   1.2558232  )
        56        Si     tau(  56) = (   0.5556116   0.4029995   1.7688172  )
        57        Si     tau(  57) = (   0.8886951   0.0519111   1.5515978  )
        58        Si     tau(  58) = (   0.9177874   0.8266438   1.8602018  )
        59        Si     tau(  59) = (   0.5141592   0.7513592   1.7304853  )
        60        Si     tau(  60) = (   0.6200680   0.7296116   1.5975635  )
        61        Si     tau(  61) = (   0.4531771   0.2653855   1.4551164  )
        62        Si     tau(  62) = (   0.9530092   0.1910999   1.6203079  )
        63        Si     tau(  63) = (   0.9806318   0.2594417   1.4695044  )
        64        Si     tau(  64) = (   0.1810221   0.5658568   1.7318917  )
        65        Si     tau(  65) = (   0.2276537   0.6624309   1.2309086  )
        66        Si     tau(  66) = (   0.7086066   0.3068958   1.4624957  )
        67        Si     tau(  67) = (   0.7573617   0.5008676   1.2102682  )
        68        Si     tau(  68) = (   0.0630774   0.5052222   1.8068999  )
        69        Si     tau(  69) = (   0.9531780   0.4208941   1.7332624  )
        70        Si     tau(  70) = (   0.8429520   0.6341042   1.3864806  )
        71        Si     tau(  71) = (   0.8255070   0.2513717   1.7092992  )
        72        Si     tau(  72) = (   0.4660404   0.3166643   1.5999861  )
        73        Si     tau(  73) = (   0.3218087   0.1696541   1.7095271  )
        74        Si     tau(  74) = (   0.6054871   0.0864265   1.2929813  )
        75        Si     tau(  75) = (   0.4402609   0.0821865   1.6559030  )
        76        Si     tau(  76) = (   0.3770531   0.0317907   1.3941734  )
        77        Si     tau(  77) = (   0.5059912   0.8072476   1.3243503  )
        78        Si     tau(  78) = (   0.6069382   0.5044701   1.6609957  )
        79        Si     tau(  79) = (   0.6370349   0.4244534   1.3741369  )
        80        Si     tau(  80) = (   0.6855674   0.7078304   1.8645318  )
        81        Si     tau(  81) = (   0.0765130   0.9298841   1.2314627  )
        82        Si     tau(  82) = (   0.9863684   0.4054382   1.2235204  )
        83        Si     tau(  83) = (   0.4950631   0.2585395   1.7548401  )
        84        Si     tau(  84) = (   0.5719431   0.1160579   1.7357262  )
        85        Si     tau(  85) = (   0.3566442   0.7389475   1.7027041  )
        86        Si     tau(  86) = (   0.5887626   0.6478135   1.7482870  )
        87        Si     tau(  87) = (   0.3778403   0.4701707   1.1981005  )
        88        Si     tau(  88) = (   0.7705746   0.7745811   1.3546535  )
        89        Si     tau(  89) = (   0.6353056   0.3899359   1.2194797  )
        90        Si     tau(  90) = (   0.3199297   0.6027545   1.8036004  )
        91        Si     tau(  91) = (   0.6901246   0.5787282   1.5496775  )
        92        Si     tau(  92) = (   0.1108815   0.9857043   1.4484254  )
        93        Si     tau(  93) = (   0.0087222   0.8101075   1.4596435  )
        94        Si     tau(  94) = (   0.4662737   0.5842118   1.4387730  )
        95        Si     tau(  95) = (   0.1497603   0.1150345   1.8191784  )
        96        Si     tau(  96) = (   0.9119816   0.9073773   1.5284091  )
        97        Si     tau(  97) = (   0.5081777   0.9347421   1.4393654  )
        98        Si     tau(  98) = (   0.9733658   0.9480751   1.7929925  )
        99        Si     tau(  99) = (   0.2449909   0.7736475   1.5958723  )
       100        Si     tau( 100) = (   0.2568298   0.7840856   1.3334763  )
       101        Si     tau( 101) = (   0.1600543   0.7576293   1.4557816  )
       102        Si     tau( 102) = (   0.9190690   0.2974838   1.8287833  )
       103        Si     tau( 103) = (   0.8499270   0.3745654   1.6104514  )
       104        Si     tau( 104) = (   0.8444491   0.5369054   1.7673517  )
       105        Si     tau( 105) = (   0.1203187   0.1732756   1.6597012  )
       106        Si     tau( 106) = (   0.6321686   0.6005607   1.2681838  )
       107        Si     tau( 107) = (   0.6235724   0.8470731   1.8048529  )
       108        Si     tau( 108) = (   0.7501132   0.1202716   1.2309056  )
       109        Si     tau( 109) = (   0.2746484   0.2046900   1.8670863  )
       110        Si     tau( 110) = (   0.2273259   0.0646953   1.6216725  )
       111        Si     tau( 111) = (   0.0729274   0.4042159   1.4579120  )
       112        Si     tau( 112) = (   0.6640697   0.1601480   1.5162335  )
       113        Si     tau( 113) = (   0.1226817   0.7031938   1.6887692  )
       114        Si     tau( 114) = (   0.8406300   0.5276586   1.5875131  )
       115        Si     tau( 115) = (   0.8389500   0.3149315   1.3901795  )
       116        Si     tau( 116) = (   0.1722727   0.9211130   1.5953570  )
       117        Si     tau( 117) = (   0.0763504   0.1375521   1.3930086  )
       118        Si     tau( 118) = (   0.3256209   0.9115638   1.2548481  )
       119        Si     tau( 119) = (   0.3955849   0.7224945   1.4035300  )
       120        Si     tau( 120) = (   0.4652418   0.5499611   1.5942954  )
       121        Si     tau( 121) = (   0.1212618   0.3651412   1.3045003  )
       122        O      tau( 122) = (   0.0295168   0.4481121   1.8630498  )
       123        O      tau( 123) = (   0.8632305   0.7660730   1.8351295  )
       124        O      tau( 124) = (   0.7865379   0.5198677   1.8292109  )
       125        O      tau( 125) = (   0.7687039   0.8065522   1.2712216  )
       126        O      tau( 126) = (   0.2613316   0.2462125   1.3627201  )
       127        O      tau( 127) = (   0.4383841   0.2721051   1.5384261  )
       128        O      tau( 128) = (   0.4075804   0.9041606   1.6244717  )
       129        O      tau( 129) = (   0.2891632   0.9821156   1.2266374  )
       130        O      tau( 130) = (   0.3003666   0.1796727   1.7902854  )
       131        O      tau( 131) = (   0.5973279   0.4225163   1.2949590  )
       132        O      tau( 132) = (   0.5334428   0.5020140   1.6146071  )
       133        O      tau( 133) = (   0.2755656   0.1058719   1.6786020  )
       134        O      tau( 134) = (   0.1545595   0.1075181   1.6150265  )
       135        O      tau( 135) = (   0.1198242   0.5723265   1.5291309  )
       136        O      tau( 136) = (   0.5826608   0.7211316   1.6806210  )
       137        O      tau( 137) = (   0.4384820   0.7620469   1.6969890  )
       138        O      tau( 138) = (   0.3813441   0.2977472   1.4178316  )
       139        O      tau( 139) = (   0.9518571   0.2429557   1.5505285  )
       140        O      tau( 140) = (   0.6668767   0.5177678   1.6031137  )
       141        O      tau( 141) = (   0.1520770   0.1695411   1.3620472  )
       142        O      tau( 142) = (   0.6925009   0.7509516   1.3753791  )
       143        O      tau( 143) = (   0.1434568   0.6580895   1.2139172  )
       144        O      tau( 144) = (   0.4761486   0.9028411   1.5138988  )
       145        O      tau( 145) = (   0.0631356   0.5782061   1.8492954  )
       146        O      tau( 146) = (   0.5876332   0.4146284   1.8503125  )
       147        O      tau( 147) = (   0.1071621   0.8902567   1.6361869  )
       148        O      tau( 148) = (   0.0331486   0.1967754   1.4407710  )
       149        O      tau( 149) = (   0.9443941   0.9810288   1.5588672  )
       150        O      tau( 150) = (   0.5485694   0.5774714   1.2625723  )
       151        O      tau( 151) = (   0.6090489   0.9225244   1.8421140  )
       152        O      tau( 152) = (   0.3184350   0.7927686   1.7545505  )
       153        O      tau( 153) = (   0.2965868   0.2359092   1.6579206  )
       154        O      tau( 154) = (   0.3399948   0.4149078   1.7451441  )
       155        O      tau( 155) = (   0.6583099   0.3076783   1.2358723  )
       156        O      tau( 156) = (   0.5620926   0.7442927   1.5385442  )
       157        O      tau( 157) = (   0.5556976   0.3175372   1.7688381  )
       158        O      tau( 158) = (   0.3525972   0.6632019   1.7471104  )
       159        O      tau( 159) = (   0.9620412   0.3446718   1.7697440  )
       160        O      tau( 160) = (   0.5313272   0.1848172   1.7709556  )
       161        O      tau( 161) = (   0.9429693   0.0183272   1.3239474  )
       162        O      tau( 162) = (   0.4858005   0.9533180   1.8755890  )
       163        O      tau( 163) = (   0.3657073   0.5328581   1.8345358  )
       164        O      tau( 164) = (   0.4406081   0.5066782   1.2484323  )
       165        O      tau( 165) = (   0.3135028   0.2834622   1.8690668  )
       166        O      tau( 166) = (   0.7907911   0.8360261   1.7119523  )
       167        O      tau( 167) = (   0.7289290   0.9234833   1.2340123  )
       168        O      tau( 168) = (   0.1454692   0.2885690   1.3267456  )
       169        O      tau( 169) = (   0.3914991   0.9066251   1.7575926  )
       170        O      tau( 170) = (   0.7079875   0.2222935   1.4707635  )
       171        O      tau( 171) = (   0.9743698   0.8515159   1.5269402  )
       172        O      tau( 172) = (   0.1330105   0.5361140   1.2470617  )
       173        O      tau( 173) = (   0.5827735   0.0420994   1.2254729  )
       174        O      tau( 174) = (   0.8602910   0.6220068   1.7811976  )
       175        O      tau( 175) = (   0.5252483   0.6418342   1.4684534  )
       176        O      tau( 176) = (   0.6556139   0.6691234   1.7930720  )
       177        O      tau( 177) = (   0.9478947   0.4555202   1.2814895  )
       178        O      tau( 178) = (   0.9699578   0.0766966   1.2188133  )
       179        O      tau( 179) = (   0.5480526   0.8088247   1.7836236  )
       180        O      tau( 180) = (   0.3152477   0.7447790   1.3880620  )
       181        O      tau( 181) = (   0.1477991   0.6460434   1.7450578  )
       182        O      tau( 182) = (   0.4226375   0.0083615   1.6949577  )
       183        O      tau( 183) = (   0.5004654   0.8461638   1.2447985  )
       184        O      tau( 184) = (   0.7864920   0.8423242   1.4036977  )
       185        O      tau( 185) = (   0.9046070   0.6136339   1.3286598  )
       186        O      tau( 186) = (   0.1308852   0.5564651   1.3912596  )
       187        O      tau( 187) = (   0.0181193   0.9388870   1.8632981  )
       188        O      tau( 188) = (   0.5236768   0.3172741   1.4469420  )
       189        O      tau( 189) = (   0.6771903   0.1363695   1.2729556  )
       190        O      tau( 190) = (   0.5668565   0.7520726   1.3411952  )
       191        O      tau( 191) = (   0.4390184   0.1054952   1.8920128  )
       192        O      tau( 192) = (   0.2801127   0.0556319   1.5537880  )
       193        O      tau( 193) = (   0.9517833   0.2240015   1.8530263  )
       194        O      tau( 194) = (   0.4078786   0.5134087   1.6517908  )
       195        O      tau( 195) = (   0.6735166   0.7941076   1.8547702  )
       196        O      tau( 196) = (   0.7896414   0.2674110   1.3392843  )
       197        O      tau( 197) = (   0.9136500   0.5214282   1.5392122  )
       198        O      tau( 198) = (   0.5881526   0.4350093   1.4460280  )
       199        O      tau( 199) = (   0.7745755   0.5842257   1.3844862  )
       200        O      tau( 200) = (   0.2034896   0.9862494   1.6415920  )
       201        O      tau( 201) = (   0.1233221   0.6813655   1.4530684  )
       202        O      tau( 202) = (   0.7937827   0.3272627   1.4639956  )
       203        O      tau( 203) = (   0.4473563   0.5396589   1.5104804  )
       204        O      tau( 204) = (   0.6542799   0.3403998   1.5182787  )
       205        O      tau( 205) = (   0.8234572   0.7113307   1.3622509  )
       206        O      tau( 206) = (   0.8127487   0.4431771   1.5824090  )
       207        O      tau( 207) = (   0.5134106   0.6764784   1.7758121  )
       208        O      tau( 208) = (   0.1836556   0.7783442   1.3761575  )
       209        O      tau( 209) = (   0.8104766   0.3105590   1.6473803  )
       210        O      tau( 210) = (   0.3044033   0.9850075   1.3843284  )
       211        O      tau( 211) = (   0.1301504   0.8965179   1.7717389  )
       212        O      tau( 212) = (   0.3197141   0.1653364   1.2298596  )
       213        O      tau( 213) = (   0.4699233   0.1934200   1.4196372  )
       214        O      tau( 214) = (   0.2809558   0.8612246   1.3097159  )
       215        O      tau( 215) = (   0.4264163   0.2824703   1.8051299  )
       216        O      tau( 216) = (   0.6599679   0.6539216   1.5790006  )
       217        O      tau( 217) = (   0.7349642   0.9291111   1.6364595  )
       218        O      tau( 218) = (   0.0099961   0.4612132   1.4800917  )
       219        O      tau( 219) = (   0.5892025   0.1978638   1.5290320  )
       220        O      tau( 220) = (   0.0485841   0.8646896   1.2765110  )
       221        O      tau( 221) = (   0.9732948   0.8322736   1.3845405  )
       222        O      tau( 222) = (   0.4005127   0.1467648   1.7001924  )
       223        O      tau( 223) = (   0.8561165   0.3880932   1.3551362  )
       224        O      tau( 224) = (   0.1908703   0.7320545   1.6493092  )
       225        O      tau( 225) = (   0.5316561   0.3624401   1.5720686  )
       226        O      tau( 226) = (   0.6407674   0.0341441   1.3503554  )
       227        O      tau( 227) = (   0.2507360   0.3493753   1.4464087  )
       228        O      tau( 228) = (   0.5138994   0.8709061   1.3834646  )
       229        O      tau( 229) = (   0.9079300   0.5013233   1.4088368  )
       230        O      tau( 230) = (   0.4395504   0.1937154   1.2966161  )
       231        O      tau( 231) = (   0.2308999   0.6103161   1.2990312  )
       232        O      tau( 232) = (   0.3685013   0.9700313   1.5258447  )
       233        O      tau( 233) = (   0.8514985   0.9494698   1.6877232  )
       234        O      tau( 234) = (   0.0187499   0.4824011   1.7364241  )
       235        O      tau( 235) = (   0.2414021   0.3421124   1.5740169  )
       236        O      tau( 236) = (   0.6097970   0.4413714   1.7163163  )
       237        O      tau( 237) = (   0.4788214   0.4352721   1.7472383  )
       238        O      tau( 238) = (   0.1395403   0.9630524   1.5257738  )
       239        O      tau( 239) = (   0.3787358   0.0784353   1.3203646  )
       240        O      tau( 240) = (   0.5839692   0.9685892   1.4551464  )
       241        O      tau( 241) = (   0.9110607   0.6557788   1.2003494  )
       242        O      tau( 242) = (   0.0686474   0.1043740   1.8437037  )
       243        O      tau( 243) = (   0.1460976   0.3999842   1.5060950  )
       244        O      tau( 244) = (   0.4166165   0.3782170   1.6358330  )
       245        O      tau( 245) = (   0.0075933   0.9084354   1.7265037  )
       246        O      tau( 246) = (   0.8482460   0.9888286   1.2074661  )
       247        O      tau( 247) = (   0.6787187   0.3475581   1.3906861  )
       248        O      tau( 248) = (   0.2793975   0.6318760   1.8700688  )
       249        O      tau( 249) = (   0.1753735   0.9662414   1.3957977  )
       250        O      tau( 250) = (   0.0079684   0.6039592   1.4520956  )
       251        O      tau( 251) = (   0.6799702   0.7916690   1.6137563  )
       252        O      tau( 252) = (   0.8228944   0.4963375   1.2716413  )
       253        O      tau( 253) = (   0.1652982   0.5553089   1.6491463  )
       254        O      tau( 254) = (   0.6527640   0.8346788   1.2935381  )
       255        O      tau( 255) = (   0.0358116   0.1810737   1.6422342  )
       256        O      tau( 256) = (   0.5638762   0.0484964   1.7892635  )
       257        O      tau( 257) = (   0.7314789   0.9670683   1.4359075  )
       258        O      tau( 258) = (   0.2559548   0.8899428   1.4535926  )
       259        O      tau( 259) = (   0.7774448   0.5773609   1.5598674  )
       260        O      tau( 260) = (   0.0868638   0.6515873   1.6288983  )
       261        O      tau( 261) = (   0.2614827   0.9212168   1.7891965  )
       262        O      tau( 262) = (   0.1954831   0.1735609   1.8664394  )
       263        O      tau( 263) = (   0.9906684   0.7948073   1.8435173  )
       264        O      tau( 264) = (   0.4575167   0.9955248   1.4051103  )
       265        O      tau( 265) = (   0.7735858   0.2011661   1.2118609  )
       266        O      tau( 266) = (   0.8814090   0.9281431   1.4499689  )
       267        O      tau( 267) = (   0.4072071   0.9256292   1.2771435  )
       268        O      tau( 268) = (   0.8399764   0.8937974   1.5751596  )
       269        O      tau( 269) = (   0.9802476   0.7272430   1.4739436  )
       270        O      tau( 270) = (   0.4029974   0.6353892   1.4077172  )
       271        O      tau( 271) = (   0.5236271   0.0940762   1.6637713  )
       272        O      tau( 272) = (   0.2291142   0.8566340   1.6031926  )
       273        O      tau( 273) = (   0.1369597   0.1529802   1.7410824  )
       274        O      tau( 274) = (   0.8956842   0.4684356   1.7728116  )
       275        O      tau( 275) = (   0.0304714   0.3296381   1.4668483  )
       276        O      tau( 276) = (   0.9261533   0.1126670   1.5937994  )
       277        O      tau( 277) = (   0.3196110   0.7473434   1.6269653  )
       278        O      tau( 278) = (   0.2346612   0.4755155   1.3381933  )
       279        O      tau( 279) = (   0.0309321   0.9618656   1.4299785  )
       280        O      tau( 280) = (   0.1026240   0.4047238   1.3770124  )
       281        O      tau( 281) = (   0.0996948   0.0720356   1.4419196  )
       282        O      tau( 282) = (   0.9796419   0.7336502   1.2951357  )
       283        O      tau( 283) = (   0.4798587   0.2721799   1.6719849  )
       284        O      tau( 284) = (   0.1447462   0.5042309   1.7791641  )
       285        O      tau( 285) = (   0.6584207   0.0850578   1.4744274  )
       286        O      tau( 286) = (   0.8447302   0.2856675   1.7867899  )
       287        O      tau( 287) = (   0.9236456   0.3532967   1.8933803  )
       288        O      tau( 288) = (   0.7131244   0.4260542   1.2089447  )
       289        O      tau( 289) = (   0.1815374   0.0351118   1.8104616  )
       290        O      tau( 290) = (   0.0329975   0.6097415   1.2681351  )
       291        O      tau( 291) = (   0.8998275   0.8951096   1.8045433  )
       292        O      tau( 292) = (   0.3016404   0.4593341   1.2337882  )
       293        O      tau( 293) = (   0.2631331   0.5633327   1.7490475  )
       294        O      tau( 294) = (   0.7023044   0.1539457   1.5910141  )
       295        O      tau( 295) = (   0.5450848   0.1349270   1.3303906  )
       296        O      tau( 296) = (   0.1632620   0.2443342   1.6379519  )
       297        O      tau( 297) = (   0.1916640   0.3894955   1.2601897  )
       298        O      tau( 298) = (   0.0615898   0.0043928   1.2718305  )
       299        O      tau( 299) = (   0.3967139   0.3875856   1.8762703  )
       300        O      tau( 300) = (   0.4846187   0.5410669   1.3666698  )
       301        O      tau( 301) = (   0.8186424   0.0168112   1.5820830  )
       302        O      tau( 302) = (   0.5974300   0.5762403   1.7036424  )
       303        O      tau( 303) = (   0.4323575   0.7667648   1.3386386  )
       304        O      tau( 304) = (   0.7719883   0.9374236   1.8028857  )
       305        O      tau( 305) = (   0.7672182   0.1900179   1.6976508  )
       306        O      tau( 306) = (   0.8994379   0.0650389   1.4672678  )
       307        O      tau( 307) = (   0.4462121   0.7426137   1.4731770  )
       308        O      tau( 308) = (   0.9211726   0.3961581   1.6533343  )
       309        O      tau( 309) = (   0.2420202   0.2200105   1.5251544  )
       310        O      tau( 310) = (   0.8842963   0.6436934   1.4589679  )
       311        O      tau( 311) = (   0.6482991   0.6785877   1.2330670  )
       312        O      tau( 312) = (   0.4832983   0.6325017   1.6039613  )
       313        O      tau( 313) = (   0.7361349   0.0571749   1.8732737  )
       314        O      tau( 314) = (   0.6649925   0.8590630   1.7336776  )
       315        O      tau( 315) = (   0.9130296   0.2721061   1.4159943  )
       316        O      tau( 316) = (   0.6511009   0.5989696   1.3506902  )
       317        O      tau( 317) = (   0.8131240   0.0898692   1.2825970  )
       318        O      tau( 318) = (   0.6524595   0.1336951   1.7108949  )
       319        O      tau( 319) = (   0.6784211   0.5695802   1.4690337  )
       320        O      tau( 320) = (   0.9018920   0.2183548   1.6834522  )
       321        O      tau( 321) = (   0.9678130   0.0358255   1.7940055  )
       322        O      tau( 322) = (   0.8368182   0.5391156   1.6776043  )
       323        O      tau( 323) = (   0.7668768   0.6856661   1.8697035  )
       324        O      tau( 324) = (   0.1531671   0.9301796   1.8945654  )
       325        O      tau( 325) = (   0.2178402   0.7542098   1.5177838  )
       326        O      tau( 326) = (   0.3614324   0.0782581   1.4600024  )
       327        O      tau( 327) = (   0.4053368   0.0766386   1.5793453  )
       328        O      tau( 328) = (   0.3320739   0.8564650   1.8828345  )
       329        O      tau( 329) = (   0.0914304   0.8126101   1.4681485  )
       330        O      tau( 330) = (   0.2416337   0.7445048   1.2588964  )
       331        O      tau( 331) = (   0.8232583   0.9617889   1.3373563  )
       332        O      tau( 332) = (   0.0224173   0.1103921   1.3331986  )
       333        O      tau( 333) = (   0.0827261   0.7743688   1.7158336  )
       334        O      tau( 334) = (   0.3058372   0.3697607   1.3216954  )
       335        O      tau( 335) = (   0.6940744   0.4843818   1.3763524  )
       336        O      tau( 336) = (   0.0505520   0.3569640   1.2588409  )
       337        O      tau( 337) = (   0.6956442   0.5556100   1.2255199  )
       338        O      tau( 338) = (   0.9205918   0.8444316   1.2442634  )
       339        Al     tau( 339) = (   0.9474166   0.9984982   1.4171699  )
       340        Al     tau( 340) = (   0.7317137   0.2651324   1.2660316  )
       341        C      tau( 341) = (   0.5691377   0.4617851   2.6989420  )
       342        C      tau( 342) = (   0.4944784   0.4516561   2.7004258  )
       343        C      tau( 343) = (   0.6140474   0.4021687   2.6943157  )
       344        C      tau( 344) = (   0.4669239   0.3822075   2.6972555  )
       345        C      tau( 345) = (   0.5966869   0.5312330   2.7021125  )
       346        C      tau( 346) = (   0.4495738   0.5112736   2.7050467  )
       347        C      tau( 347) = (   0.5857528   0.3335483   2.6912022  )
       348        C      tau( 348) = (   0.5123336   0.3235869   2.6926719  )
       349        C      tau( 349) = (   0.5512823   0.5898546   2.7066907  )
       350        C      tau( 350) = (   0.4778681   0.5798945   2.7081497  )
       351        H      tau( 351) = (   0.6715984   0.4086951   2.6930899  )
       352        H      tau( 352) = (   0.4097061   0.3731626   2.6983241  )
       353        H      tau( 353) = (   0.6539041   0.5402829   2.7010495  )
       354        H      tau( 354) = (   0.3920120   0.5047463   2.7062622  )
       355        H      tau( 355) = (   0.6210717   0.2878911   2.6876376  )
       356        H      tau( 356) = (   0.4903398   0.2701488   2.6902449  )
       357        H      tau( 357) = (   0.5732767   0.6432877   2.7091121  )
       358        H      tau( 358) = (   0.4425484   0.6255570   2.7117145  )

     number of k points=     1  Gaussian smearing, width (Ry)=  0.0100
                       cart. coord. in units 2pi/alat
        k(    1) = (   0.0000000   0.0000000   0.0000000), wk =   2.0000000

     Dense  grid: 15943719 G-vectors     FFT dimensions: ( 216, 216, 675)

     Smooth grid: 13361281 G-vectors     FFT dimensions: ( 216, 216, 625)

     Estimated max dynamical RAM per process >       4.14 GB

     Estimated total dynamical RAM >     331.13 GB

     Check: negative core charge=   -0.000001

     Initial potential from superposition of free atoms

     starting charge    1871.8703, renormalised to    1872.0000

     negative rho (up, down):  4.198E-02 0.000E+00
     Starting wfcs are 1419 randomized atomic wfcs
     Checking if some PAW data can be deallocated... 

     total cpu time spent up to now is      153.2 secs

     per-process dynamical memory:  1754.1 Mb

     Self-consistent Calculation

     iteration #  1     ecut=    80.00 Ry     beta= 0.10
     Davidson diagonalization with overlap
     ethr =  1.00E-02,  avg # of iterations =  3.0

     negative rho (up, down):  4.405E-02 0.000E+00

     total cpu time spent up to now is      653.3 secs

     total energy              =  -11693.36984938 Ry
     estimated scf accuracy    <     115.61165787 Ry

     iteration #  2     ecut=    80.00 Ry     beta= 0.10
     Davidson diagonalization with overlap
     ethr =  6.18E-03,  avg # of iterations =  1.0

     negative rho (up, down):  4.577E-02 0.000E+00

     total cpu time spent up to now is      946.5 secs

     total energy              =  -11688.11088411 Ry
     estimated scf accuracy    <      84.87915492 Ry

     iteration #  3     ecut=    80.00 Ry     beta= 0.10
     Davidson diagonalization with overlap
     ethr =  4.53E-03,  avg # of iterations =  1.0

     negative rho (up, down):  4.762E-02 0.000E+00

     total cpu time spent up to now is     1237.5 secs

     total energy              =  -11681.50108062 Ry
     estimated scf accuracy    <      59.18896415 Ry

     iteration #  4     ecut=    80.00 Ry     beta= 0.10
     Davidson diagonalization with overlap
     ethr =  3.16E-03,  avg # of iterations =  2.0

     negative rho (up, down):  4.872E-02 0.000E+00

     total cpu time spent up to now is     1565.1 secs

     total energy              =  -11682.82187887 Ry
     estimated scf accuracy    <      60.37534021 Ry

     iteration #  5     ecut=    80.00 Ry     beta= 0.10
     Davidson diagonalization with overlap
     ethr =  3.16E-03,  avg # of iterations =  1.0

     negative rho (up, down):  4.984E-02 0.000E+00

     total cpu time spent up to now is     1858.2 secs

     total energy              =  -11682.20006487 Ry
     estimated scf accuracy    <      39.49656487 Ry

     iteration #  6     ecut=    80.00 Ry     beta= 0.10
     Davidson diagonalization with overlap
     ethr =  2.11E-03,  avg # of iterations =  2.0

     negative rho (up, down):  5.071E-02 0.000E+00

     total cpu time spent up to now is     2185.3 secs

     total energy              =  -11682.42876466 Ry
     estimated scf accuracy    <      26.86955731 Ry

     iteration #  7     ecut=    80.00 Ry     beta= 0.10
     Davidson diagonalization with overlap
     ethr =  1.44E-03,  avg # of iterations =  2.0

     negative rho (up, down):  5.152E-02 0.000E+00

     total cpu time spent up to now is     2513.1 secs

     total energy              =  -11682.17508850 Ry
     estimated scf accuracy    <      34.66901640 Ry

     iteration #  8     ecut=    80.00 Ry     beta= 0.10
     Davidson diagonalization with overlap
     ethr =  1.44E-03,  avg # of iterations =  2.0

     negative rho (up, down):  5.211E-02 0.000E+00

     total cpu time spent up to now is     2840.3 secs

     total energy              =  -11682.32366838 Ry
     estimated scf accuracy    <      19.28034388 Ry

     iteration #  9     ecut=    80.00 Ry     beta= 0.10
     Davidson diagonalization with overlap
     ethr =  1.03E-03,  avg # of iterations =  2.0

     negative rho (up, down):  5.270E-02 0.000E+00

     total cpu time spent up to now is     3166.7 secs

     total energy              =  -11682.16282280 Ry
     estimated scf accuracy    <      18.54227343 Ry

     iteration # 10     ecut=    80.00 Ry     beta= 0.10
     Davidson diagonalization with overlap
     ethr =  9.91E-04,  avg # of iterations =  1.0

     negative rho (up, down):  5.322E-02 0.000E+00

     total cpu time spent up to now is     3458.3 secs

     total energy              =  -11682.15385877 Ry
     estimated scf accuracy    <      11.94981659 Ry

     iteration # 11     ecut=    80.00 Ry     beta= 0.10
     Davidson diagonalization with overlap
     ethr =  6.38E-04,  avg # of iterations =  2.0

     negative rho (up, down):  5.357E-02 0.000E+00

     total cpu time spent up to now is     3786.7 secs

     total energy              =  -11682.03344496 Ry
     estimated scf accuracy    <      23.10778487 Ry

     iteration # 12     ecut=    80.00 Ry     beta= 0.10
     Davidson diagonalization with overlap
     ethr =  6.38E-04,  avg # of iterations =  2.0

     negative rho (up, down):  5.387E-02 0.000E+00

     total cpu time spent up to now is     4114.1 secs

     total energy              =  -11682.31102585 Ry
     estimated scf accuracy    <       5.22738204 Ry

     iteration # 13     ecut=    80.00 Ry     beta= 0.10
     Davidson diagonalization with overlap
     ethr =  2.79E-04,  avg # of iterations = 18.0

     negative rho (up, down):  5.426E-02 0.000E+00

     total cpu time spent up to now is     4583.7 secs

     total energy              =  -11682.22969897 Ry
     estimated scf accuracy    <       6.31891317 Ry

     iteration # 14     ecut=    80.00 Ry     beta= 0.10
     Davidson diagonalization with overlap
     ethr =  2.79E-04,  avg # of iterations =  1.0

     negative rho (up, down):  5.480E-02 0.000E+00

     total cpu time spent up to now is     4874.9 secs

     total energy              =  -11682.09319760 Ry
     estimated scf accuracy    <       4.91521963 Ry

     iteration # 15     ecut=    80.00 Ry     beta= 0.10
     Davidson diagonalization with overlap
     ethr =  2.63E-04,  avg # of iterations =  1.0

     negative rho (up, down):  5.481E-02 0.000E+00

     total cpu time spent up to now is     5166.3 secs

     total energy              =  -11681.93319777 Ry
     estimated scf accuracy    <      17.35148097 Ry

     iteration # 16     ecut=    80.00 Ry     beta= 0.10
     Davidson diagonalization with overlap
     ethr =  2.63E-04,  avg # of iterations =  2.0

     negative rho (up, down):  5.514E-02 0.000E+00

     total cpu time spent up to now is     5493.2 secs

     total energy              =  -11682.15362875 Ry
     estimated scf accuracy    <       3.79881800 Ry

     iteration # 17     ecut=    80.00 Ry     beta= 0.10
     Davidson diagonalization with overlap
     ethr =  2.03E-04,  avg # of iterations =  1.0

     negative rho (up, down):  5.579E-02 0.000E+00

     total cpu time spent up to now is     5784.2 secs

     total energy              =  -11682.07437633 Ry
     estimated scf accuracy    <       2.99060318 Ry

     iteration # 18     ecut=    80.00 Ry     beta= 0.10
     Davidson diagonalization with overlap
     ethr =  1.60E-04,  avg # of iterations =  2.0

     negative rho (up, down):  5.572E-02 0.000E+00

     total cpu time spent up to now is     6111.2 secs

     total energy              =  -11681.94796301 Ry
     estimated scf accuracy    <       9.44936131 Ry

     iteration # 19     ecut=    80.00 Ry     beta= 0.10
     Davidson diagonalization with overlap
     ethr =  1.60E-04,  avg # of iterations =  2.0

     negative rho (up, down):  5.594E-02 0.000E+00

     total cpu time spent up to now is     6438.5 secs

     total energy              =  -11682.12469002 Ry
     estimated scf accuracy    <       2.45629405 Ry

     iteration # 20     ecut=    80.00 Ry     beta= 0.10
     Davidson diagonalization with overlap
     ethr =  1.31E-04,  avg # of iterations =  1.0

     negative rho (up, down):  5.635E-02 0.000E+00

     total cpu time spent up to now is     6730.1 secs

     total energy              =  -11682.08227576 Ry
     estimated scf accuracy    <       2.71190462 Ry

     iteration # 21     ecut=    80.00 Ry     beta= 0.10
     Davidson diagonalization with overlap
     ethr =  1.31E-04,  avg # of iterations =  1.0

     negative rho (up, down):  5.649E-02 0.000E+00

     total cpu time spent up to now is     7021.8 secs

     total energy              =  -11682.01443100 Ry
     estimated scf accuracy    <       7.70632171 Ry

     iteration # 22     ecut=    80.00 Ry     beta= 0.10
     Davidson diagonalization with overlap
     ethr =  1.31E-04,  avg # of iterations =  1.0

     negative rho (up, down):  5.674E-02 0.000E+00

     total cpu time spent up to now is     7313.2 secs

     total energy              =  -11682.03463118 Ry
     estimated scf accuracy    <      11.76941546 Ry

     iteration # 23     ecut=    80.00 Ry     beta= 0.10
     Davidson diagonalization with overlap
     ethr =  1.31E-04,  avg # of iterations =  1.0

     negative rho (up, down):  5.667E-02 0.000E+00

     total cpu time spent up to now is     7603.7 secs

     total energy              =  -11682.05527510 Ry
     estimated scf accuracy    <       4.65371524 Ry

     iteration # 24     ecut=    80.00 Ry     beta= 0.10
     Davidson diagonalization with overlap
     ethr =  1.31E-04,  avg # of iterations =  1.0

     negative rho (up, down):  5.712E-02 0.000E+00

     total cpu time spent up to now is     7894.7 secs

     total energy              =  -11682.06340431 Ry
     estimated scf accuracy    <       4.81344800 Ry

     iteration # 25     ecut=    80.00 Ry     beta= 0.10
     Davidson diagonalization with overlap
     ethr =  1.31E-04,  avg # of iterations =  1.0

     negative rho (up, down):  5.729E-02 0.000E+00

     total cpu time spent up to now is     8185.2 secs

     total energy              =  -11682.08316875 Ry
     estimated scf accuracy    <       2.22593368 Ry

     iteration # 26     ecut=    80.00 Ry     beta= 0.10
     Davidson diagonalization with overlap
     ethr =  1.19E-04,  avg # of iterations =  1.0

     negative rho (up, down):  5.741E-02 0.000E+00

     total cpu time spent up to now is     8475.9 secs

     total energy              =  -11682.07916952 Ry
     estimated scf accuracy    <       1.51624326 Ry

     iteration # 27     ecut=    80.00 Ry     beta= 0.10
     Davidson diagonalization with overlap
     ethr =  8.10E-05,  avg # of iterations =  1.0

     negative rho (up, down):  5.792E-02 0.000E+00

     total cpu time spent up to now is     8766.0 secs

     total energy              =  -11682.07058490 Ry
     estimated scf accuracy    <       2.81516883 Ry

     iteration # 28     ecut=    80.00 Ry     beta= 0.10
     Davidson diagonalization with overlap
     ethr =  8.10E-05,  avg # of iterations =  1.0

     negative rho (up, down):  5.752E-02 0.000E+00

     total cpu time spent up to now is     9056.9 secs

     total energy              =  -11682.00838317 Ry
     estimated scf accuracy    <       5.46511221 Ry

     iteration # 29     ecut=    80.00 Ry     beta= 0.10
     Davidson diagonalization with overlap
     ethr =  8.10E-05,  avg # of iterations =  1.0

     negative rho (up, down):  5.767E-02 0.000E+00

     total cpu time spent up to now is     9347.1 secs

     total energy              =  -11682.08127360 Ry
     estimated scf accuracy    <       4.32860226 Ry

     iteration # 30     ecut=    80.00 Ry     beta= 0.10
     Davidson diagonalization with overlap
     ethr =  8.10E-05,  avg # of iterations =  1.0

     negative rho (up, down):  5.779E-02 0.000E+00

     total cpu time spent up to now is     9637.7 secs

     total energy              =  -11682.10160851 Ry
     estimated scf accuracy    <       0.72107553 Ry

     iteration # 31     ecut=    80.00 Ry     beta= 0.10
     Davidson diagonalization with overlap
     ethr =  3.85E-05,  avg # of iterations =  1.0

     negative rho (up, down):  5.801E-02 0.000E+00

     total cpu time spent up to now is     9928.2 secs

     total energy              =  -11682.10003923 Ry
     estimated scf accuracy    <       0.62087031 Ry

     iteration # 32     ecut=    80.00 Ry     beta= 0.10
     Davidson diagonalization with overlap
     ethr =  3.32E-05,  avg # of iterations =  1.0

     negative rho (up, down):  5.816E-02 0.000E+00

     total cpu time spent up to now is    10219.9 secs

     total energy              =  -11682.09208925 Ry
     estimated scf accuracy    <       1.06007702 Ry

     iteration # 33     ecut=    80.00 Ry     beta= 0.10
     Davidson diagonalization with overlap
     ethr =  3.32E-05,  avg # of iterations =  1.0

     negative rho (up, down):  5.808E-02 0.000E+00

     total cpu time spent up to now is    10510.9 secs

     total energy              =  -11682.09551523 Ry
     estimated scf accuracy    <       0.70202556 Ry

     iteration # 34     ecut=    80.00 Ry     beta= 0.10
     Davidson diagonalization with overlap
     ethr =  3.32E-05,  avg # of iterations =  1.0

     negative rho (up, down):  5.827E-02 0.000E+00

     total cpu time spent up to now is    10801.6 secs

     total energy              =  -11682.09429146 Ry
     estimated scf accuracy    <       1.29998740 Ry

     iteration # 35     ecut=    80.00 Ry     beta= 0.10
     Davidson diagonalization with overlap
     ethr =  3.32E-05,  avg # of iterations =  1.0

     negative rho (up, down):  5.837E-02 0.000E+00

     total cpu time spent up to now is    11092.4 secs

     total energy              =  -11682.08515719 Ry
     estimated scf accuracy    <       2.67575761 Ry

     iteration # 36     ecut=    80.00 Ry     beta= 0.10
     Davidson diagonalization with overlap
     ethr =  3.32E-05,  avg # of iterations =  1.0

     negative rho (up, down):  5.865E-02 0.000E+00

     total cpu time spent up to now is    11382.9 secs

     total energy              =  -11682.09810653 Ry
     estimated scf accuracy    <       0.55036695 Ry

     iteration # 37     ecut=    80.00 Ry     beta= 0.10
     Davidson diagonalization with overlap
     ethr =  2.94E-05,  avg # of iterations =  1.0

     negative rho (up, down):  5.924E-02 0.000E+00

     total cpu time spent up to now is    11672.4 secs

     total energy              =  -11682.08634380 Ry
     estimated scf accuracy    <       2.04426247 Ry

     iteration # 38     ecut=    80.00 Ry     beta= 0.10
     Davidson diagonalization with overlap
     ethr =  2.94E-05,  avg # of iterations =  1.0

     negative rho (up, down):  5.889E-02 0.000E+00

     total cpu time spent up to now is    11962.0 secs

     total energy              =  -11682.09298263 Ry
     estimated scf accuracy    <       0.46451429 Ry

     iteration # 39     ecut=    80.00 Ry     beta= 0.10
     Davidson diagonalization with overlap
     ethr =  2.48E-05,  avg # of iterations =  1.0

     negative rho (up, down):  5.877E-02 0.000E+00

     total cpu time spent up to now is    12252.7 secs

     total energy              =  -11682.07554292 Ry
     estimated scf accuracy    <       3.11582747 Ry

     iteration # 40     ecut=    80.00 Ry     beta= 0.10
     Davidson diagonalization with overlap
     ethr =  2.48E-05,  avg # of iterations =  1.0

     negative rho (up, down):  5.895E-02 0.000E+00

     total cpu time spent up to now is    12544.0 secs

     total energy              =  -11682.08994249 Ry
     estimated scf accuracy    <       1.79326265 Ry

     iteration # 41     ecut=    80.00 Ry     beta= 0.10
     Davidson diagonalization with overlap
     ethr =  2.48E-05,  avg # of iterations =  1.0

     negative rho (up, down):  5.933E-02 0.000E+00

     total cpu time spent up to now is    12834.0 secs

     total energy              =  -11682.10243748 Ry
     estimated scf accuracy    <       0.39230317 Ry

     iteration # 42     ecut=    80.00 Ry     beta= 0.10
     Davidson diagonalization with overlap
     ethr =  2.10E-05,  avg # of iterations =  1.0

     negative rho (up, down):  5.928E-02 0.000E+00

     total cpu time spent up to now is    13125.0 secs

     total energy              =  -11682.10299641 Ry
     estimated scf accuracy    <       0.13582996 Ry

     iteration # 43     ecut=    80.00 Ry     beta= 0.10
     Davidson diagonalization with overlap
     ethr =  7.26E-06,  avg # of iterations = 20.0

     negative rho (up, down):  5.917E-02 0.000E+00

     total cpu time spent up to now is    13570.3 secs

     total energy              =  -11682.09753730 Ry
     estimated scf accuracy    <       0.71540879 Ry

     iteration # 44     ecut=    80.00 Ry     beta= 0.10
     Davidson diagonalization with overlap
     ethr =  7.26E-06,  avg # of iterations =  1.0

     negative rho (up, down):  5.934E-02 0.000E+00

     total cpu time spent up to now is    13861.2 secs

     total energy              =  -11682.10101898 Ry
     estimated scf accuracy    <       0.82379293 Ry

     iteration # 45     ecut=    80.00 Ry     beta= 0.10
     Davidson diagonalization with overlap
     ethr =  7.26E-06,  avg # of iterations =  1.0

     negative rho (up, down):  5.927E-02 0.000E+00

     total cpu time spent up to now is    14151.7 secs

     total energy              =  -11682.10387930 Ry
     estimated scf accuracy    <       0.12077526 Ry

     iteration # 46     ecut=    80.00 Ry     beta= 0.10
     Davidson diagonalization with overlap
     ethr =  6.45E-06,  avg # of iterations =  1.0

     negative rho (up, down):  5.937E-02 0.000E+00

     total cpu time spent up to now is    14442.0 secs

     total energy              =  -11682.10360987 Ry
     estimated scf accuracy    <       0.33460271 Ry

     iteration # 47     ecut=    80.00 Ry     beta= 0.10
     Davidson diagonalization with overlap
     ethr =  6.45E-06,  avg # of iterations =  1.0

     negative rho (up, down):  5.946E-02 0.000E+00

     total cpu time spent up to now is    14732.8 secs

     total energy              =  -11682.10244073 Ry
     estimated scf accuracy    <       0.45059250 Ry

     iteration # 48     ecut=    80.00 Ry     beta= 0.10
     Davidson diagonalization with overlap
     ethr =  6.45E-06,  avg # of iterations =  1.0

     negative rho (up, down):  5.947E-02 0.000E+00

     total cpu time spent up to now is    15023.9 secs

     total energy              =  -11682.10201821 Ry
     estimated scf accuracy    <       0.47089299 Ry

     iteration # 49     ecut=    80.00 Ry     beta= 0.10
     Davidson diagonalization with overlap
     ethr =  6.45E-06,  avg # of iterations =  1.0

     negative rho (up, down):  5.950E-02 0.000E+00

     total cpu time spent up to now is    15315.4 secs

     total energy              =  -11682.10621921 Ry
     estimated scf accuracy    <       0.08664015 Ry

     iteration # 50     ecut=    80.00 Ry     beta= 0.10
     Davidson diagonalization with overlap
     ethr =  4.63E-06,  avg # of iterations =  1.0

     negative rho (up, down):  5.947E-02 0.000E+00

     total cpu time spent up to now is    15607.8 secs

     total energy              =  -11682.10605088 Ry
     estimated scf accuracy    <       0.04810765 Ry

     iteration # 51     ecut=    80.00 Ry     beta= 0.10
     Davidson diagonalization with overlap
     ethr =  2.57E-06,  avg # of iterations =  1.0

     negative rho (up, down):  5.955E-02 0.000E+00

     total cpu time spent up to now is    15898.5 secs

     total energy              =  -11682.10606265 Ry
     estimated scf accuracy    <       0.09969251 Ry

     iteration # 52     ecut=    80.00 Ry     beta= 0.10
     Davidson diagonalization with overlap
     ethr =  2.57E-06,  avg # of iterations =  1.0

     negative rho (up, down):  5.959E-02 0.000E+00

     total cpu time spent up to now is    16189.5 secs

     total energy              =  -11682.10653845 Ry
     estimated scf accuracy    <       0.06700249 Ry

     iteration # 53     ecut=    80.00 Ry     beta= 0.10
     Davidson diagonalization with overlap
     ethr =  2.57E-06,  avg # of iterations =  1.0

     negative rho (up, down):  5.960E-02 0.000E+00

     total cpu time spent up to now is    16480.6 secs

     total energy              =  -11682.10670187 Ry
     estimated scf accuracy    <       0.03513767 Ry

     iteration # 54     ecut=    80.00 Ry     beta= 0.10
     Davidson diagonalization with overlap
     ethr =  1.88E-06,  avg # of iterations =  1.0

     negative rho (up, down):  5.961E-02 0.000E+00

     total cpu time spent up to now is    16772.6 secs

     total energy              =  -11682.10585228 Ry
     estimated scf accuracy    <       0.21203827 Ry

     iteration # 55     ecut=    80.00 Ry     beta= 0.10
     Davidson diagonalization with overlap
     ethr =  1.88E-06,  avg # of iterations =  1.0

     negative rho (up, down):  5.962E-02 0.000E+00

     total cpu time spent up to now is    17062.8 secs

     total energy              =  -11682.10696975 Ry
     estimated scf accuracy    <       0.01790577 Ry

     iteration # 56     ecut=    80.00 Ry     beta= 0.10
     Davidson diagonalization with overlap
     ethr =  9.57E-07,  avg # of iterations =  1.0

     negative rho (up, down):  5.966E-02 0.000E+00

     total cpu time spent up to now is    17353.7 secs

     total energy              =  -11682.10633297 Ry
     estimated scf accuracy    <       0.15035909 Ry

     iteration # 57     ecut=    80.00 Ry     beta= 0.10
     Davidson diagonalization with overlap
     ethr =  9.57E-07,  avg # of iterations =  1.0

     negative rho (up, down):  5.986E-02 0.000E+00

     total cpu time spent up to now is    17644.1 secs

     total energy              =  -11682.10762999 Ry
     estimated scf accuracy    <       0.06305420 Ry

     iteration # 58     ecut=    80.00 Ry     beta= 0.10
     Davidson diagonalization with overlap
     ethr =  9.57E-07,  avg # of iterations =  1.0

     negative rho (up, down):  5.970E-02 0.000E+00

     total cpu time spent up to now is    17935.6 secs

     total energy              =  -11682.10646262 Ry
     estimated scf accuracy    <       0.09418616 Ry

     iteration # 59     ecut=    80.00 Ry     beta= 0.10
     Davidson diagonalization with overlap
     ethr =  9.57E-07,  avg # of iterations =  1.0

     negative rho (up, down):  5.971E-02 0.000E+00

     total cpu time spent up to now is    18226.7 secs

     total energy              =  -11682.10722013 Ry
     estimated scf accuracy    <       0.05213429 Ry

     iteration # 60     ecut=    80.00 Ry     beta= 0.10
     Davidson diagonalization with overlap
     ethr =  9.57E-07,  avg # of iterations =  1.0

     negative rho (up, down):  5.974E-02 0.000E+00

     total cpu time spent up to now is    18517.4 secs

     total energy              =  -11682.10742377 Ry
     estimated scf accuracy    <       0.03542593 Ry

     iteration # 61     ecut=    80.00 Ry     beta= 0.10
     Davidson diagonalization with overlap
     ethr =  9.57E-07,  avg # of iterations =  1.0

     negative rho (up, down):  5.980E-02 0.000E+00

     total cpu time spent up to now is    18808.1 secs

     total energy              =  -11682.10756146 Ry
     estimated scf accuracy    <       0.04440070 Ry

     iteration # 62     ecut=    80.00 Ry     beta= 0.10
     Davidson diagonalization with overlap
     ethr =  9.57E-07,  avg # of iterations =  1.0

     negative rho (up, down):  5.982E-02 0.000E+00

     total cpu time spent up to now is    19098.7 secs

     total energy              =  -11682.10760120 Ry
     estimated scf accuracy    <       0.03858451 Ry

     iteration # 63     ecut=    80.00 Ry     beta= 0.10
     Davidson diagonalization with overlap
     ethr =  9.57E-07,  avg # of iterations =  1.0

     negative rho (up, down):  5.989E-02 0.000E+00

     total cpu time spent up to now is    19388.7 secs

     total energy              =  -11682.10794705 Ry
     estimated scf accuracy    <       0.02933482 Ry

     iteration # 64     ecut=    80.00 Ry     beta= 0.10
     Davidson diagonalization with overlap
     ethr =  9.57E-07,  avg # of iterations =  1.0

     negative rho (up, down):  5.982E-02 0.000E+00

     total cpu time spent up to now is    19678.8 secs

     total energy              =  -11682.10732891 Ry
     estimated scf accuracy    <       0.08042118 Ry

     iteration # 65     ecut=    80.00 Ry     beta= 0.10
     Davidson diagonalization with overlap
     ethr =  9.57E-07,  avg # of iterations =  1.0

     negative rho (up, down):  5.985E-02 0.000E+00

     total cpu time spent up to now is    19969.5 secs

     total energy              =  -11682.10796017 Ry
     estimated scf accuracy    <       0.01459922 Ry

     iteration # 66     ecut=    80.00 Ry     beta= 0.10
     Davidson diagonalization with overlap
     ethr =  7.80E-07,  avg # of iterations =  1.0

     negative rho (up, down):  5.987E-02 0.000E+00

     total cpu time spent up to now is    20261.4 secs

     total energy              =  -11682.10782669 Ry
     estimated scf accuracy    <       0.03807400 Ry

     iteration # 67     ecut=    80.00 Ry     beta= 0.10
     Davidson diagonalization with overlap
     ethr =  7.80E-07,  avg # of iterations =  1.0

     negative rho (up, down):  5.996E-02 0.000E+00

     total cpu time spent up to now is    20552.2 secs

     total energy              =  -11682.10822584 Ry
     estimated scf accuracy    <       0.02308758 Ry

     iteration # 68     ecut=    80.00 Ry     beta= 0.10
     Davidson diagonalization with overlap
     ethr =  7.80E-07,  avg # of iterations =  1.0

     negative rho (up, down):  5.988E-02 0.000E+00

     total cpu time spent up to now is    20843.6 secs

     total energy              =  -11682.10786872 Ry
     estimated scf accuracy    <       0.01399666 Ry

     iteration # 69     ecut=    80.00 Ry     beta= 0.10
     Davidson diagonalization with overlap
     ethr =  7.48E-07,  avg # of iterations =  1.0

     negative rho (up, down):  5.989E-02 0.000E+00

     total cpu time spent up to now is    21134.1 secs

     total energy              =  -11682.10774533 Ry
     estimated scf accuracy    <       0.05689666 Ry

     iteration # 70     ecut=    80.00 Ry     beta= 0.10
     Davidson diagonalization with overlap
     ethr =  7.48E-07,  avg # of iterations =  1.0

     negative rho (up, down):  5.993E-02 0.000E+00

     total cpu time spent up to now is    21425.0 secs

     total energy              =  -11682.10806795 Ry
     estimated scf accuracy    <       0.02743187 Ry

     iteration # 71     ecut=    80.00 Ry     beta= 0.10
     Davidson diagonalization with overlap
     ethr =  7.48E-07,  avg # of iterations =  1.0

     negative rho (up, down):  5.997E-02 0.000E+00

     total cpu time spent up to now is    21716.9 secs

     total energy              =  -11682.10815235 Ry
     estimated scf accuracy    <       0.02261299 Ry

     iteration # 72     ecut=    80.00 Ry     beta= 0.10
     Davidson diagonalization with overlap
     ethr =  7.48E-07,  avg # of iterations =  1.0

     negative rho (up, down):  5.998E-02 0.000E+00

     total cpu time spent up to now is    22018.3 secs

     total energy              =  -11682.10826121 Ry
     estimated scf accuracy    <       0.01260792 Ry

     iteration # 73     ecut=    80.00 Ry     beta= 0.10
     Davidson diagonalization with overlap
     ethr =  6.74E-07,  avg # of iterations =  1.0

     negative rho (up, down):  6.003E-02 0.000E+00

     total cpu time spent up to now is    22308.8 secs

     total energy              =  -11682.10836049 Ry
     estimated scf accuracy    <       0.01855434 Ry

     iteration # 74     ecut=    80.00 Ry     beta= 0.10
     Davidson diagonalization with overlap
     ethr =  6.74E-07,  avg # of iterations =  1.0

     negative rho (up, down):  5.996E-02 0.000E+00

     total cpu time spent up to now is    22599.6 secs

     total energy              =  -11682.10816352 Ry
     estimated scf accuracy    <       0.01726389 Ry

     iteration # 75     ecut=    80.00 Ry     beta= 0.10
     Davidson diagonalization with overlap
     ethr =  6.74E-07,  avg # of iterations =  1.0

     negative rho (up, down):  6.000E-02 0.000E+00

     total cpu time spent up to now is    22890.3 secs

     total energy              =  -11682.10835177 Ry
     estimated scf accuracy    <       0.01299970 Ry

     iteration # 76     ecut=    80.00 Ry     beta= 0.10
     Davidson diagonalization with overlap
     ethr =  6.74E-07,  avg # of iterations =  1.0

     negative rho (up, down):  6.000E-02 0.000E+00

     total cpu time spent up to now is    23182.0 secs

     total energy              =  -11682.10831121 Ry
     estimated scf accuracy    <       0.01442415 Ry

     iteration # 77     ecut=    80.00 Ry     beta= 0.10
     Davidson diagonalization with overlap
     ethr =  6.74E-07,  avg # of iterations =  1.0

     negative rho (up, down):  6.005E-02 0.000E+00

     total cpu time spent up to now is    23473.0 secs

     total energy              =  -11682.10847669 Ry
     estimated scf accuracy    <       0.00839790 Ry

     iteration # 78     ecut=    80.00 Ry     beta= 0.10
     Davidson diagonalization with overlap
     ethr =  4.49E-07,  avg # of iterations =  1.0

     negative rho (up, down):  6.004E-02 0.000E+00

     total cpu time spent up to now is    23764.4 secs

     total energy              =  -11682.10843381 Ry
     estimated scf accuracy    <       0.00251711 Ry

     iteration # 79     ecut=    80.00 Ry     beta= 0.10
     Davidson diagonalization with overlap
     ethr =  1.34E-07,  avg # of iterations =  1.0

     negative rho (up, down):  6.004E-02 0.000E+00

     total cpu time spent up to now is    24055.9 secs

     total energy              =  -11682.10824679 Ry
     estimated scf accuracy    <       0.03044766 Ry

     iteration # 80     ecut=    80.00 Ry     beta= 0.10
     Davidson diagonalization with overlap
     ethr =  1.34E-07,  avg # of iterations =  1.0

     negative rho (up, down):  6.006E-02 0.000E+00

     total cpu time spent up to now is    24346.4 secs

     total energy              =  -11682.10838535 Ry
     estimated scf accuracy    <       0.02065661 Ry

     iteration # 81     ecut=    80.00 Ry     beta= 0.10
     Davidson diagonalization with overlap
     ethr =  1.34E-07,  avg # of iterations =  1.0

     negative rho (up, down):  6.008E-02 0.000E+00

     total cpu time spent up to now is    24637.1 secs

     total energy              =  -11682.10851131 Ry
     estimated scf accuracy    <       0.00488082 Ry

     iteration # 82     ecut=    80.00 Ry     beta= 0.10
     Davidson diagonalization with overlap
     ethr =  1.34E-07,  avg # of iterations =  1.0

     negative rho (up, down):  6.009E-02 0.000E+00

     total cpu time spent up to now is    24927.8 secs

     total energy              =  -11682.10852735 Ry
     estimated scf accuracy    <       0.00401412 Ry

     iteration # 83     ecut=    80.00 Ry     beta= 0.10
     Davidson diagonalization with overlap
     ethr =  1.34E-07,  avg # of iterations =  1.0

     negative rho (up, down):  6.012E-02 0.000E+00

     total cpu time spent up to now is    25218.8 secs

     total energy              =  -11682.10856156 Ry
     estimated scf accuracy    <       0.00656642 Ry

     iteration # 84     ecut=    80.00 Ry     beta= 0.10
     Davidson diagonalization with overlap
     ethr =  1.34E-07,  avg # of iterations =  1.0

     negative rho (up, down):  6.007E-02 0.000E+00

     total cpu time spent up to now is    25509.6 secs

     total energy              =  -11682.10848130 Ry
     estimated scf accuracy    <       0.00384157 Ry

     iteration # 85     ecut=    80.00 Ry     beta= 0.10
     Davidson diagonalization with overlap
     ethr =  1.34E-07,  avg # of iterations =  1.0

     negative rho (up, down):  6.010E-02 0.000E+00

     total cpu time spent up to now is    25801.3 secs

     total energy              =  -11682.10851789 Ry
     estimated scf accuracy    <       0.01218008 Ry

     iteration # 86     ecut=    80.00 Ry     beta= 0.10
     Davidson diagonalization with overlap
     ethr =  1.34E-07,  avg # of iterations =  1.0

     negative rho (up, down):  6.010E-02 0.000E+00

     total cpu time spent up to now is    26092.1 secs

     total energy              =  -11682.10853100 Ry
     estimated scf accuracy    <       0.00547201 Ry

     iteration # 87     ecut=    80.00 Ry     beta= 0.10
     Davidson diagonalization with overlap
     ethr =  1.34E-07,  avg # of iterations =  1.0

     negative rho (up, down):  6.012E-02 0.000E+00

     total cpu time spent up to now is    26382.5 secs

     total energy              =  -11682.10857958 Ry
     estimated scf accuracy    <       0.00555927 Ry

     iteration # 88     ecut=    80.00 Ry     beta= 0.10
     Davidson diagonalization with overlap
     ethr =  1.34E-07,  avg # of iterations =  1.0

     negative rho (up, down):  6.013E-02 0.000E+00

     total cpu time spent up to now is    26674.0 secs

     total energy              =  -11682.10861050 Ry
     estimated scf accuracy    <       0.00083243 Ry

     iteration # 89     ecut=    80.00 Ry     beta= 0.10
     Davidson diagonalization with overlap
     ethr =  4.45E-08,  avg # of iterations =  1.0

     negative rho (up, down):  6.013E-02 0.000E+00

     total cpu time spent up to now is    26972.8 secs

     total energy              =  -11682.10859100 Ry
     estimated scf accuracy    <       0.00380364 Ry

     iteration # 90     ecut=    80.00 Ry     beta= 0.10
     Davidson diagonalization with overlap
     ethr =  4.45E-08,  avg # of iterations =  1.0

     negative rho (up, down):  6.014E-02 0.000E+00

     total cpu time spent up to now is    27264.2 secs

     total energy              =  -11682.10859565 Ry
     estimated scf accuracy    <       0.00427528 Ry

     iteration # 91     ecut=    80.00 Ry     beta= 0.10
     Davidson diagonalization with overlap
     ethr =  4.45E-08,  avg # of iterations =  1.0

     negative rho (up, down):  6.014E-02 0.000E+00

     total cpu time spent up to now is    27555.2 secs

     total energy              =  -11682.10862547 Ry
     estimated scf accuracy    <       0.00131904 Ry

     iteration # 92     ecut=    80.00 Ry     beta= 0.10
     Davidson diagonalization with overlap
     ethr =  4.45E-08,  avg # of iterations =  1.0

     negative rho (up, down):  6.015E-02 0.000E+00

     total cpu time spent up to now is    27856.1 secs

     total energy              =  -11682.10863238 Ry
     estimated scf accuracy    <       0.00110195 Ry

     iteration # 93     ecut=    80.00 Ry     beta= 0.10
     Davidson diagonalization with overlap
     ethr =  4.45E-08,  avg # of iterations =  1.0

     negative rho (up, down):  6.016E-02 0.000E+00

     total cpu time spent up to now is    28146.5 secs

     total energy              =  -11682.10864089 Ry
     estimated scf accuracy    <       0.00201896 Ry

     iteration # 94     ecut=    80.00 Ry     beta= 0.10
     Davidson diagonalization with overlap
     ethr =  4.45E-08,  avg # of iterations =  1.0

     negative rho (up, down):  6.016E-02 0.000E+00

     total cpu time spent up to now is    28437.9 secs

     total energy              =  -11682.10862874 Ry
     estimated scf accuracy    <       0.00090620 Ry

     iteration # 95     ecut=    80.00 Ry     beta= 0.10
     Davidson diagonalization with overlap
     ethr =  4.45E-08,  avg # of iterations =  1.0

     negative rho (up, down):  6.017E-02 0.000E+00

     total cpu time spent up to now is    28727.7 secs

     total energy              =  -11682.10860133 Ry
     estimated scf accuracy    <       0.00981144 Ry

     iteration # 96     ecut=    80.00 Ry     beta= 0.10
     Davidson diagonalization with overlap
     ethr =  4.45E-08,  avg # of iterations =  1.0

     negative rho (up, down):  6.017E-02 0.000E+00

     total cpu time spent up to now is    29017.7 secs

     total energy              =  -11682.10863082 Ry
     estimated scf accuracy    <       0.00262441 Ry

     iteration # 97     ecut=    80.00 Ry     beta= 0.10
     Davidson diagonalization with overlap
     ethr =  4.45E-08,  avg # of iterations =  1.0

     negative rho (up, down):  6.017E-02 0.000E+00

     total cpu time spent up to now is    29308.0 secs

     total energy              =  -11682.10863851 Ry
     estimated scf accuracy    <       0.00396986 Ry

     iteration # 98     ecut=    80.00 Ry     beta= 0.10
     Davidson diagonalization with overlap
     ethr =  4.45E-08,  avg # of iterations =  1.0

     negative rho (up, down):  6.018E-02 0.000E+00

     total cpu time spent up to now is    29598.7 secs

     total energy              =  -11682.10866864 Ry
     estimated scf accuracy    <       0.00046779 Ry

     iteration # 99     ecut=    80.00 Ry     beta= 0.10
     Davidson diagonalization with overlap
     ethr =  2.50E-08,  avg # of iterations =  1.0

     negative rho (up, down):  6.019E-02 0.000E+00

     total cpu time spent up to now is    29889.9 secs

     total energy              =  -11682.10866433 Ry
     estimated scf accuracy    <       0.00130557 Ry

     iteration #100     ecut=    80.00 Ry     beta= 0.10
     Davidson diagonalization with overlap
     ethr =  2.50E-08,  avg # of iterations =  1.0

     negative rho (up, down):  6.019E-02 0.000E+00

     total cpu time spent up to now is    30180.8 secs

     total energy              =  -11682.10866048 Ry
     estimated scf accuracy    <       0.00172294 Ry

     iteration #101     ecut=    80.00 Ry     beta= 0.10
     Davidson diagonalization with overlap
     ethr =  2.50E-08,  avg # of iterations =  1.0

     negative rho (up, down):  6.019E-02 0.000E+00

     total cpu time spent up to now is    30470.9 secs

     total energy              =  -11682.10867271 Ry
     estimated scf accuracy    <       0.00059368 Ry

     iteration #102     ecut=    80.00 Ry     beta= 0.10
     Davidson diagonalization with overlap
     ethr =  2.50E-08,  avg # of iterations =  1.0

     negative rho (up, down):  6.020E-02 0.000E+00

     total cpu time spent up to now is    30761.4 secs

     total energy              =  -11682.10867835 Ry
     estimated scf accuracy    <       0.00045114 Ry

     iteration #103     ecut=    80.00 Ry     beta= 0.10
     Davidson diagonalization with overlap
     ethr =  2.41E-08,  avg # of iterations =  1.0

     negative rho (up, down):  6.020E-02 0.000E+00

     total cpu time spent up to now is    31051.7 secs

     total energy              =  -11682.10868073 Ry
     estimated scf accuracy    <       0.00069868 Ry

     iteration #104     ecut=    80.00 Ry     beta= 0.10
     Davidson diagonalization with overlap
     ethr =  2.41E-08,  avg # of iterations =  1.0

     negative rho (up, down):  6.022E-02 0.000E+00

     total cpu time spent up to now is    31341.9 secs

     total energy              =  -11682.10869201 Ry
     estimated scf accuracy    <       0.00027866 Ry

     iteration #105     ecut=    80.00 Ry     beta= 0.10
     Davidson diagonalization with overlap
     ethr =  1.49E-08,  avg # of iterations =  1.0

     negative rho (up, down):  6.022E-02 0.000E+00

     total cpu time spent up to now is    31633.0 secs

     total energy              =  -11682.10867140 Ry
     estimated scf accuracy    <       0.00383872 Ry

     iteration #106     ecut=    80.00 Ry     beta= 0.10
     Davidson diagonalization with overlap
     ethr =  1.49E-08,  avg # of iterations =  1.0

     negative rho (up, down):  6.022E-02 0.000E+00

     total cpu time spent up to now is    31923.2 secs

     total energy              =  -11682.10868640 Ry
     estimated scf accuracy    <       0.00101612 Ry

     iteration #107     ecut=    80.00 Ry     beta= 0.10
     Davidson diagonalization with overlap
     ethr =  1.49E-08,  avg # of iterations =  1.0

     negative rho (up, down):  6.021E-02 0.000E+00

     total cpu time spent up to now is    32213.6 secs

     total energy              =  -11682.10867420 Ry
     estimated scf accuracy    <       0.00245399 Ry

     iteration #108     ecut=    80.00 Ry     beta= 0.10
     Davidson diagonalization with overlap
     ethr =  1.49E-08,  avg # of iterations =  1.0

     negative rho (up, down):  6.022E-02 0.000E+00

     total cpu time spent up to now is    32504.2 secs

     total energy              =  -11682.10869767 Ry
     estimated scf accuracy    <       0.00041972 Ry

     iteration #109     ecut=    80.00 Ry     beta= 0.10
     Davidson diagonalization with overlap
     ethr =  1.49E-08,  avg # of iterations =  1.0

     negative rho (up, down):  6.023E-02 0.000E+00

     total cpu time spent up to now is    32794.6 secs

     total energy              =  -11682.10869786 Ry
     estimated scf accuracy    <       0.00065146 Ry

     iteration #110     ecut=    80.00 Ry     beta= 0.10
     Davidson diagonalization with overlap
     ethr =  1.49E-08,  avg # of iterations =  1.0

     negative rho (up, down):  6.022E-02 0.000E+00

     total cpu time spent up to now is    33084.0 secs

     total energy              =  -11682.10869242 Ry
     estimated scf accuracy    <       0.00101595 Ry

     iteration #111     ecut=    80.00 Ry     beta= 0.10
     Davidson diagonalization with overlap
     ethr =  1.49E-08,  avg # of iterations =  1.0

     negative rho (up, down):  6.023E-02 0.000E+00

     total cpu time spent up to now is    33373.6 secs

     total energy              =  -11682.10869779 Ry
     estimated scf accuracy    <       0.00049871 Ry

     iteration #112     ecut=    80.00 Ry     beta= 0.10
     Davidson diagonalization with overlap
     ethr =  1.49E-08,  avg # of iterations =  1.0

     negative rho (up, down):  6.023E-02 0.000E+00

     total cpu time spent up to now is    33663.1 secs

     total energy              =  -11682.10870286 Ry
     estimated scf accuracy    <       0.00037603 Ry

     iteration #113     ecut=    80.00 Ry     beta= 0.10
     Davidson diagonalization with overlap
     ethr =  1.49E-08,  avg # of iterations =  1.0

     negative rho (up, down):  6.023E-02 0.000E+00

     total cpu time spent up to now is    33955.5 secs

     total energy              =  -11682.10870279 Ry
     estimated scf accuracy    <       0.00041084 Ry

     iteration #114     ecut=    80.00 Ry     beta= 0.10
     Davidson diagonalization with overlap
     ethr =  1.49E-08,  avg # of iterations =  1.0

     negative rho (up, down):  6.025E-02 0.000E+00

     total cpu time spent up to now is    34246.5 secs

     total energy              =  -11682.10871364 Ry
     estimated scf accuracy    <       0.00013756 Ry

     iteration #115     ecut=    80.00 Ry     beta= 0.10
     Davidson diagonalization with overlap
     ethr =  7.35E-09,  avg # of iterations =  1.0

     negative rho (up, down):  6.025E-02 0.000E+00

     total cpu time spent up to now is    34537.7 secs

     total energy              =  -11682.10870660 Ry
     estimated scf accuracy    <       0.00087856 Ry

     iteration #116     ecut=    80.00 Ry     beta= 0.10
     Davidson diagonalization with overlap
     ethr =  7.35E-09,  avg # of iterations =  1.0

     negative rho (up, down):  6.025E-02 0.000E+00

     total cpu time spent up to now is    34827.3 secs

     total energy              =  -11682.10871232 Ry
     estimated scf accuracy    <       0.00038184 Ry

     iteration #117     ecut=    80.00 Ry     beta= 0.10
     Davidson diagonalization with overlap
     ethr =  7.35E-09,  avg # of iterations =  1.0

     negative rho (up, down):  6.024E-02 0.000E+00

     total cpu time spent up to now is    35117.7 secs

     total energy              =  -11682.10870063 Ry
     estimated scf accuracy    <       0.00095988 Ry

     iteration #118     ecut=    80.00 Ry     beta= 0.10
     Davidson diagonalization with overlap
     ethr =  7.35E-09,  avg # of iterations =  1.0

     negative rho (up, down):  6.025E-02 0.000E+00

     total cpu time spent up to now is    35408.2 secs

     total energy              =  -11682.10871199 Ry
     estimated scf accuracy    <       0.00058255 Ry

     iteration #119     ecut=    80.00 Ry     beta= 0.10
     Davidson diagonalization with overlap
     ethr =  7.35E-09,  avg # of iterations =  1.0

     negative rho (up, down):  6.026E-02 0.000E+00

     total cpu time spent up to now is    35699.4 secs

     total energy              =  -11682.10871628 Ry
     estimated scf accuracy    <       0.00023870 Ry

     iteration #120     ecut=    80.00 Ry     beta= 0.10
     Davidson diagonalization with overlap
     ethr =  7.35E-09,  avg # of iterations =  1.0

     negative rho (up, down):  6.026E-02 0.000E+00

     total cpu time spent up to now is    35990.4 secs

     total energy              =  -11682.10871359 Ry
     estimated scf accuracy    <       0.00045191 Ry

     iteration #121     ecut=    80.00 Ry     beta= 0.10
     Davidson diagonalization with overlap
     ethr =  7.35E-09,  avg # of iterations =  1.0

     negative rho (up, down):  6.026E-02 0.000E+00

     total cpu time spent up to now is    36280.3 secs

     total energy              =  -11682.10871400 Ry
     estimated scf accuracy    <       0.00038615 Ry

     iteration #122     ecut=    80.00 Ry     beta= 0.10
     Davidson diagonalization with overlap
     ethr =  7.35E-09,  avg # of iterations =  1.0

     negative rho (up, down):  6.026E-02 0.000E+00

     total cpu time spent up to now is    36570.2 secs

     total energy              =  -11682.10871713 Ry
     estimated scf accuracy    <       0.00035597 Ry

     iteration #123     ecut=    80.00 Ry     beta= 0.10
     Davidson diagonalization with overlap
     ethr =  7.35E-09,  avg # of iterations =  1.0

     negative rho (up, down):  6.026E-02 0.000E+00

     total cpu time spent up to now is    36860.5 secs

     total energy              =  -11682.10871587 Ry
     estimated scf accuracy    <       0.00029901 Ry

     iteration #124     ecut=    80.00 Ry     beta= 0.10
     Davidson diagonalization with overlap
     ethr =  7.35E-09,  avg # of iterations =  1.0

     negative rho (up, down):  6.027E-02 0.000E+00

     total cpu time spent up to now is    37150.5 secs

     total energy              =  -11682.10872208 Ry
     estimated scf accuracy    <       0.00008919 Ry

     iteration #125     ecut=    80.00 Ry     beta= 0.10
     Davidson diagonalization with overlap
     ethr =  4.76E-09,  avg # of iterations =  1.0

     negative rho (up, down):  6.027E-02 0.000E+00

     total cpu time spent up to now is    37440.3 secs

     total energy              =  -11682.10872026 Ry
     estimated scf accuracy    <       0.00026937 Ry

     iteration #126     ecut=    80.00 Ry     beta= 0.10
     Davidson diagonalization with overlap
     ethr =  4.76E-09,  avg # of iterations =  1.0

     negative rho (up, down):  6.027E-02 0.000E+00

     total cpu time spent up to now is    37731.2 secs

     total energy              =  -11682.10872203 Ry
     estimated scf accuracy    <       0.00015087 Ry

     iteration #127     ecut=    80.00 Ry     beta= 0.10
     Davidson diagonalization with overlap
     ethr =  4.76E-09,  avg # of iterations =  1.0

     negative rho (up, down):  6.027E-02 0.000E+00

     total cpu time spent up to now is    38021.5 secs

     total energy              =  -11682.10871871 Ry
     estimated scf accuracy    <       0.00018046 Ry

     iteration #128     ecut=    80.00 Ry     beta= 0.10
     Davidson diagonalization with overlap
     ethr =  4.76E-09,  avg # of iterations =  1.0

     negative rho (up, down):  6.027E-02 0.000E+00

     total cpu time spent up to now is    38311.3 secs

     total energy              =  -11682.10872174 Ry
     estimated scf accuracy    <       0.00039602 Ry

     iteration #129     ecut=    80.00 Ry     beta= 0.10
     Davidson diagonalization with overlap
     ethr =  4.76E-09,  avg # of iterations =  1.0

     negative rho (up, down):  6.028E-02 0.000E+00

     total cpu time spent up to now is    38601.6 secs

     total energy              =  -11682.10872396 Ry
     estimated scf accuracy    <       0.00011762 Ry

     iteration #130     ecut=    80.00 Ry     beta= 0.10
     Davidson diagonalization with overlap
     ethr =  4.76E-09,  avg # of iterations =  1.0

     negative rho (up, down):  6.028E-02 0.000E+00

     total cpu time spent up to now is    38893.3 secs

     total energy              =  -11682.10872413 Ry
     estimated scf accuracy    <       0.00020661 Ry

     iteration #131     ecut=    80.00 Ry     beta= 0.10
     Davidson diagonalization with overlap
     ethr =  4.76E-09,  avg # of iterations =  1.0

     negative rho (up, down):  6.028E-02 0.000E+00

     total cpu time spent up to now is    39183.0 secs

     total energy              =  -11682.10872398 Ry
     estimated scf accuracy    <       0.00015886 Ry

     iteration #132     ecut=    80.00 Ry     beta= 0.10
     Davidson diagonalization with overlap
     ethr =  4.76E-09,  avg # of iterations =  1.0

     negative rho (up, down):  6.028E-02 0.000E+00

     total cpu time spent up to now is    39473.4 secs

     total energy              =  -11682.10872501 Ry
     estimated scf accuracy    <       0.00017915 Ry

     iteration #133     ecut=    80.00 Ry     beta= 0.10
     Davidson diagonalization with overlap
     ethr =  4.76E-09,  avg # of iterations =  1.0

     negative rho (up, down):  6.028E-02 0.000E+00

     total cpu time spent up to now is    39764.3 secs

     total energy              =  -11682.10872362 Ry
     estimated scf accuracy    <       0.00014687 Ry

     iteration #134     ecut=    80.00 Ry     beta= 0.10
     Davidson diagonalization with overlap
     ethr =  4.76E-09,  avg # of iterations =  1.0

     negative rho (up, down):  6.029E-02 0.000E+00

     total cpu time spent up to now is    40054.8 secs

     total energy              =  -11682.10872703 Ry
     estimated scf accuracy    <       0.00007167 Ry

     iteration #135     ecut=    80.00 Ry     beta= 0.10
     Davidson diagonalization with overlap
     ethr =  3.83E-09,  avg # of iterations =  1.0

     negative rho (up, down):  6.029E-02 0.000E+00

     total cpu time spent up to now is    40345.1 secs

     total energy              =  -11682.10872630 Ry
     estimated scf accuracy    <       0.00010644 Ry

     iteration #136     ecut=    80.00 Ry     beta= 0.10
     Davidson diagonalization with overlap
     ethr =  3.83E-09,  avg # of iterations =  1.0

     negative rho (up, down):  6.029E-02 0.000E+00

     total cpu time spent up to now is    40635.2 secs

     total energy              =  -11682.10872681 Ry
     estimated scf accuracy    <       0.00008060 Ry

     iteration #137     ecut=    80.00 Ry     beta= 0.10
     Davidson diagonalization with overlap
     ethr =  3.83E-09,  avg # of iterations =  1.0

     negative rho (up, down):  6.029E-02 0.000E+00

     total cpu time spent up to now is    40925.1 secs

     total energy              =  -11682.10872621 Ry
     estimated scf accuracy    <       0.00007032 Ry

     iteration #138     ecut=    80.00 Ry     beta= 0.10
     Davidson diagonalization with overlap
     ethr =  3.76E-09,  avg # of iterations =  1.0

     negative rho (up, down):  6.029E-02 0.000E+00

     total cpu time spent up to now is    41215.7 secs

     total energy              =  -11682.10872632 Ry
     estimated scf accuracy    <       0.00029219 Ry

     iteration #139     ecut=    80.00 Ry     beta= 0.10
     Davidson diagonalization with overlap
     ethr =  3.76E-09,  avg # of iterations =  1.0

     negative rho (up, down):  6.029E-02 0.000E+00

     total cpu time spent up to now is    41506.4 secs

     total energy              =  -11682.10872800 Ry
     estimated scf accuracy    <       0.00004945 Ry

     iteration #140     ecut=    80.00 Ry     beta= 0.10
     Davidson diagonalization with overlap
     ethr =  2.64E-09,  avg # of iterations =  1.0

     negative rho (up, down):  6.029E-02 0.000E+00

     total cpu time spent up to now is    41796.3 secs

     total energy              =  -11682.10872851 Ry
     estimated scf accuracy    <       0.00005749 Ry

     iteration #141     ecut=    80.00 Ry     beta= 0.10
     Davidson diagonalization with overlap
     ethr =  2.64E-09,  avg # of iterations =  1.0

     negative rho (up, down):  6.030E-02 0.000E+00

     total cpu time spent up to now is    42086.3 secs

     total energy              =  -11682.10872857 Ry
     estimated scf accuracy    <       0.00005320 Ry

     iteration #142     ecut=    80.00 Ry     beta= 0.10
     Davidson diagonalization with overlap
     ethr =  2.64E-09,  avg # of iterations =  1.0

     negative rho (up, down):  6.030E-02 0.000E+00

     total cpu time spent up to now is    42378.3 secs

     total energy              =  -11682.10872876 Ry
     estimated scf accuracy    <       0.00006664 Ry

     iteration #143     ecut=    80.00 Ry     beta= 0.10
     Davidson diagonalization with overlap
     ethr =  2.64E-09,  avg # of iterations =  1.0

     negative rho (up, down):  6.029E-02 0.000E+00

     total cpu time spent up to now is    42673.1 secs

     total energy              =  -11682.10872812 Ry
     estimated scf accuracy    <       0.00005700 Ry

     iteration #144     ecut=    80.00 Ry     beta= 0.10
     Davidson diagonalization with overlap
     ethr =  2.64E-09,  avg # of iterations =  1.0

     negative rho (up, down):  6.030E-02 0.000E+00

     total cpu time spent up to now is    42963.3 secs

     total energy              =  -11682.10872937 Ry
     estimated scf accuracy    <       0.00005856 Ry

     iteration #145     ecut=    80.00 Ry     beta= 0.10
     Davidson diagonalization with overlap
     ethr =  2.64E-09,  avg # of iterations =  1.0

     negative rho (up, down):  6.030E-02 0.000E+00

     total cpu time spent up to now is    43253.1 secs

     total energy              =  -11682.10872932 Ry
     estimated scf accuracy    <       0.00004606 Ry

     iteration #146     ecut=    80.00 Ry     beta= 0.10
     Davidson diagonalization with overlap
     ethr =  2.46E-09,  avg # of iterations =  1.0

     negative rho (up, down):  6.030E-02 0.000E+00

     total cpu time spent up to now is    43544.1 secs

     total energy              =  -11682.10872926 Ry
     estimated scf accuracy    <       0.00005354 Ry

     iteration #147     ecut=    80.00 Ry     beta= 0.10
     Davidson diagonalization with overlap
     ethr =  2.46E-09,  avg # of iterations =  1.0

     negative rho (up, down):  6.030E-02 0.000E+00

     total cpu time spent up to now is    43835.0 secs

     total energy              =  -11682.10872966 Ry
     estimated scf accuracy    <       0.00003581 Ry

     iteration #148     ecut=    80.00 Ry     beta= 0.10
     Davidson diagonalization with overlap
     ethr =  1.91E-09,  avg # of iterations =  1.0

     negative rho (up, down):  6.030E-02 0.000E+00

     total cpu time spent up to now is    44125.6 secs

     total energy              =  -11682.10872939 Ry
     estimated scf accuracy    <       0.00010375 Ry

     iteration #149     ecut=    80.00 Ry     beta= 0.10
     Davidson diagonalization with overlap
     ethr =  1.91E-09,  avg # of iterations =  1.0

     negative rho (up, down):  6.030E-02 0.000E+00

     total cpu time spent up to now is    44416.4 secs

     total energy              =  -11682.10873002 Ry
     estimated scf accuracy    <       0.00002435 Ry

     iteration #150     ecut=    80.00 Ry     beta= 0.10
     Davidson diagonalization with overlap
     ethr =  1.30E-09,  avg # of iterations =  1.0

     negative rho (up, down):  6.030E-02 0.000E+00

     total cpu time spent up to now is    44707.3 secs

     total energy              =  -11682.10873032 Ry
     estimated scf accuracy    <       0.00002189 Ry

     iteration #151     ecut=    80.00 Ry     beta= 0.10
     Davidson diagonalization with overlap
     ethr =  1.17E-09,  avg # of iterations =  1.0

     negative rho (up, down):  6.030E-02 0.000E+00

     total cpu time spent up to now is    44998.7 secs

     total energy              =  -11682.10873047 Ry
     estimated scf accuracy    <       0.00001659 Ry

     iteration #152     ecut=    80.00 Ry     beta= 0.10
     Davidson diagonalization with overlap
     ethr =  8.86E-10,  avg # of iterations =  1.0

     negative rho (up, down):  6.031E-02 0.000E+00

     total cpu time spent up to now is    45289.5 secs

     total energy              =  -11682.10873050 Ry
     estimated scf accuracy    <       0.00002205 Ry

     iteration #153     ecut=    80.00 Ry     beta= 0.10
     Davidson diagonalization with overlap
     ethr =  8.86E-10,  avg # of iterations =  1.0

     negative rho (up, down):  6.030E-02 0.000E+00

     total cpu time spent up to now is    45580.3 secs

     total energy              =  -11682.10873043 Ry
     estimated scf accuracy    <       0.00002154 Ry

     iteration #154     ecut=    80.00 Ry     beta= 0.10
     Davidson diagonalization with overlap
     ethr =  8.86E-10,  avg # of iterations =  1.0

     negative rho (up, down):  6.031E-02 0.000E+00

     total cpu time spent up to now is    45870.3 secs

     total energy              =  -11682.10873071 Ry
     estimated scf accuracy    <       0.00003522 Ry

     iteration #155     ecut=    80.00 Ry     beta= 0.10
     Davidson diagonalization with overlap
     ethr =  8.86E-10,  avg # of iterations =  1.0

     negative rho (up, down):  6.031E-02 0.000E+00

     total cpu time spent up to now is    46161.2 secs

     total energy              =  -11682.10873082 Ry
     estimated scf accuracy    <       0.00001977 Ry

     iteration #156     ecut=    80.00 Ry     beta= 0.10
     Davidson diagonalization with overlap
     ethr =  8.86E-10,  avg # of iterations =  1.0

     negative rho (up, down):  6.031E-02 0.000E+00

     total cpu time spent up to now is    46452.2 secs

     total energy              =  -11682.10873064 Ry
     estimated scf accuracy    <       0.00003104 Ry

     iteration #157     ecut=    80.00 Ry     beta= 0.10
     Davidson diagonalization with overlap
     ethr =  8.86E-10,  avg # of iterations =  1.0

     negative rho (up, down):  6.031E-02 0.000E+00

     total cpu time spent up to now is    46742.8 secs

     total energy              =  -11682.10873113 Ry
     estimated scf accuracy    <       0.00002503 Ry

     iteration #158     ecut=    80.00 Ry     beta= 0.10
     Davidson diagonalization with overlap
     ethr =  8.86E-10,  avg # of iterations =  1.0

     negative rho (up, down):  6.031E-02 0.000E+00

     total cpu time spent up to now is    47033.2 secs

     total energy              =  -11682.10873072 Ry
     estimated scf accuracy    <       0.00005661 Ry

     iteration #159     ecut=    80.00 Ry     beta= 0.10
     Davidson diagonalization with overlap
     ethr =  8.86E-10,  avg # of iterations =  1.0

     negative rho (up, down):  6.031E-02 0.000E+00

     total cpu time spent up to now is    47324.1 secs

     total energy              =  -11682.10873103 Ry
     estimated scf accuracy    <       0.00001840 Ry

     iteration #160     ecut=    80.00 Ry     beta= 0.10
     Davidson diagonalization with overlap
     ethr =  8.86E-10,  avg # of iterations =  1.0

     negative rho (up, down):  6.031E-02 0.000E+00

     total cpu time spent up to now is    47613.7 secs

     total energy              =  -11682.10873123 Ry
     estimated scf accuracy    <       0.00001465 Ry

     iteration #161     ecut=    80.00 Ry     beta= 0.10
     Davidson diagonalization with overlap
     ethr =  7.83E-10,  avg # of iterations =  1.0

     negative rho (up, down):  6.031E-02 0.000E+00

     total cpu time spent up to now is    47904.9 secs

     total energy              =  -11682.10873135 Ry
     estimated scf accuracy    <       0.00000734 Ry

     iteration #162     ecut=    80.00 Ry     beta= 0.10
     Davidson diagonalization with overlap
     ethr =  3.92E-10,  avg # of iterations =  1.0

     negative rho (up, down):  6.031E-02 0.000E+00

     total cpu time spent up to now is    48196.2 secs

     total energy              =  -11682.10873136 Ry
     estimated scf accuracy    <       0.00000887 Ry

     iteration #163     ecut=    80.00 Ry     beta= 0.10
     Davidson diagonalization with overlap
     ethr =  3.92E-10,  avg # of iterations =  1.0

     negative rho (up, down):  6.031E-02 0.000E+00

     total cpu time spent up to now is    48487.1 secs

     total energy              =  -11682.10873147 Ry
     estimated scf accuracy    <       0.00000931 Ry

     iteration #164     ecut=    80.00 Ry     beta= 0.10
     Davidson diagonalization with overlap
     ethr =  3.92E-10,  avg # of iterations =  1.0

     negative rho (up, down):  6.031E-02 0.000E+00

     total cpu time spent up to now is    48777.2 secs

     total energy              =  -11682.10873146 Ry
     estimated scf accuracy    <       0.00001575 Ry

     iteration #165     ecut=    80.00 Ry     beta= 0.10
     Davidson diagonalization with overlap
     ethr =  3.92E-10,  avg # of iterations =  1.0

     negative rho (up, down):  6.031E-02 0.000E+00

     total cpu time spent up to now is    49068.3 secs

     total energy              =  -11682.10873158 Ry
     estimated scf accuracy    <       0.00000806 Ry

     iteration #166     ecut=    80.00 Ry     beta= 0.10
     Davidson diagonalization with overlap
     ethr =  3.92E-10,  avg # of iterations =  1.0

     negative rho (up, down):  6.031E-02 0.000E+00

     total cpu time spent up to now is    49359.8 secs

     total energy              =  -11682.10873145 Ry
     estimated scf accuracy    <       0.00001499 Ry

     iteration #167     ecut=    80.00 Ry     beta= 0.10
     Davidson diagonalization with overlap
     ethr =  3.92E-10,  avg # of iterations =  1.0

     negative rho (up, down):  6.032E-02 0.000E+00

     total cpu time spent up to now is    49650.5 secs

     total energy              =  -11682.10873176 Ry
     estimated scf accuracy    <       0.00001692 Ry

     iteration #168     ecut=    80.00 Ry     beta= 0.10
     Davidson diagonalization with overlap
     ethr =  3.92E-10,  avg # of iterations =  1.0

     negative rho (up, down):  6.031E-02 0.000E+00

     total cpu time spent up to now is    49940.9 secs

     total energy              =  -11682.10873154 Ry
     estimated scf accuracy    <       0.00002133 Ry

     iteration #169     ecut=    80.00 Ry     beta= 0.10
     Davidson diagonalization with overlap
     ethr =  3.92E-10,  avg # of iterations =  1.0

     negative rho (up, down):  6.031E-02 0.000E+00

     total cpu time spent up to now is    50231.6 secs

     total energy              =  -11682.10873159 Ry
     estimated scf accuracy    <       0.00001495 Ry

     iteration #170     ecut=    80.00 Ry     beta= 0.10
     Davidson diagonalization with overlap
     ethr =  3.92E-10,  avg # of iterations =  1.0

     negative rho (up, down):  6.031E-02 0.000E+00

     total cpu time spent up to now is    50521.1 secs

     total energy              =  -11682.10873171 Ry
     estimated scf accuracy    <       0.00001447 Ry

     iteration #171     ecut=    80.00 Ry     beta= 0.10
     Davidson diagonalization with overlap
     ethr =  3.92E-10,  avg # of iterations =  1.0

     negative rho (up, down):  6.032E-02 0.000E+00

     total cpu time spent up to now is    50811.3 secs

     total energy              =  -11682.10873181 Ry
     estimated scf accuracy    <       0.00000510 Ry

     iteration #172     ecut=    80.00 Ry     beta= 0.10
     Davidson diagonalization with overlap
     ethr =  2.73E-10,  avg # of iterations =  1.0

     negative rho (up, down):  6.032E-02 0.000E+00

     total cpu time spent up to now is    51100.9 secs

     total energy              =  -11682.10873181 Ry
     estimated scf accuracy    <       0.00000540 Ry

     iteration #173     ecut=    80.00 Ry     beta= 0.10
     Davidson diagonalization with overlap
     ethr =  2.73E-10,  avg # of iterations =  1.0

     negative rho (up, down):  6.032E-02 0.000E+00

     total cpu time spent up to now is    51390.7 secs

     total energy              =  -11682.10873192 Ry
     estimated scf accuracy    <       0.00000562 Ry

     iteration #174     ecut=    80.00 Ry     beta= 0.10
     Davidson diagonalization with overlap
     ethr =  2.73E-10,  avg # of iterations =  1.0

     negative rho (up, down):  6.032E-02 0.000E+00

     total cpu time spent up to now is    51680.2 secs

     total energy              =  -11682.10873188 Ry
     estimated scf accuracy    <       0.00000672 Ry

     iteration #175     ecut=    80.00 Ry     beta= 0.10
     Davidson diagonalization with overlap
     ethr =  2.73E-10,  avg # of iterations =  1.0

     negative rho (up, down):  6.032E-02 0.000E+00

     total cpu time spent up to now is    51972.1 secs

     total energy              =  -11682.10873195 Ry
     estimated scf accuracy    <       0.00000367 Ry

     iteration #176     ecut=    80.00 Ry     beta= 0.10
     Davidson diagonalization with overlap
     ethr =  1.96E-10,  avg # of iterations =  1.0

     negative rho (up, down):  6.032E-02 0.000E+00

     total cpu time spent up to now is    52262.9 secs

     total energy              =  -11682.10873191 Ry
     estimated scf accuracy    <       0.00000621 Ry

     iteration #177     ecut=    80.00 Ry     beta= 0.10
     Davidson diagonalization with overlap
     ethr =  1.96E-10,  avg # of iterations =  1.0

     negative rho (up, down):  6.032E-02 0.000E+00

     total cpu time spent up to now is    52553.8 secs

     total energy              =  -11682.10873204 Ry
     estimated scf accuracy    <       0.00000904 Ry

     iteration #178     ecut=    80.00 Ry     beta= 0.10
     Davidson diagonalization with overlap
     ethr =  1.96E-10,  avg # of iterations =  1.0

     negative rho (up, down):  6.032E-02 0.000E+00

     total cpu time spent up to now is    52844.1 secs

     total energy              =  -11682.10873198 Ry
     estimated scf accuracy    <       0.00000600 Ry

     iteration #179     ecut=    80.00 Ry     beta= 0.10
     Davidson diagonalization with overlap
     ethr =  1.96E-10,  avg # of iterations =  1.0

     negative rho (up, down):  6.032E-02 0.000E+00

     total cpu time spent up to now is    53135.5 secs

     total energy              =  -11682.10873194 Ry
     estimated scf accuracy    <       0.00001013 Ry

     iteration #180     ecut=    80.00 Ry     beta= 0.10
     Davidson diagonalization with overlap
     ethr =  1.96E-10,  avg # of iterations =  1.0

     negative rho (up, down):  6.032E-02 0.000E+00

     total cpu time spent up to now is    53425.2 secs

     total energy              =  -11682.10873198 Ry
     estimated scf accuracy    <       0.00001316 Ry

     iteration #181     ecut=    80.00 Ry     beta= 0.10
     Davidson diagonalization with overlap
     ethr =  1.96E-10,  avg # of iterations =  1.0

     negative rho (up, down):  6.032E-02 0.000E+00

     total cpu time spent up to now is    53714.9 secs

     total energy              =  -11682.10873206 Ry
     estimated scf accuracy    <       0.00000386 Ry

     iteration #182     ecut=    80.00 Ry     beta= 0.10
     Davidson diagonalization with overlap
     ethr =  1.96E-10,  avg # of iterations =  1.0

     negative rho (up, down):  6.032E-02 0.000E+00

     total cpu time spent up to now is    54007.1 secs

     total energy              =  -11682.10873205 Ry
     estimated scf accuracy    <       0.00000368 Ry

     iteration #183     ecut=    80.00 Ry     beta= 0.10
     Davidson diagonalization with overlap
     ethr =  1.96E-10,  avg # of iterations =  1.0

     negative rho (up, down):  6.032E-02 0.000E+00

     total cpu time spent up to now is    54297.7 secs

     total energy              =  -11682.10873213 Ry
     estimated scf accuracy    <       0.00000420 Ry

     iteration #184     ecut=    80.00 Ry     beta= 0.10
     Davidson diagonalization with overlap
     ethr =  1.96E-10,  avg # of iterations =  1.0

     negative rho (up, down):  6.032E-02 0.000E+00

     total cpu time spent up to now is    54588.5 secs

     total energy              =  -11682.10873209 Ry
     estimated scf accuracy    <       0.00000324 Ry

     iteration #185     ecut=    80.00 Ry     beta= 0.10
     Davidson diagonalization with overlap
     ethr =  1.73E-10,  avg # of iterations =  1.0

     negative rho (up, down):  6.032E-02 0.000E+00

     total cpu time spent up to now is    54878.8 secs

     total energy              =  -11682.10873213 Ry
     estimated scf accuracy    <       0.00000213 Ry

     iteration #186     ecut=    80.00 Ry     beta= 0.10
     Davidson diagonalization with overlap
     ethr =  1.14E-10,  avg # of iterations =  1.0

     negative rho (up, down):  6.032E-02 0.000E+00

     total cpu time spent up to now is    55169.1 secs

     total energy              =  -11682.10873213 Ry
     estimated scf accuracy    <       0.00000254 Ry

     iteration #187     ecut=    80.00 Ry     beta= 0.10
     Davidson diagonalization with overlap
     ethr =  1.14E-10,  avg # of iterations =  1.0

     negative rho (up, down):  6.032E-02 0.000E+00

     total cpu time spent up to now is    55459.5 secs

     total energy              =  -11682.10873217 Ry
     estimated scf accuracy    <       0.00000415 Ry

     iteration #188     ecut=    80.00 Ry     beta= 0.10
     Davidson diagonalization with overlap
     ethr =  1.14E-10,  avg # of iterations =  1.0

     negative rho (up, down):  6.032E-02 0.000E+00

     total cpu time spent up to now is    55749.7 secs

     total energy              =  -11682.10873217 Ry
     estimated scf accuracy    <       0.00000167 Ry

     iteration #189     ecut=    80.00 Ry     beta= 0.10
     Davidson diagonalization with overlap
     ethr =  8.90E-11,  avg # of iterations =  1.0

     negative rho (up, down):  6.032E-02 0.000E+00

     total cpu time spent up to now is    56040.1 secs

     total energy              =  -11682.10873215 Ry
     estimated scf accuracy    <       0.00000466 Ry

     iteration #190     ecut=    80.00 Ry     beta= 0.10
     Davidson diagonalization with overlap
     ethr =  8.90E-11,  avg # of iterations =  1.0

     negative rho (up, down):  6.032E-02 0.000E+00

     total cpu time spent up to now is    56330.4 secs

     total energy              =  -11682.10873215 Ry
     estimated scf accuracy    <       0.00000792 Ry

     iteration #191     ecut=    80.00 Ry     beta= 0.10
     Davidson diagonalization with overlap
     ethr =  8.90E-11,  avg # of iterations =  1.0

     negative rho (up, down):  6.032E-02 0.000E+00

     total cpu time spent up to now is    56620.1 secs

     total energy              =  -11682.10873219 Ry
     estimated scf accuracy    <       0.00000243 Ry

     iteration #192     ecut=    80.00 Ry     beta= 0.10
     Davidson diagonalization with overlap
     ethr =  8.90E-11,  avg # of iterations =  1.0

     negative rho (up, down):  6.032E-02 0.000E+00

     total cpu time spent up to now is    56910.1 secs

     total energy              =  -11682.10873219 Ry
     estimated scf accuracy    <       0.00000211 Ry

     iteration #193     ecut=    80.00 Ry     beta= 0.10
     Davidson diagonalization with overlap
     ethr =  8.90E-11,  avg # of iterations =  1.0

     negative rho (up, down):  6.032E-02 0.000E+00

     total cpu time spent up to now is    57201.0 secs

     total energy              =  -11682.10873222 Ry
     estimated scf accuracy    <       0.00000294 Ry

     iteration #194     ecut=    80.00 Ry     beta= 0.10
     Davidson diagonalization with overlap
     ethr =  8.90E-11,  avg # of iterations =  1.0

     negative rho (up, down):  6.032E-02 0.000E+00

     total cpu time spent up to now is    57491.9 secs

     total energy              =  -11682.10873220 Ry
     estimated scf accuracy    <       0.00000147 Ry

     iteration #195     ecut=    80.00 Ry     beta= 0.10
     Davidson diagonalization with overlap
     ethr =  7.87E-11,  avg # of iterations =  1.0

     negative rho (up, down):  6.032E-02 0.000E+00

     total cpu time spent up to now is    57782.5 secs

     total energy              =  -11682.10873222 Ry
     estimated scf accuracy    <       0.00000167 Ry

     iteration #196     ecut=    80.00 Ry     beta= 0.10
     Davidson diagonalization with overlap
     ethr =  7.87E-11,  avg # of iterations =  1.0

     negative rho (up, down):  6.032E-02 0.000E+00

     total cpu time spent up to now is    58072.4 secs

     total energy              =  -11682.10873222 Ry
     estimated scf accuracy    <       0.00000128 Ry

     iteration #197     ecut=    80.00 Ry     beta= 0.10
     Davidson diagonalization with overlap
     ethr =  6.81E-11,  avg # of iterations =  1.0

     negative rho (up, down):  6.032E-02 0.000E+00

     total cpu time spent up to now is    58363.2 secs

     total energy              =  -11682.10873223 Ry
     estimated scf accuracy    <       0.00000237 Ry

     iteration #198     ecut=    80.00 Ry     beta= 0.10
     Davidson diagonalization with overlap
     ethr =  6.81E-11,  avg # of iterations =  1.0

     negative rho (up, down):  6.032E-02 0.000E+00

     total cpu time spent up to now is    58653.5 secs

     total energy              =  -11682.10873225 Ry
     estimated scf accuracy    <       0.00000058 Ry

     iteration #199     ecut=    80.00 Ry     beta= 0.10
     Davidson diagonalization with overlap
     ethr =  3.11E-11,  avg # of iterations =  1.0

     negative rho (up, down):  6.032E-02 0.000E+00

     total cpu time spent up to now is    58943.4 secs

     total energy              =  -11682.10873224 Ry
     estimated scf accuracy    <       0.00000157 Ry

     iteration #200     ecut=    80.00 Ry     beta= 0.10
     Davidson diagonalization with overlap
     ethr =  3.11E-11,  avg # of iterations =  1.0

     negative rho (up, down):  6.032E-02 0.000E+00

     total cpu time spent up to now is    59233.9 secs

     total energy              =  -11682.10873224 Ry
     estimated scf accuracy    <       0.00000285 Ry

     iteration #201     ecut=    80.00 Ry     beta= 0.10
     Davidson diagonalization with overlap
     ethr =  3.11E-11,  avg # of iterations =  1.0

     negative rho (up, down):  6.032E-02 0.000E+00

     total cpu time spent up to now is    59524.3 secs

     total energy              =  -11682.10873225 Ry
     estimated scf accuracy    <       0.00000106 Ry

     iteration #202     ecut=    80.00 Ry     beta= 0.10
     Davidson diagonalization with overlap
     ethr =  3.11E-11,  avg # of iterations =  1.0

     negative rho (up, down):  6.032E-02 0.000E+00

     total cpu time spent up to now is    59815.3 secs

     total energy              =  -11682.10873225 Ry
     estimated scf accuracy    <       0.00000092 Ry

     iteration #203     ecut=    80.00 Ry     beta= 0.10
     Davidson diagonalization with overlap
     ethr =  3.11E-11,  avg # of iterations =  1.0

     negative rho (up, down):  6.032E-02 0.000E+00

     total cpu time spent up to now is    60105.9 secs

     total energy              =  -11682.10873226 Ry
     estimated scf accuracy    <       0.00000150 Ry

     iteration #204     ecut=    80.00 Ry     beta= 0.10
     Davidson diagonalization with overlap
     ethr =  3.11E-11,  avg # of iterations =  1.0

     negative rho (up, down):  6.032E-02 0.000E+00

     total cpu time spent up to now is    60396.7 secs

     total energy              =  -11682.10873225 Ry
     estimated scf accuracy    <       0.00000060 Ry

     iteration #205     ecut=    80.00 Ry     beta= 0.10
     Davidson diagonalization with overlap
     ethr =  3.11E-11,  avg # of iterations =  1.0

     negative rho (up, down):  6.032E-02 0.000E+00

     total cpu time spent up to now is    60687.6 secs

     total energy              =  -11682.10873226 Ry
     estimated scf accuracy    <       0.00000141 Ry

     iteration #206     ecut=    80.00 Ry     beta= 0.10
     Davidson diagonalization with overlap
     ethr =  3.11E-11,  avg # of iterations =  1.0

     negative rho (up, down):  6.032E-02 0.000E+00

     total cpu time spent up to now is    60978.7 secs

     total energy              =  -11682.10873226 Ry
     estimated scf accuracy    <       0.00000089 Ry

     iteration #207     ecut=    80.00 Ry     beta= 0.10
     Davidson diagonalization with overlap
     ethr =  3.11E-11,  avg # of iterations =  1.0

     negative rho (up, down):  6.032E-02 0.000E+00

     total cpu time spent up to now is    61269.0 secs

     total energy              =  -11682.10873226 Ry
     estimated scf accuracy    <       0.00000188 Ry

     iteration #208     ecut=    80.00 Ry     beta= 0.10
     Davidson diagonalization with overlap
     ethr =  3.11E-11,  avg # of iterations =  1.0

     negative rho (up, down):  6.032E-02 0.000E+00

     total cpu time spent up to now is    61559.3 secs

     total energy              =  -11682.10873227 Ry
     estimated scf accuracy    <       0.00000031 Ry

     iteration #209     ecut=    80.00 Ry     beta= 0.10
     Davidson diagonalization with overlap
     ethr =  1.66E-11,  avg # of iterations =  1.0

     negative rho (up, down):  6.033E-02 0.000E+00

     total cpu time spent up to now is    61849.6 secs

     total energy              =  -11682.10873227 Ry
     estimated scf accuracy    <       0.00000054 Ry

     iteration #210     ecut=    80.00 Ry     beta= 0.10
     Davidson diagonalization with overlap
     ethr =  1.66E-11,  avg # of iterations =  1.0

     negative rho (up, down):  6.033E-02 0.000E+00

     total cpu time spent up to now is    62140.9 secs

     total energy              =  -11682.10873227 Ry
     estimated scf accuracy    <       0.00000095 Ry

     iteration #211     ecut=    80.00 Ry     beta= 0.10
     Davidson diagonalization with overlap
     ethr =  1.66E-11,  avg # of iterations =  1.0

     negative rho (up, down):  6.033E-02 0.000E+00

     total cpu time spent up to now is    62431.4 secs

     total energy              =  -11682.10873228 Ry
     estimated scf accuracy    <       0.00000042 Ry

     iteration #212     ecut=    80.00 Ry     beta= 0.10
     Davidson diagonalization with overlap
     ethr =  1.66E-11,  avg # of iterations =  1.0

     negative rho (up, down):  6.033E-02 0.000E+00

     total cpu time spent up to now is    62721.8 secs

     total energy              =  -11682.10873228 Ry
     estimated scf accuracy    <       0.00000035 Ry

     iteration #213     ecut=    80.00 Ry     beta= 0.10
     Davidson diagonalization with overlap
     ethr =  1.66E-11,  avg # of iterations =  1.0

     negative rho (up, down):  6.033E-02 0.000E+00

     total cpu time spent up to now is    63011.6 secs

     total energy              =  -11682.10873228 Ry
     estimated scf accuracy    <       0.00000059 Ry

     iteration #214     ecut=    80.00 Ry     beta= 0.10
     Davidson diagonalization with overlap
     ethr =  1.66E-11,  avg # of iterations =  1.0

     negative rho (up, down):  6.033E-02 0.000E+00

     total cpu time spent up to now is    63301.9 secs

     total energy              =  -11682.10873228 Ry
     estimated scf accuracy    <       0.00000024 Ry

     iteration #215     ecut=    80.00 Ry     beta= 0.10
     Davidson diagonalization with overlap
     ethr =  1.28E-11,  avg # of iterations =  1.0

     negative rho (up, down):  6.033E-02 0.000E+00

     total cpu time spent up to now is    63591.7 secs

     total energy              =  -11682.10873228 Ry
     estimated scf accuracy    <       0.00000098 Ry

     iteration #216     ecut=    80.00 Ry     beta= 0.10
     Davidson diagonalization with overlap
     ethr =  1.28E-11,  avg # of iterations =  1.0

     negative rho (up, down):  6.033E-02 0.000E+00

     total cpu time spent up to now is    63881.8 secs

     total energy              =  -11682.10873228 Ry
     estimated scf accuracy    <       0.00000059 Ry

     iteration #217     ecut=    80.00 Ry     beta= 0.10
     Davidson diagonalization with overlap
     ethr =  1.28E-11,  avg # of iterations =  1.0

     negative rho (up, down):  6.033E-02 0.000E+00

     total cpu time spent up to now is    64171.7 secs

     total energy              =  -11682.10873228 Ry
     estimated scf accuracy    <       0.00000122 Ry

     iteration #218     ecut=    80.00 Ry     beta= 0.10
     Davidson diagonalization with overlap
     ethr =  1.28E-11,  avg # of iterations =  1.0

     negative rho (up, down):  6.033E-02 0.000E+00

     total cpu time spent up to now is    64462.2 secs

     total energy              =  -11682.10873228 Ry
     estimated scf accuracy    <       0.00000024 Ry

     iteration #219     ecut=    80.00 Ry     beta= 0.10
     Davidson diagonalization with overlap
     ethr =  1.26E-11,  avg # of iterations =  1.0

     negative rho (up, down):  6.033E-02 0.000E+00

     total cpu time spent up to now is    64753.0 secs

     total energy              =  -11682.10873228 Ry
     estimated scf accuracy    <       0.00000027 Ry

     iteration #220     ecut=    80.00 Ry     beta= 0.10
     Davidson diagonalization with overlap
     ethr =  1.26E-11,  avg # of iterations =  1.0

     negative rho (up, down):  6.033E-02 0.000E+00

     total cpu time spent up to now is    65043.7 secs

     total energy              =  -11682.10873228 Ry
     estimated scf accuracy    <       0.00000044 Ry

     iteration #221     ecut=    80.00 Ry     beta= 0.10
     Davidson diagonalization with overlap
     ethr =  1.26E-11,  avg # of iterations =  1.0

     negative rho (up, down):  6.033E-02 0.000E+00

     total cpu time spent up to now is    65333.9 secs

     total energy              =  -11682.10873229 Ry
     estimated scf accuracy    <       0.00000022 Ry

     iteration #222     ecut=    80.00 Ry     beta= 0.10
     Davidson diagonalization with overlap
     ethr =  1.16E-11,  avg # of iterations =  1.0

     negative rho (up, down):  6.033E-02 0.000E+00

     total cpu time spent up to now is    65623.5 secs

     total energy              =  -11682.10873229 Ry
     estimated scf accuracy    <       0.00000017 Ry

     iteration #223     ecut=    80.00 Ry     beta= 0.10
     Davidson diagonalization with overlap
     ethr =  9.35E-12,  avg # of iterations =  1.0

     negative rho (up, down):  6.033E-02 0.000E+00

     total cpu time spent up to now is    65913.8 secs

     total energy              =  -11682.10873229 Ry
     estimated scf accuracy    <       0.00000025 Ry

     iteration #224     ecut=    80.00 Ry     beta= 0.10
     Davidson diagonalization with overlap
     ethr =  9.35E-12,  avg # of iterations =  1.0

     negative rho (up, down):  6.033E-02 0.000E+00

     total cpu time spent up to now is    66203.8 secs

     total energy              =  -11682.10873229 Ry
     estimated scf accuracy    <       0.00000010 Ry

     iteration #225     ecut=    80.00 Ry     beta= 0.10
     Davidson diagonalization with overlap
     ethr =  5.58E-12,  avg # of iterations =  1.0

     negative rho (up, down):  6.033E-02 0.000E+00

     total cpu time spent up to now is    66493.5 secs

     total energy              =  -11682.10873228 Ry
     estimated scf accuracy    <       0.00000047 Ry

     iteration #226     ecut=    80.00 Ry     beta= 0.10
     Davidson diagonalization with overlap
     ethr =  5.58E-12,  avg # of iterations =  1.0

     negative rho (up, down):  6.033E-02 0.000E+00

     total cpu time spent up to now is    66783.8 secs

     total energy              =  -11682.10873229 Ry
     estimated scf accuracy    <       0.00000028 Ry

     iteration #227     ecut=    80.00 Ry     beta= 0.10
     Davidson diagonalization with overlap
     ethr =  5.58E-12,  avg # of iterations =  1.0

     negative rho (up, down):  6.033E-02 0.000E+00

     total cpu time spent up to now is    67073.6 secs

     total energy              =  -11682.10873228 Ry
     estimated scf accuracy    <       0.00000052 Ry

     iteration #228     ecut=    80.00 Ry     beta= 0.10
     Davidson diagonalization with overlap
     ethr =  5.58E-12,  avg # of iterations =  1.0

     negative rho (up, down):  6.033E-02 0.000E+00

     total cpu time spent up to now is    67364.2 secs

     total energy              =  -11682.10873229 Ry
     estimated scf accuracy    <       0.00000021 Ry

     iteration #229     ecut=    80.00 Ry     beta= 0.10
     Davidson diagonalization with overlap
     ethr =  5.58E-12,  avg # of iterations =  1.0

     negative rho (up, down):  6.033E-02 0.000E+00

     total cpu time spent up to now is    67653.9 secs

     total energy              =  -11682.10873229 Ry
     estimated scf accuracy    <       0.00000018 Ry

     iteration #230     ecut=    80.00 Ry     beta= 0.10
     Davidson diagonalization with overlap
     ethr =  5.58E-12,  avg # of iterations =  1.0

     negative rho (up, down):  6.033E-02 0.000E+00

     total cpu time spent up to now is    67944.4 secs

     total energy              =  -11682.10873229 Ry
     estimated scf accuracy    <       0.00000028 Ry

     iteration #231     ecut=    80.00 Ry     beta= 0.10
     Davidson diagonalization with overlap
     ethr =  5.58E-12,  avg # of iterations =  1.0

     negative rho (up, down):  6.033E-02 0.000E+00

     total cpu time spent up to now is    68234.2 secs

     total energy              =  -11682.10873228 Ry
     estimated scf accuracy    <       0.00000017 Ry

     iteration #232     ecut=    80.00 Ry     beta= 0.10
     Davidson diagonalization with overlap
     ethr =  5.58E-12,  avg # of iterations =  1.0

     negative rho (up, down):  6.033E-02 0.000E+00

     total cpu time spent up to now is    68524.0 secs

     total energy              =  -11682.10873228 Ry
     estimated scf accuracy    <       0.00000014 Ry

     iteration #233     ecut=    80.00 Ry     beta= 0.10
     Davidson diagonalization with overlap
     ethr =  5.58E-12,  avg # of iterations =  1.0

     negative rho (up, down):  6.033E-02 0.000E+00

     total cpu time spent up to now is    68814.3 secs

     total energy              =  -11682.10873229 Ry
     estimated scf accuracy    <       0.00000014 Ry

     iteration #234     ecut=    80.00 Ry     beta= 0.10
     Davidson diagonalization with overlap
     ethr =  5.58E-12,  avg # of iterations =  1.0

     negative rho (up, down):  6.033E-02 0.000E+00

     total cpu time spent up to now is    69104.2 secs

     total energy              =  -11682.10873229 Ry
     estimated scf accuracy    <       0.00000005 Ry

     iteration #235     ecut=    80.00 Ry     beta= 0.10
     Davidson diagonalization with overlap
     ethr =  2.93E-12,  avg # of iterations =  1.0

     negative rho (up, down):  6.033E-02 0.000E+00

     total cpu time spent up to now is    69394.7 secs

     total energy              =  -11682.10873229 Ry
     estimated scf accuracy    <       0.00000016 Ry

     iteration #236     ecut=    80.00 Ry     beta= 0.10
     Davidson diagonalization with overlap
     ethr =  2.93E-12,  avg # of iterations =  1.0

     negative rho (up, down):  6.033E-02 0.000E+00

     total cpu time spent up to now is    69684.9 secs

     total energy              =  -11682.10873229 Ry
     estimated scf accuracy    <       0.00000011 Ry

     iteration #237     ecut=    80.00 Ry     beta= 0.10
     Davidson diagonalization with overlap
     ethr =  2.93E-12,  avg # of iterations =  1.0

     negative rho (up, down):  6.033E-02 0.000E+00

     total cpu time spent up to now is    69974.9 secs

     total energy              =  -11682.10873228 Ry
     estimated scf accuracy    <       0.00000017 Ry

     iteration #238     ecut=    80.00 Ry     beta= 0.10
     Davidson diagonalization with overlap
     ethr =  2.93E-12,  avg # of iterations =  1.0

     negative rho (up, down):  6.033E-02 0.000E+00

     total cpu time spent up to now is    70265.7 secs

     total energy              =  -11682.10873229 Ry
     estimated scf accuracy    <       0.00000019 Ry

     iteration #239     ecut=    80.00 Ry     beta= 0.10
     Davidson diagonalization with overlap
     ethr =  2.93E-12,  avg # of iterations =  1.0

     negative rho (up, down):  6.033E-02 0.000E+00

     total cpu time spent up to now is    70556.8 secs

     total energy              =  -11682.10873229 Ry
     estimated scf accuracy    <       0.00000012 Ry

     iteration #240     ecut=    80.00 Ry     beta= 0.10
     Davidson diagonalization with overlap
     ethr =  2.93E-12,  avg # of iterations =  1.0

     negative rho (up, down):  6.033E-02 0.000E+00

     total cpu time spent up to now is    70847.1 secs

     total energy              =  -11682.10873228 Ry
     estimated scf accuracy    <       0.00000017 Ry

     iteration #241     ecut=    80.00 Ry     beta= 0.10
     Davidson diagonalization with overlap
     ethr =  2.93E-12,  avg # of iterations =  1.0

     negative rho (up, down):  6.033E-02 0.000E+00

     total cpu time spent up to now is    71137.9 secs

     total energy              =  -11682.10873228 Ry
     estimated scf accuracy    <       0.00000012 Ry

     iteration #242     ecut=    80.00 Ry     beta= 0.10
     Davidson diagonalization with overlap
     ethr =  2.93E-12,  avg # of iterations =  1.0

     negative rho (up, down):  6.033E-02 0.000E+00

     total cpu time spent up to now is    71427.9 secs

     total energy              =  -11682.10873229 Ry
     estimated scf accuracy    <       0.00000011 Ry

     iteration #243     ecut=    80.00 Ry     beta= 0.10
     Davidson diagonalization with overlap
     ethr =  2.93E-12,  avg # of iterations =  1.0

     negative rho (up, down):  6.033E-02 0.000E+00

     total cpu time spent up to now is    71717.8 secs

     total energy              =  -11682.10873228 Ry
     estimated scf accuracy    <       0.00000009 Ry

     iteration #244     ecut=    80.00 Ry     beta= 0.10
     Davidson diagonalization with overlap
     ethr =  2.93E-12,  avg # of iterations =  1.0

     negative rho (up, down):  6.033E-02 0.000E+00

     total cpu time spent up to now is    72007.9 secs

     total energy              =  -11682.10873229 Ry
     estimated scf accuracy    <       0.00000004 Ry

     iteration #245     ecut=    80.00 Ry     beta= 0.10
     Davidson diagonalization with overlap
     ethr =  1.92E-12,  avg # of iterations =  1.0

     negative rho (up, down):  6.033E-02 0.000E+00

     total cpu time spent up to now is    72298.5 secs

     total energy              =  -11682.10873229 Ry
     estimated scf accuracy    <       0.00000006 Ry

     iteration #246     ecut=    80.00 Ry     beta= 0.10
     Davidson diagonalization with overlap
     ethr =  1.92E-12,  avg # of iterations =  1.0

     negative rho (up, down):  6.033E-02 0.000E+00

     total cpu time spent up to now is    72589.0 secs

     total energy              =  -11682.10873228 Ry
     estimated scf accuracy    <       0.00000004 Ry

     iteration #247     ecut=    80.00 Ry     beta= 0.10
     Davidson diagonalization with overlap
     ethr =  1.92E-12,  avg # of iterations =  1.0

     negative rho (up, down):  6.033E-02 0.000E+00

     total cpu time spent up to now is    72878.9 secs

     total energy              =  -11682.10873228 Ry
     estimated scf accuracy    <       0.00000005 Ry

     iteration #248     ecut=    80.00 Ry     beta= 0.10
     Davidson diagonalization with overlap
     ethr =  1.92E-12,  avg # of iterations =  1.0

     negative rho (up, down):  6.033E-02 0.000E+00

     total cpu time spent up to now is    73168.9 secs

     total energy              =  -11682.10873228 Ry
     estimated scf accuracy    <       0.00000014 Ry

     iteration #249     ecut=    80.00 Ry     beta= 0.10
     Davidson diagonalization with overlap
     ethr =  1.92E-12,  avg # of iterations =  1.0

     negative rho (up, down):  6.033E-02 0.000E+00

     total cpu time spent up to now is    73459.9 secs

     total energy              =  -11682.10873229 Ry
     estimated scf accuracy    <       0.00000006 Ry

     iteration #250     ecut=    80.00 Ry     beta= 0.10
     Davidson diagonalization with overlap
     ethr =  1.92E-12,  avg # of iterations =  1.0

     negative rho (up, down):  6.033E-02 0.000E+00

     total cpu time spent up to now is    73750.4 secs

     total energy              =  -11682.10873228 Ry
     estimated scf accuracy    <       0.00000008 Ry

     iteration #251     ecut=    80.00 Ry     beta= 0.10
     Davidson diagonalization with overlap
     ethr =  1.92E-12,  avg # of iterations =  1.0

     negative rho (up, down):  6.033E-02 0.000E+00

     total cpu time spent up to now is    74040.6 secs

     total energy              =  -11682.10873228 Ry
     estimated scf accuracy    <       0.00000006 Ry

     iteration #252     ecut=    80.00 Ry     beta= 0.10
     Davidson diagonalization with overlap
     ethr =  1.92E-12,  avg # of iterations =  1.0

     negative rho (up, down):  6.033E-02 0.000E+00

     total cpu time spent up to now is    74331.4 secs

     total energy              =  -11682.10873228 Ry
     estimated scf accuracy    <       0.00000007 Ry

     iteration #253     ecut=    80.00 Ry     beta= 0.10
     Davidson diagonalization with overlap
     ethr =  1.92E-12,  avg # of iterations =  1.0

     negative rho (up, down):  6.033E-02 0.000E+00

     total cpu time spent up to now is    74621.9 secs

     total energy              =  -11682.10873228 Ry
     estimated scf accuracy    <       0.00000005 Ry

     iteration #254     ecut=    80.00 Ry     beta= 0.10
     Davidson diagonalization with overlap
     ethr =  1.92E-12,  avg # of iterations =  1.0

     negative rho (up, down):  6.033E-02 0.000E+00

     total cpu time spent up to now is    74911.8 secs

     total energy              =  -11682.10873228 Ry
     estimated scf accuracy    <       0.00000003 Ry

     iteration #255     ecut=    80.00 Ry     beta= 0.10
     Davidson diagonalization with overlap
     ethr =  1.66E-12,  avg # of iterations =  1.0

     negative rho (up, down):  6.033E-02 0.000E+00

     total cpu time spent up to now is    75202.6 secs

     total energy              =  -11682.10873228 Ry
     estimated scf accuracy    <       0.00000003 Ry

     iteration #256     ecut=    80.00 Ry     beta= 0.10
     Davidson diagonalization with overlap
     ethr =  1.65E-12,  avg # of iterations =  1.0

     negative rho (up, down):  6.033E-02 0.000E+00

     total cpu time spent up to now is    75493.2 secs

     total energy              =  -11682.10873228 Ry
     estimated scf accuracy    <       0.00000002 Ry

     iteration #257     ecut=    80.00 Ry     beta= 0.10
     Davidson diagonalization with overlap
     ethr =  1.16E-12,  avg # of iterations =  1.0

     negative rho (up, down):  6.033E-02 0.000E+00

     total cpu time spent up to now is    75783.0 secs

     total energy              =  -11682.10873228 Ry
     estimated scf accuracy    <       0.00000002 Ry

     iteration #258     ecut=    80.00 Ry     beta= 0.10
     Davidson diagonalization with overlap
     ethr =  1.06E-12,  avg # of iterations =  1.0

     negative rho (up, down):  6.033E-02 0.000E+00

     total cpu time spent up to now is    76073.8 secs

     total energy              =  -11682.10873228 Ry
     estimated scf accuracy    <       0.00000007 Ry

     iteration #259     ecut=    80.00 Ry     beta= 0.10
     Davidson diagonalization with overlap
     ethr =  1.06E-12,  avg # of iterations =  1.0

     negative rho (up, down):  6.033E-02 0.000E+00

     total cpu time spent up to now is    76363.7 secs

     total energy              =  -11682.10873228 Ry
     estimated scf accuracy    <       0.00000002 Ry

     iteration #260     ecut=    80.00 Ry     beta= 0.10
     Davidson diagonalization with overlap
     ethr =  1.06E-12,  avg # of iterations =  1.0

     negative rho (up, down):  6.033E-02 0.000E+00

     total cpu time spent up to now is    76653.6 secs

     total energy              =  -11682.10873228 Ry
     estimated scf accuracy    <       0.00000003 Ry

     iteration #261     ecut=    80.00 Ry     beta= 0.10
     Davidson diagonalization with overlap
     ethr =  1.06E-12,  avg # of iterations =  1.0

     negative rho (up, down):  6.033E-02 0.000E+00

     total cpu time spent up to now is    76943.1 secs

     total energy              =  -11682.10873228 Ry
     estimated scf accuracy    <       0.00000002 Ry

     iteration #262     ecut=    80.00 Ry     beta= 0.10
     Davidson diagonalization with overlap
     ethr =  1.06E-12,  avg # of iterations =  1.0

     negative rho (up, down):  6.033E-02 0.000E+00

     total cpu time spent up to now is    77233.8 secs

     total energy              =  -11682.10873228 Ry
     estimated scf accuracy    <       0.00000003 Ry

     iteration #263     ecut=    80.00 Ry     beta= 0.10
     Davidson diagonalization with overlap
     ethr =  1.06E-12,  avg # of iterations =  1.0

     negative rho (up, down):  6.033E-02 0.000E+00

     total cpu time spent up to now is    77523.9 secs

     total energy              =  -11682.10873228 Ry
     estimated scf accuracy    <       0.00000002 Ry

     iteration #264     ecut=    80.00 Ry     beta= 0.10
     Davidson diagonalization with overlap
     ethr =  1.06E-12,  avg # of iterations =  1.0

     negative rho (up, down):  6.033E-02 0.000E+00

     total cpu time spent up to now is    77814.1 secs

     total energy              =  -11682.10873228 Ry
     estimated scf accuracy    <       0.00000003 Ry

     iteration #265     ecut=    80.00 Ry     beta= 0.10
     Davidson diagonalization with overlap
     ethr =  1.06E-12,  avg # of iterations =  1.0

     negative rho (up, down):  6.033E-02 0.000E+00

     total cpu time spent up to now is    78105.0 secs

     total energy              =  -11682.10873228 Ry
     estimated scf accuracy    <       0.00000002 Ry

     iteration #266     ecut=    80.00 Ry     beta= 0.10
     Davidson diagonalization with overlap
     ethr =  9.67E-13,  avg # of iterations =  1.0

     negative rho (up, down):  6.033E-02 0.000E+00

     total cpu time spent up to now is    78394.7 secs

     total energy              =  -11682.10873228 Ry
     estimated scf accuracy    <       0.00000002 Ry

     iteration #267     ecut=    80.00 Ry     beta= 0.10
     Davidson diagonalization with overlap
     ethr =  8.15E-13,  avg # of iterations =  1.0

     negative rho (up, down):  6.033E-02 0.000E+00

     total cpu time spent up to now is    78685.1 secs

     End of self-consistent calculation

          k = 0.0000 0.0000 0.0000 (****** PWs)   bands (ev):

   -57.9692 -56.1986 -55.8613 -55.8311 -55.6211 -55.5878 -55.0299 -55.0007
   -54.7581 -54.5041 -53.8700 -29.8958 -29.8785 -29.8406 -28.1493 -28.1066
   -28.0655 -27.7946 -27.7869 -27.7678 -27.7493 -27.7471 -27.7263 -27.5555
   -27.5543 -27.5265 -27.4898 -27.4891 -27.4613 -27.1304 -27.0007 -26.9536
   -26.9406 -26.9058 -26.8925 -26.8721 -26.7505 -26.6990 -26.6585 -26.4804
   -26.4417 -26.3866 -26.2568 -26.1241 -25.8748 -25.8210 -25.7928 -25.7748
   -25.7671 -25.7572 -25.6136 -25.5809 -25.5603 -25.5546 -25.4526 -25.3654
   -25.2970 -25.2375 -25.1885 -25.1310 -25.1083 -25.0554 -25.0313 -25.0136
   -25.0029 -24.9930 -24.9477 -24.9064 -24.8963 -24.8855 -24.8502 -24.8498
   -24.8008 -24.7858 -24.7576 -24.7342 -24.7077 -24.6683 -24.6457 -24.6259
   -24.6082 -24.6055 -24.5709 -24.5501 -24.5352 -24.5110 -24.4884 -24.4537
   -24.4403 -24.4057 -24.4021 -24.3787 -24.3636 -24.3357 -24.3266 -24.3038
   -24.2928 -24.2662 -24.2577 -24.2445 -24.2159 -24.2102 -24.1844 -24.1737
   -24.1508 -24.1246 -24.1050 -24.0973 -24.0809 -24.0613 -24.0486 -24.0202
   -23.9904 -23.9758 -23.9628 -23.9416 -23.9263 -23.8992 -23.8702 -23.8666
   -23.8129 -23.7921 -23.7886 -23.7731 -23.7561 -23.7406 -23.7318 -23.7199
   -23.7040 -23.6987 -23.6919 -23.6836 -23.6748 -23.6659 -23.6351 -23.6218
   -23.6076 -23.6017 -23.5872 -23.5625 -23.5557 -23.5432 -23.5240 -23.5134
   -23.5028 -23.4889 -23.4731 -23.4430 -23.4148 -23.4047 -23.3885 -23.3863
   -23.3589 -23.3451 -23.3415 -23.3080 -23.3010 -23.2889 -23.2782 -23.2599
   -23.2485 -23.2207 -23.2126 -23.1938 -23.1844 -23.1551 -23.1460 -23.1252
   -23.1234 -23.0999 -23.0892 -23.0808 -23.0608 -23.0513 -23.0496 -23.0358
   -23.0181 -23.0104 -22.9945 -22.9576 -22.9299 -22.9106 -22.9046 -22.8890
   -22.8795 -22.8583 -22.8441 -22.8319 -22.8280 -22.8000 -22.7919 -22.7748
   -22.7664 -22.7494 -22.7123 -22.7036 -22.7009 -22.6968 -22.6639 -22.6592
   -22.6387 -22.5628 -22.5259 -22.5183 -22.4736 -22.4521 -22.3981 -22.3935
   -22.3884 -22.3840 -22.3794 -22.3260 -22.2639 -22.2436 -22.2371 -22.2179
   -22.2068 -22.1725 -22.1112 -22.0288 -21.9840 -21.9758 -21.9344 -21.8367
   -21.6495 -21.5798 -21.5754 -21.5572 -21.5055 -21.4514 -21.4266 -21.3924
   -21.3248 -21.3058 -20.6495 -20.5955 -20.5621 -20.5537 -20.5528 -20.5241
   -20.5224 -20.4696 -20.4690 -20.3600 -20.3469 -20.1620 -20.0789 -20.0706
   -20.0126 -19.8271 -19.7338 -19.7314 -19.7292 -19.7172 -19.7115 -19.7099
   -19.7085 -19.6802 -19.6742 -19.6645 -19.6016 -18.8838 -18.5210 -17.6594
   -16.9032 -16.1083 -15.3449 -15.2097 -15.1461 -15.0749 -14.9674 -14.8881
   -14.8532 -14.7824 -14.7473 -14.7034 -14.6547 -14.5877 -14.5791 -14.5286
   -14.5037 -14.4177 -14.3387 -14.2847 -14.2075 -14.1788 -14.1259 -14.0973
   -14.0282 -14.0049 -13.9920 -13.9556 -13.9179 -13.9016 -13.8772 -13.8121
   -13.7936 -13.7485 -13.7409 -13.6859 -13.6574 -13.6030 -13.5338 -13.5203
   -13.4763 -13.4425 -13.4387 -13.4191 -13.3711 -13.3199 -13.2953 -13.2840
   -13.2183 -13.2155 -13.2087 -13.1506 -13.1272 -13.0859 -13.0787 -13.0494
   -13.0056 -12.9887 -12.9590 -12.9250 -12.9017 -12.8820 -12.8473 -12.8239
   -12.7991 -12.7701 -12.7316 -12.7215 -12.6646 -12.6452 -12.6249 -12.5478
   -12.5370 -12.5162 -12.4801 -12.4394 -12.4114 -12.3718 -12.3579 -12.3241
   -12.3145 -12.2965 -12.2884 -12.2259 -12.2082 -12.1640 -12.1432 -12.1228
   -12.0808 -12.0383 -12.0193 -11.9965 -11.9753 -11.9450 -11.9134 -11.8848
   -11.8632 -11.8500 -11.8242 -11.8053 -11.7809 -11.7464 -11.7377 -11.7009
   -11.6986 -11.6899 -11.6432 -11.6320 -11.5979 -11.5946 -11.5790 -11.5642
   -11.5412 -11.5333 -11.5146 -11.4922 -11.4786 -11.4621 -11.4582 -11.4415
   -11.4219 -11.4103 -11.3824 -11.3728 -11.3684 -11.3295 -11.3092 -11.2926
   -11.2709 -11.2629 -11.2457 -11.2118 -11.1934 -11.1690 -11.1628 -11.1506
   -11.1410 -11.1365 -11.1169 -11.0956 -11.0817 -11.0665 -11.0622 -11.0360
   -10.9878 -10.9843 -10.9586 -10.9473 -10.9245 -10.8983 -10.8898 -10.8777
   -10.8732 -10.8554 -10.8514 -10.8489 -10.8239 -10.8202 -10.8090 -10.7769
   -10.7745 -10.7379 -10.7165 -10.7065 -10.6894 -10.6877 -10.6584 -10.6503
   -10.6120 -10.5789 -10.5714 -10.5603 -10.5447 -10.5336 -10.5158 -10.4864
   -10.4714 -10.4581 -10.4272 -10.3869 -10.3762 -10.3300 -10.3071 -10.2930
   -10.2785 -10.2305 -10.2085 -10.2033 -10.1796 -10.1612 -10.1081 -10.0725
   -10.0698 -10.0446 -10.0268  -9.9884  -9.9593  -9.9088  -9.8947  -9.8727
    -9.8576  -9.8331  -9.8080  -9.7941  -9.7822  -9.7611  -9.7376  -9.7159
    -9.6643  -9.6453  -9.5881  -9.5837  -9.5663  -9.5394  -9.5263  -9.5104
    -9.4935  -9.4805  -9.4635  -9.4496  -9.4166  -9.3950  -9.3698  -9.3615
    -9.3359  -9.3317  -9.3308  -9.3218  -9.3090  -9.3023  -9.3000  -9.2875
    -9.2427  -9.2270  -9.2203  -9.1859  -9.1764  -9.1671  -9.1446  -9.1373
    -9.1187  -9.1047  -9.0754  -9.0556  -9.0401  -9.0150  -9.0133  -8.9729
    -8.9645  -8.9391  -8.9082  -8.9065  -8.8788  -8.8629  -8.8537  -8.8452
    -8.8360  -8.8213  -8.8028  -8.7815  -8.7690  -8.7601  -8.7360  -8.7310
    -8.7193  -8.7070  -8.6976  -8.6822  -8.6625  -8.6578  -8.6553  -8.6407
    -8.6361  -8.6191  -8.5908  -8.5845  -8.5681  -8.5676  -8.5575  -8.5489
    -8.5439  -8.5390  -8.5310  -8.5125  -8.5082  -8.4976  -8.4873  -8.4727
    -8.4615  -8.4536  -8.4415  -8.4303  -8.4143  -8.3930  -8.3886  -8.3821
    -8.3710  -8.3641  -8.3583  -8.3432  -8.3300  -8.3247  -8.3098  -8.3018
    -8.2946  -8.2826  -8.2668  -8.2607  -8.2457  -8.2455  -8.2328  -8.2198
    -8.2127  -8.2005  -8.1911  -8.1744  -8.1697  -8.1614  -8.1436  -8.1386
    -8.1379  -8.1261  -8.1059  -8.0874  -8.0799  -8.0693  -8.0604  -8.0465
    -8.0344  -8.0329  -8.0256  -8.0172  -8.0026  -7.9942  -7.9936  -7.9859
    -7.9776  -7.9569  -7.9469  -7.9407  -7.9371  -7.9142  -7.9096  -7.9063
    -7.8826  -7.8789  -7.8662  -7.8560  -7.8485  -7.8365  -7.8322  -7.8202
    -7.8189  -7.8035  -7.7984  -7.7891  -7.7746  -7.7707  -7.7604  -7.7471
    -7.7435  -7.7369  -7.7309  -7.7157  -7.7131  -7.6997  -7.6914  -7.6769
    -7.6713  -7.6694  -7.6506  -7.6433  -7.6378  -7.6238  -7.6193  -7.6111
    -7.5961  -7.5938  -7.5820  -7.5721  -7.5693  -7.5510  -7.5483  -7.5355
    -7.5323  -7.5103  -7.5032  -7.4991  -7.4903  -7.4796  -7.4650  -7.4634
    -7.4479  -7.4432  -7.4381  -7.4223  -7.4153  -7.4041  -7.3984  -7.3876
    -7.3829  -7.3746  -7.3700  -7.3615  -7.3552  -7.3250  -7.3113  -7.2966
    -7.2897  -7.2874  -7.2829  -7.2718  -7.2587  -7.2527  -7.2445  -7.2287
    -7.2219  -7.2087  -7.2006  -7.1857  -7.1825  -7.1802  -7.1721  -7.1606
    -7.1510  -7.1377  -7.1284  -7.1165  -7.1100  -7.0915  -7.0817  -7.0747
    -7.0613  -7.0583  -7.0460  -7.0362  -7.0255  -7.0178  -7.0060  -7.0017
    -6.9910  -6.9868  -6.9787  -6.9626  -6.9556  -6.9506  -6.9340  -6.9210
    -6.9038  -6.8953  -6.8850  -6.8724  -6.8621  -6.8515  -6.8415  -6.8387
    -6.8259  -6.8224  -6.8063  -6.7873  -6.7808  -6.7732  -6.7643  -6.7528
    -6.7413  -6.7312  -6.7211  -6.7141  -6.7053  -6.6941  -6.6832  -6.6784
    -6.6712  -6.6577  -6.6494  -6.6349  -6.6242  -6.6181  -6.6048  -6.5966
    -6.5953  -6.5871  -6.5857  -6.5809  -6.5534  -6.5510  -6.5307  -6.5123
    -6.5026  -6.4894  -6.4831  -6.4783  -6.4728  -6.4658  -6.4504  -6.4457
    -6.4421  -6.4327  -6.4294  -6.4175  -6.4041  -6.3994  -6.3858  -6.3765
    -6.3711  -6.3524  -6.3478  -6.3437  -6.3265  -6.3172  -6.3033  -6.2945
    -6.2800  -6.2770  -6.2638  -6.2514  -6.2437  -6.2367  -6.2227  -6.2171
    -6.2099  -6.1909  -6.1782  -6.1731  -6.1635  -6.1406  -6.1387  -6.1055
    -6.0951  -6.0813  -6.0738  -6.0598  -6.0546  -6.0336  -6.0304  -6.0086
    -5.9919  -5.9849  -5.9708  -5.9533  -5.9480  -5.9375  -5.9365  -5.9225
    -5.9141  -5.9050  -5.8830  -5.8762  -5.8643  -5.8445  -5.8399  -5.8362
    -5.8254  -5.8089  -5.7937  -5.7794  -5.7733  -5.7649  -5.7437  -5.7253
    -5.7230  -5.7175  -5.7142  -5.6985  -5.6839  -5.6804  -5.6738  -5.6511
    -5.6467  -5.6248  -5.6033  -5.6018  -5.5968  -5.5832  -5.5709  -5.5644
    -5.5407  -5.5145  -5.4940  -5.4769  -5.4642  -5.4536  -5.4444  -5.4350
    -5.4069  -5.3937  -5.3869  -5.3729  -5.3415  -5.3374  -5.3338  -5.3312
    -5.3238  -5.3114  -5.2759  -5.2651  -5.2491  -5.2293  -5.2170  -5.2074
    -5.1696  -5.1508  -5.1375  -5.1110  -5.0692  -5.0624  -5.0511  -5.0285
    -5.0031  -4.9671  -4.8720  -4.8527  -4.8385  -4.8365  -4.8254  -4.8111
    -4.7618  -4.7449  -4.7229  -4.7121  -4.6832  -4.6620  -4.6077  -4.6022
    -4.5838  -4.5059  -4.4797  -4.4572  -4.4520  -4.4456  -4.4387  -4.4253
    -4.3419  -4.2512  -4.2062  -4.2019  -4.1431  -4.1069  -4.0457  -4.0369
    -4.0287  -4.0162  -4.0093  -3.9728  -3.9562  -3.9339  -3.9198  -3.9107
    -3.9008  -3.8943  -3.8835  -3.8496  -3.8473  -3.8410  -3.8305  -3.8247
    -3.8193  -3.8166  -3.8102  -3.8018  -3.7980  -3.7958  -3.7873  -3.7842
    -3.7801  -3.7761  -3.7612  -3.7462  -3.7402  -3.7336  -3.7239  -3.7199
    -3.7103  -3.7092  -3.6775  -3.6656  -3.6482  -3.6295  -3.6289  -3.6155
    -3.5323  -3.4491  -3.3894  -3.3435  -3.3146  -3.2834  -3.1827  -3.1083
    -2.7382  -2.6244  -2.2141  -1.9852  -1.5573  -0.6218  -0.6137  -0.4686
    -0.4214  -0.4067  -0.2687  -0.2484  -0.1691  -0.1073  -0.0266   0.0025
     0.0443   0.1558   0.2506   0.3405   0.3907   0.4694   0.5376   0.6294
     0.6805   0.7120   0.7412   0.7735   0.8308   0.8812   0.9408   0.9685
     0.9839   1.0263   1.0618   1.0992   1.1411   1.1510   1.2074   1.2153
     1.2482   1.2608   1.2823   1.3101   1.3444   1.3677   1.3776   1.3969
     1.4232   1.4445   1.4575   1.4875   1.4959   1.5303   1.5629   1.6018
     1.6179   1.6241   1.6387   1.6516   1.6573   1.6903   1.7064   1.7411
     1.7432   1.7479   1.7717   1.7998   1.8299   1.8396   1.8682   1.8777
     1.9051   1.9120   1.9216   1.9428   1.9485   1.9703   1.9828   1.9900
     2.0081   2.0429   2.0527   2.0709   2.0787   2.0834   2.0946   2.1103
     2.1141   2.1185   2.1345   2.1470   2.1600   2.1696   2.1752   2.1811
     2.1841   2.2050   2.2169   2.2273   2.2335   2.2458   2.2646   2.2760
     2.2866   2.3074   2.3181   2.3262   2.3397   2.3477   2.3546   2.3679
     2.3773   2.3900   2.4006   2.4129   2.4387   2.4513   2.4670   2.4707
     2.4856   2.4895   2.4978   2.5102   2.5134   2.5205   2.5260   2.5345
     2.5416   2.5515   2.5595   2.5707   2.5824   2.5991   2.6126   2.6274
     2.6285   2.6446   2.6479   2.6544   2.6644   2.6735   2.6799   2.6852
     2.7031   2.7097   2.7141   2.7182   2.7234   2.7358   2.7619   2.7701
     2.7753   2.7849   2.7941   2.7984   2.8035   2.8186   2.8308   2.8412
     2.8487   2.8593   2.8651   2.8736   2.8824   2.8968   2.9068   2.9093
     2.9235   2.9337   2.9504

     the Fermi energy is    -3.6842 ev

!    total energy              =  -11682.10873226 Ry
     estimated scf accuracy    <          9.9E-09 Ry
     smearing contrib. (-TS)   =      -0.11111334 Ry
     internal energy E=F+TS    =  -11681.99761892 Ry

     The total energy is F=E-TS. E is the sum of the following terms:
     one-electron contribution = -355651.77435450 Ry
     hartree contribution      =  178289.09219105 Ry
     xc contribution           =   -2470.90061599 Ry
     ewald contribution        =  170511.28936980 Ry
     one-center paw contrib.   =   -2359.70420928 Ry

     convergence has been achieved in 267 iterations

     negative rho (up, down):  6.033E-02 0.000E+00

     Forces acting on atoms (cartesian axes, Ry/au):

     atom    1 type  1   force =     0.01198260    0.01352673    0.05502520
     atom    2 type  1   force =     0.02842132    0.02470806   -0.00056355
     atom    3 type  1   force =     0.00761884    0.00107742   -0.00350284
     atom    4 type  1   force =    -0.01246567   -0.01523326   -0.01032098
     atom    5 type  1   force =     0.01477505   -0.02240202   -0.02715369
     atom    6 type  1   force =     0.00354069   -0.00144122    0.00440329
     atom    7 type  1   force =    -0.00855988    0.01202374    0.01154433
     atom    8 type  1   force =    -0.01212707   -0.03103455    0.00330650
     atom    9 type  1   force =    -0.00149601    0.00642108    0.01347301
     atom   10 type  1   force =     0.01828701   -0.00171811    0.01751269
     atom   11 type  1   force =    -0.01122306   -0.00524567   -0.01233333
     atom   12 type  2   force =     0.00698748    0.12279782   -0.04037739
     atom   13 type  2   force =     0.13702484    0.10116840   -0.00132589
     atom   14 type  2   force =     0.08061615    0.03199163   -0.06292537
     atom   15 type  2   force =     0.14636722   -0.03948640   -0.15267747
     atom   16 type  2   force =     0.02151496    0.03840507    0.04014717
     atom   17 type  2   force =     0.15429812    0.01487897    0.25422868
     atom   18 type  2   force =    -0.01245707   -0.04668108   -0.04951313
     atom   19 type  2   force =    -0.01079209    0.03868694   -0.10072712
     atom   20 type  2   force =    -0.02587576   -0.01331106   -0.04186092
     atom   21 type  2   force =    -0.05465520    0.13497651   -0.03943564
     atom   22 type  2   force =     0.03590955   -0.13329383    0.09281088
     atom   23 type  2   force =    -0.03935475   -0.06826920   -0.05873203
     atom   24 type  2   force =     0.03246341    0.02646510    0.01007008
     atom   25 type  2   force =     0.06547103    0.00667373    0.07195288
     atom   26 type  2   force =    -0.01661548   -0.00972254   -0.01115922
     atom   27 type  2   force =     0.04174791    0.11808671   -0.07356015
     atom   28 type  2   force =    -0.00195508   -0.05838204   -0.01145766
     atom   29 type  2   force =    -0.03142244   -0.05047206    0.08149291
     atom   30 type  2   force =     0.03236134   -0.03168624   -0.03950630
     atom   31 type  2   force =     0.03576224    0.02203922    0.00214849
     atom   32 type  2   force =    -0.00990907   -0.06578401    0.08799760
     atom   33 type  2   force =    -0.05571400    0.01799691   -0.05553174
     atom   34 type  2   force =     0.06103493   -0.02691639   -0.02233623
     atom   35 type  3   force =    -0.01333769   -0.07804385    0.00314895
     atom   36 type  3   force =    -0.16412751    0.08787474   -0.04849857
     atom   37 type  3   force =    -0.06764137    0.03585161   -0.01401033
     atom   38 type  3   force =    -0.05432632   -0.00011552   -0.00936019
     atom   39 type  3   force =     0.07413323    0.00716326    0.01034977
     atom   40 type  3   force =     0.08659919    0.02281844   -0.04332388
     atom   41 type  3   force =    -0.10886881   -0.09033470   -0.13250334
     atom   42 type  3   force =     0.01231925   -0.06064180    0.06453858
     atom   43 type  3   force =     0.01842569   -0.02238661   -0.04844509
     atom   44 type  3   force =     0.06109729    0.10569780    0.04114226
     atom   45 type  3   force =    -0.03196407   -0.00099550   -0.03162315
     atom   46 type  3   force =    -0.03605101    0.12395981    0.05996549
     atom   47 type  3   force =    -0.05599318    0.00761211   -0.14722174
     atom   48 type  3   force =    -0.02873217   -0.12200258   -0.13762718
     atom   49 type  3   force =     0.06192925    0.18245363    0.05225632
     atom   50 type  3   force =     0.04362483   -0.02224742   -0.09785156
     atom   51 type  3   force =    -0.01921439    0.04789257    0.07048847
     atom   52 type  3   force =    -0.12127422   -0.10605708    0.11970618
     atom   53 type  3   force =    -0.12312142   -0.10980236   -0.05504348
     atom   54 type  3   force =    -0.03662484   -0.02306278    0.10078055
     atom   55 type  3   force =    -0.15018023    0.03116482    0.03094185
     atom   56 type  3   force =    -0.02252650    0.01129961    0.12182331
     atom   57 type  3   force =     0.00706639   -0.09507558   -0.04895996
     atom   58 type  3   force =     0.06046107   -0.00823568    0.04788642
     atom   59 type  3   force =    -0.03555678   -0.01079306    0.03874329
     atom   60 type  3   force =     0.07906102   -0.07456158   -0.00360994
     atom   61 type  3   force =     0.01537511    0.19123931    0.03552211
     atom   62 type  3   force =    -0.01924523   -0.01655645   -0.00622423
     atom   63 type  3   force =     0.01628753    0.01194180   -0.00646140
     atom   64 type  3   force =     0.00306475    0.05907271    0.08267590
     atom   65 type  3   force =    -0.00852464    0.02325536    0.02053569
     atom   66 type  3   force =    -0.01586843    0.00339332   -0.01874964
     atom   67 type  3   force =     0.03113954    0.00050378    0.10239798
     atom   68 type  3   force =    -0.06508745   -0.03466238    0.07988589
     atom   69 type  3   force =     0.04502116    0.03719453    0.03190039
     atom   70 type  3   force =    -0.05032838   -0.06708836   -0.05576012
     atom   71 type  3   force =     0.04857379   -0.03740511    0.05232816
     atom   72 type  3   force =     0.01421654    0.11140567    0.19920319
     atom   73 type  3   force =    -0.07871646    0.05108711   -0.07639739
     atom   74 type  3   force =     0.00524191   -0.06456396   -0.04793884
     atom   75 type  3   force =    -0.06319356    0.00866315   -0.00234016
     atom   76 type  3   force =     0.04450585   -0.10611636   -0.06060042
     atom   77 type  3   force =    -0.03076994    0.07733654    0.03341730
     atom   78 type  3   force =    -0.09865198   -0.02066985   -0.06893352
     atom   79 type  3   force =    -0.00395900   -0.04283547    0.03501993
     atom   80 type  3   force =    -0.03228994    0.03943881   -0.00560672
     atom   81 type  3   force =     0.03039737    0.01868383   -0.03956697
     atom   82 type  3   force =    -0.04205212    0.01728711   -0.05459290
     atom   83 type  3   force =    -0.05138223    0.09470167    0.02419803
     atom   84 type  3   force =    -0.02494997    0.04022059   -0.04062856
     atom   85 type  3   force =    -0.01135029   -0.09866953    0.07699653
     atom   86 type  3   force =    -0.02815476   -0.07916865   -0.10462102
     atom   87 type  3   force =     0.02207681   -0.00716614   -0.06794824
     atom   88 type  3   force =    -0.00063254    0.05376411   -0.11884599
     atom   89 type  3   force =    -0.04836392   -0.02070700    0.06496998
     atom   90 type  3   force =     0.05355809   -0.04782821   -0.04636269
     atom   91 type  3   force =     0.06648072    0.04065589   -0.01539461
     atom   92 type  3   force =    -0.00909503   -0.00578304   -0.02091036
     atom   93 type  3   force =    -0.08709193   -0.10492061   -0.00533765
     atom   94 type  3   force =     0.07174852    0.08985287    0.05018194
     atom   95 type  3   force =    -0.01091466   -0.01084258   -0.06941634
     atom   96 type  3   force =    -0.09371202   -0.01180727    0.15325574
     atom   97 type  3   force =    -0.02817049   -0.04657044   -0.00177061
     atom   98 type  3   force =     0.10424375    0.01092265    0.09544970
     atom   99 type  3   force =    -0.05542068   -0.00676166    0.03646608
     atom  100 type  3   force =     0.02261140   -0.07810704    0.07966558
     atom  101 type  3   force =    -0.06017506    0.02729082   -0.01092666
     atom  102 type  3   force =     0.03051524    0.01740650    0.03136546
     atom  103 type  3   force =     0.04700686    0.03117774    0.09739977
     atom  104 type  3   force =    -0.08252835   -0.07722891   -0.00515653
     atom  105 type  3   force =     0.02907773    0.05418410   -0.00668553
     atom  106 type  3   force =     0.03808437    0.11415425   -0.01558533
     atom  107 type  3   force =    -0.02800178   -0.00317424    0.02797223
     atom  108 type  3   force =     0.04688258   -0.00964184    0.04590031
     atom  109 type  3   force =     0.10965804    0.02005865   -0.03971049
     atom  110 type  3   force =     0.13935103    0.00800593   -0.06096578
     atom  111 type  3   force =    -0.02031264   -0.01791600    0.01759014
     atom  112 type  3   force =    -0.06701164    0.09520852   -0.01075174
     atom  113 type  3   force =     0.02127359   -0.01983732   -0.05626599
     atom  114 type  3   force =    -0.03894106    0.02176116    0.08106805
     atom  115 type  3   force =     0.01339932   -0.02838438    0.07649249
     atom  116 type  3   force =     0.08471982    0.00791567   -0.04837750
     atom  117 type  3   force =    -0.06875057    0.00338848    0.03770742
     atom  118 type  3   force =    -0.11853284    0.11186778    0.02564404
     atom  119 type  3   force =     0.07046792   -0.00675334    0.03241585
     atom  120 type  3   force =     0.00917440    0.02808541    0.10528757
     atom  121 type  3   force =     0.12981608    0.07610393    0.01614410
     atom  122 type  4   force =     0.03952002    0.01290297    0.02870415
     atom  123 type  4   force =    -0.06148014   -0.03991938   -0.00969157
     atom  124 type  4   force =     0.00364583    0.02429517   -0.04617296
     atom  125 type  4   force =     0.01813922   -0.00575353   -0.00426334
     atom  126 type  4   force =    -0.13130623   -0.14924832   -0.01135260
     atom  127 type  4   force =    -0.09949698   -0.12885820   -0.07370803
     atom  128 type  4   force =     0.01054497   -0.04946000    0.05956880
     atom  129 type  4   force =     0.00891427   -0.06164332   -0.01139056
     atom  130 type  4   force =     0.00883251   -0.02168224    0.00920977
     atom  131 type  4   force =     0.00670342   -0.01823900   -0.01316994
     atom  132 type  4   force =     0.04933169   -0.03836753   -0.01676067
     atom  133 type  4   force =    -0.03659174   -0.05919513    0.03630870
     atom  134 type  4   force =    -0.09349932    0.00758282   -0.04007946
     atom  135 type  4   force =     0.02241997   -0.02686943    0.12459286
     atom  136 type  4   force =     0.01784566   -0.01012271   -0.01831422
     atom  137 type  4   force =     0.05389628    0.04127704   -0.03415777
     atom  138 type  4   force =     0.01582334    0.00196401   -0.01527571
     atom  139 type  4   force =    -0.00676599    0.02800884   -0.02071050
     atom  140 type  4   force =     0.02153797   -0.06866889    0.02202162
     atom  141 type  4   force =     0.05840182   -0.01205429    0.00217608
     atom  142 type  4   force =    -0.10496424   -0.05312247    0.04675921
     atom  143 type  4   force =    -0.15007803   -0.03706937   -0.09749426
     atom  144 type  4   force =    -0.00563866   -0.01755602    0.02994833
     atom  145 type  4   force =    -0.04004155    0.03676845    0.01614867
     atom  146 type  4   force =    -0.02199419    0.01693009   -0.02253246
     atom  147 type  4   force =    -0.13172481   -0.04976249    0.03206678
     atom  148 type  4   force =     0.01366750   -0.02073319   -0.01293965
     atom  149 type  4   force =     0.06869602    0.03543219    0.01729611
     atom  150 type  4   force =    -0.06343340   -0.05299142   -0.01995942
     atom  151 type  4   force =     0.05091320    0.03690178    0.02456748
     atom  152 type  4   force =    -0.05806756    0.02461676    0.01508743
     atom  153 type  4   force =     0.07628149    0.01868261    0.07642360
     atom  154 type  4   force =    -0.09650761    0.00591368    0.00659649
     atom  155 type  4   force =    -0.01257289   -0.01430070   -0.00921993
     atom  156 type  4   force =    -0.05022957    0.04125055   -0.02246577
     atom  157 type  4   force =     0.04244004   -0.01074244   -0.00372891
     atom  158 type  4   force =     0.01338831    0.01212391   -0.02431519
     atom  159 type  4   force =     0.06700970    0.00745401   -0.05895385
     atom  160 type  4   force =     0.03938745   -0.08928425    0.01392404
     atom  161 type  4   force =     0.00298295   -0.02879929    0.07144792
     atom  162 type  4   force =     0.05273009    0.09494491    0.01524100
     atom  163 type  4   force =    -0.01538664    0.05823433   -0.01556685
     atom  164 type  4   force =     0.02449736    0.02901982    0.06696019
     atom  165 type  4   force =    -0.07484033    0.00987148    0.04938888
     atom  166 type  4   force =    -0.00159194   -0.10198454    0.00497443
     atom  167 type  4   force =    -0.03908551   -0.03995089   -0.01511199
     atom  168 type  4   force =     0.01697456   -0.18442057    0.05853001
     atom  169 type  4   force =     0.05237859    0.04497462   -0.09519768
     atom  170 type  4   force =     0.02788770   -0.04779273   -0.03582270
     atom  171 type  4   force =     0.01258394   -0.01692225    0.00344664
     atom  172 type  4   force =    -0.07000070    0.01238896   -0.04381687
     atom  173 type  4   force =    -0.03893606    0.00695864   -0.02538628
     atom  174 type  4   force =     0.05688195    0.08599528    0.01828771
     atom  175 type  4   force =     0.01311670    0.04181514    0.00305097
     atom  176 type  4   force =     0.03786878   -0.00544351    0.02524487
     atom  177 type  4   force =     0.06407437   -0.00446923   -0.00821762
     atom  178 type  4   force =    -0.00367028    0.03661475    0.04553236
     atom  179 type  4   force =    -0.01194185    0.02843894    0.00308192
     atom  180 type  4   force =    -0.05735711    0.00565005   -0.00722156
     atom  181 type  4   force =     0.00000463   -0.00050169    0.09596981
     atom  182 type  4   force =    -0.02451219   -0.06136577    0.05017025
     atom  183 type  4   force =    -0.03320820    0.10698813   -0.05872749
     atom  184 type  4   force =     0.01827292   -0.01125983    0.05177205
     atom  185 type  4   force =     0.04930899   -0.03490816   -0.01730120
     atom  186 type  4   force =    -0.01141159   -0.01728101    0.00172174
     atom  187 type  4   force =    -0.02765388   -0.01187637    0.05043229
     atom  188 type  4   force =    -0.02036048   -0.01785917   -0.04714169
     atom  189 type  4   force =    -0.01980722    0.03517514   -0.00048541
     atom  190 type  4   force =     0.05861040   -0.03610294    0.00664487
     atom  191 type  4   force =    -0.01863373   -0.00332343   -0.00641121
     atom  192 type  4   force =    -0.03514262    0.02414350   -0.03098402
     atom  193 type  4   force =     0.03629920   -0.06468546    0.02193726
     atom  194 type  4   force =    -0.04962033    0.00127729   -0.00628463
     atom  195 type  4   force =    -0.01035940   -0.00588014    0.01820741
     atom  196 type  4   force =     0.00238471   -0.02552122   -0.06107320
     atom  197 type  4   force =     0.00924014    0.01572927   -0.00009068
     atom  198 type  4   force =    -0.03842125    0.04139371   -0.01356917
     atom  199 type  4   force =     0.00810939   -0.02590737    0.00623799
     atom  200 type  4   force =    -0.00958735   -0.03602855    0.05784671
     atom  201 type  4   force =    -0.01077285   -0.04755785   -0.02853098
     atom  202 type  4   force =     0.01616104    0.01501455    0.04158102
     atom  203 type  4   force =    -0.05688005   -0.05914896   -0.10307029
     atom  204 type  4   force =    -0.00238784    0.01816110    0.06245038
     atom  205 type  4   force =     0.01019097    0.07387292   -0.01370434
     atom  206 type  4   force =    -0.04070634   -0.03143084   -0.04466725
     atom  207 type  4   force =    -0.00476602   -0.03031827    0.03543441
     atom  208 type  4   force =    -0.00080486    0.01181965   -0.01008385
     atom  209 type  4   force =    -0.04449026    0.03164761   -0.05082588
     atom  210 type  4   force =    -0.01134486    0.01307329   -0.05116962
     atom  211 type  4   force =    -0.00055504   -0.03486612   -0.05655703
     atom  212 type  4   force =     0.04269466   -0.03964062   -0.03308901
     atom  213 type  4   force =     0.04284895   -0.14884315   -0.08359847
     atom  214 type  4   force =     0.05174883    0.06495061   -0.05766678
     atom  215 type  4   force =    -0.02669147   -0.02923087    0.00518576
     atom  216 type  4   force =    -0.02212783    0.07576972    0.04092201
     atom  217 type  4   force =    -0.02416720    0.03766034   -0.04189325
     atom  218 type  4   force =     0.01492292    0.02516346   -0.00786121
     atom  219 type  4   force =    -0.04400160   -0.04016106   -0.00917748
     atom  220 type  4   force =     0.01257706   -0.04150330    0.02298191
     atom  221 type  4   force =    -0.00424995    0.03039002    0.06496511
     atom  222 type  4   force =     0.10394331   -0.01658403    0.00584688
     atom  223 type  4   force =     0.02174452    0.08581556   -0.05088381
     atom  224 type  4   force =     0.03970281    0.02491825   -0.01336124
     atom  225 type  4   force =     0.06108680    0.04951402   -0.00337825
     atom  226 type  4   force =     0.02008516   -0.02509003    0.02085373
     atom  227 type  4   force =    -0.02259011    0.05201041    0.04184130
     atom  228 type  4   force =     0.00320985   -0.01707553   -0.02722399
     atom  229 type  4   force =     0.01366700    0.00007603    0.05421550
     atom  230 type  4   force =     0.05291441    0.04904535   -0.00149195
     atom  231 type  4   force =     0.04261336   -0.02084151    0.07113507
     atom  232 type  4   force =     0.04275672   -0.06427539   -0.00877562
     atom  233 type  4   force =     0.03887916    0.05821020    0.02898945
     atom  234 type  4   force =    -0.03300804   -0.05978790   -0.11440465
     atom  235 type  4   force =    -0.01906159    0.15893298   -0.01445663
     atom  236 type  4   force =     0.08810581   -0.01638104   -0.04577964
     atom  237 type  4   force =     0.00622347    0.00678964    0.01215575
     atom  238 type  4   force =    -0.01092690   -0.01290655    0.04264699
     atom  239 type  4   force =     0.01919165   -0.03610103    0.00733739
     atom  240 type  4   force =     0.07763958    0.03085144    0.02821895
     atom  241 type  4   force =     0.03122915   -0.01970296   -0.00490248
     atom  242 type  4   force =    -0.20377545   -0.02967489    0.07896124
     atom  243 type  4   force =     0.02977536    0.00103899    0.02048171
     atom  244 type  4   force =    -0.05116690   -0.00160057   -0.04531108
     atom  245 type  4   force =    -0.01910571   -0.02916783   -0.09476806
     atom  246 type  4   force =     0.02444014   -0.00899167   -0.03122491
     atom  247 type  4   force =    -0.00637763   -0.01713271   -0.06720093
     atom  248 type  4   force =    -0.01646560    0.03025538    0.05883520
     atom  249 type  4   force =     0.03809495    0.02612047   -0.06221334
     atom  250 type  4   force =    -0.08196824   -0.01668933    0.00423133
     atom  251 type  4   force =    -0.00779612   -0.00392126   -0.01947488
     atom  252 type  4   force =    -0.07120649    0.01911871   -0.05253907
     atom  253 type  4   force =     0.00126713   -0.04522821   -0.11030862
     atom  254 type  4   force =    -0.09099821    0.01338242   -0.01473629
     atom  255 type  4   force =     0.01625480   -0.01882798    0.02041399
     atom  256 type  4   force =     0.03191767   -0.00805164    0.03526417
     atom  257 type  4   force =     0.02693012   -0.02500560    0.03379539
     atom  258 type  4   force =     0.00067097    0.01268776   -0.02908218
     atom  259 type  4   force =     0.04800240    0.01503335   -0.00891450
     atom  260 type  4   force =    -0.04569597   -0.01157270   -0.06089812
     atom  261 type  4   force =     0.04149671    0.02794439   -0.03943246
     atom  262 type  4   force =    -0.05545936   -0.01091601    0.04589329
     atom  263 type  4   force =     0.09668488   -0.02643944    0.01776096
     atom  264 type  4   force =    -0.04573276    0.04260882   -0.02251117
     atom  265 type  4   force =     0.02487854    0.01510446   -0.03965964
     atom  266 type  4   force =     0.02701199    0.02036540   -0.04800004
     atom  267 type  4   force =     0.07752785   -0.00409729   -0.04290695
     atom  268 type  4   force =     0.02718496   -0.04396401   -0.03137254
     atom  269 type  4   force =    -0.01663172   -0.06669625    0.00511226
     atom  270 type  4   force =    -0.07175139   -0.01325048   -0.02962749
     atom  271 type  4   force =     0.06966751    0.01181708    0.00874053
     atom  272 type  4   force =     0.02761793    0.05489332   -0.01275674
     atom  273 type  4   force =     0.00245042   -0.00629151    0.04774408
     atom  274 type  4   force =    -0.02439371    0.00274060    0.02712861
     atom  275 type  4   force =    -0.01182605   -0.02057688    0.01821649
     atom  276 type  4   force =     0.04365392    0.07912811    0.06967504
     atom  277 type  4   force =     0.02662958   -0.01173939   -0.07655204
     atom  278 type  4   force =    -0.02158501    0.06310459    0.04437424
     atom  279 type  4   force =    -0.01201778   -0.02157616    0.00405900
     atom  280 type  4   force =    -0.02691987    0.05673443    0.00961621
     atom  281 type  4   force =     0.04153430    0.03154802    0.04330543
     atom  282 type  4   force =     0.03673428   -0.05135838    0.01536943
     atom  283 type  4   force =     0.00389037   -0.06523150   -0.03210130
     atom  284 type  4   force =     0.07187277   -0.05372492   -0.03047537
     atom  285 type  4   force =     0.01850950   -0.01658636    0.01461594
     atom  286 type  4   force =    -0.11849862   -0.02982241   -0.06912859
     atom  287 type  4   force =    -0.01623568   -0.00174104    0.04450544
     atom  288 type  4   force =     0.06712336   -0.00380811   -0.05576973
     atom  289 type  4   force =     0.02105107    0.09131723   -0.02689116
     atom  290 type  4   force =     0.10189684   -0.05825384   -0.11028531
     atom  291 type  4   force =    -0.03016440    0.01410801   -0.01574622
     atom  292 type  4   force =    -0.01947171   -0.01130342    0.01437429
     atom  293 type  4   force =    -0.00654986   -0.02629694   -0.04963865
     atom  294 type  4   force =     0.08009549   -0.02996581    0.16785159
     atom  295 type  4   force =    -0.05386084    0.06400884    0.06798862
     atom  296 type  4   force =    -0.05992346    0.01919306    0.03735090
     atom  297 type  4   force =    -0.01779080    0.01402376   -0.02421411
     atom  298 type  4   force =     0.01307935    0.01329890    0.01797269
     atom  299 type  4   force =    -0.06685623   -0.14502638   -0.02683919
     atom  300 type  4   force =    -0.01170383   -0.05288798   -0.03407745
     atom  301 type  4   force =    -0.07376388    0.03966604    0.02584954
     atom  302 type  4   force =     0.00574701    0.12646209    0.11051954
     atom  303 type  4   force =    -0.01420897   -0.02292328   -0.03985527
     atom  304 type  4   force =    -0.03902848   -0.00156282    0.01110646
     atom  305 type  4   force =    -0.03631723   -0.01652239    0.00703170
     atom  306 type  4   force =     0.00811308    0.01576926   -0.05868412
     atom  307 type  4   force =     0.02343117    0.02016475    0.04237066
     atom  308 type  4   force =     0.00972851    0.00088066   -0.05119196
     atom  309 type  4   force =     0.00197350   -0.02058173    0.01393037
     atom  310 type  4   force =     0.09236303   -0.00427114    0.11082099
     atom  311 type  4   force =    -0.03272620   -0.01337025    0.01155732
     atom  312 type  4   force =    -0.02337495    0.02161200    0.01460022
     atom  313 type  4   force =     0.01429018   -0.08717062    0.01947807
     atom  314 type  4   force =    -0.04567762    0.01305530   -0.02392661
     atom  315 type  4   force =    -0.01722550   -0.00382660   -0.02787797
     atom  316 type  4   force =    -0.00558928   -0.00388757    0.01814467
     atom  317 type  4   force =    -0.00177347    0.06900030    0.03999233
     atom  318 type  4   force =     0.04034805    0.00254016   -0.01754224
     atom  319 type  4   force =    -0.02971395   -0.01473318   -0.06110292
     atom  320 type  4   force =     0.04262706   -0.01853959   -0.02673947
     atom  321 type  4   force =    -0.02604782    0.12865398    0.03793037
     atom  322 type  4   force =     0.02388826    0.01091927   -0.06530841
     atom  323 type  4   force =     0.03554614   -0.03559075    0.04991353
     atom  324 type  4   force =     0.05218505    0.00488435   -0.02322051
     atom  325 type  4   force =     0.03440952   -0.02324332   -0.02832458
     atom  326 type  4   force =    -0.00823586    0.11664641    0.05600092
     atom  327 type  4   force =     0.04743146    0.04959606   -0.03977894
     atom  328 type  4   force =     0.02052971    0.00099848   -0.01994620
     atom  329 type  4   force =     0.10558312    0.01069489    0.01855302
     atom  330 type  4   force =     0.02370062   -0.03658038   -0.05447777
     atom  331 type  4   force =     0.03238149    0.04218392   -0.00806835
     atom  332 type  4   force =     0.02197663    0.05072331   -0.01244933
     atom  333 type  4   force =    -0.05389555   -0.05589834    0.02742377
     atom  334 type  4   force =     0.02377622    0.04554150   -0.02793865
     atom  335 type  4   force =     0.06794244    0.02175734   -0.02189517
     atom  336 type  4   force =    -0.03942203   -0.03108320   -0.04391005
     atom  337 type  4   force =    -0.00473487   -0.00474231   -0.02315356
     atom  338 type  4   force =    -0.05726465    0.04317477   -0.01898306
     atom  339 type  5   force =    -0.02046870    0.02373470    0.03466633
     atom  340 type  5   force =     0.00643048   -0.02890011    0.02819811
     atom  341 type  6   force =     0.02461382    0.00338714   -0.00052512
     atom  342 type  6   force =    -0.02446507   -0.00334290    0.00061222
     atom  343 type  6   force =     0.00406164   -0.04068460   -0.00220729
     atom  344 type  6   force =     0.00697850   -0.04038743   -0.00252662
     atom  345 type  6   force =    -0.00673663    0.04049947    0.00250820
     atom  346 type  6   force =    -0.00428087    0.04071107    0.00264078
     atom  347 type  6   force =     0.02783542    0.02122176    0.00076425
     atom  348 type  6   force =    -0.03245565    0.01304598    0.00165064
     atom  349 type  6   force =     0.03253247   -0.01308293   -0.00166924
     atom  350 type  6   force =    -0.02813821   -0.02124778   -0.00015350
     atom  351 type  7   force =     0.00292019    0.00574800    0.00006390
     atom  352 type  7   force =    -0.00419266    0.00478072    0.00020646
     atom  353 type  7   force =     0.00420364   -0.00479150   -0.00057091
     atom  354 type  7   force =    -0.00266577   -0.00569987   -0.00042011
     atom  355 type  7   force =     0.00388110   -0.00323240   -0.00050654
     atom  356 type  7   force =    -0.00285192   -0.00404915   -0.00034138
     atom  357 type  7   force =     0.00290528    0.00419408   -0.00001769
     atom  358 type  7   force =    -0.00385451    0.00317042    0.00010120

     Total force =     1.686372     Total SCF correction =     0.000175


     Computing stress (Cartesian axis) and pressure


     negative rho (up, down):  6.033E-02 0.000E+00
          total   stress  (Ry/bohr**3)                   (kbar)     P=        7.98
   0.00005260   0.00000155  -0.00000302            7.74        0.23       -0.44
   0.00000155   0.00006103   0.00000346            0.23        8.98        0.51
  -0.00000302   0.00000346   0.00004917           -0.44        0.51        7.23


     Writing all to output data dir ./outputs/pwscf.save/ :
     XML data file, charge density, pseudopotentials, collected wavefunctions
 
     init_run     :    148.54s CPU    152.81s WALL (       1 calls)
     electrons    :  77229.97s CPU  78534.23s WALL (       1 calls)
     forces       :     95.23s CPU     98.45s WALL (       1 calls)
     stress       :    355.59s CPU    360.21s WALL (       1 calls)

     Called by init_run:
     wfcinit      :    132.26s CPU    135.25s WALL (       1 calls)
     potinit      :      1.18s CPU      1.29s WALL (       1 calls)
     hinit0       :      1.44s CPU      1.49s WALL (       1 calls)

     Called by electrons:
     c_bands      :  64760.50s CPU  65520.36s WALL (     267 calls)
     sum_band     :  11206.42s CPU  11512.03s WALL (     267 calls)
     v_of_rho     :    122.03s CPU    127.09s WALL (     268 calls)
     newd         :    906.88s CPU   1135.58s WALL (     268 calls)
     PAW_pot      :    151.43s CPU    152.32s WALL (     268 calls)
     mix_rho      :     66.63s CPU     69.54s WALL (     267 calls)

     Called by c_bands:
     init_us_2    :    588.76s CPU    596.50s WALL (     536 calls)
     cegterg      :  63906.17s CPU  64654.16s WALL (     267 calls)

     Called by *egterg:
     cdiaghg      :    907.83s CPU    914.90s WALL (     582 calls)
     h_psi        :  35253.66s CPU  35590.86s WALL (     583 calls)
     s_psi        :  10337.69s CPU  10428.01s WALL (     583 calls)
     g_psi        :     40.64s CPU     41.11s WALL (     315 calls)

     Called by h_psi:
     h_psi:calbec :  10620.02s CPU  10681.99s WALL (     583 calls)
     vloc_psi     :  14254.76s CPU  14392.13s WALL (     583 calls)
                                        0.00s GPU  (     583 calls)
     add_vuspsi   :  10312.78s CPU  10388.09s WALL (     583 calls)

     General routines
     calbec       :  16212.81s CPU  16306.27s WALL (     867 calls)
     fft          :    112.16s CPU    117.81s WALL (    3507 calls)
     ffts         :     10.85s CPU     11.31s WALL (     535 calls)
     fftw         :  13777.08s CPU  13901.49s WALL ( 1507475 calls)
     interpolate  :     14.99s CPU     15.63s WALL (     268 calls)
 
     Parallel routines
 
     PWSCF        :     21h37m CPU     22h 0m WALL

 
   This run was terminated on:  10:15:48  15Mar2026            

=------------------------------------------------------------------------------=
   JOB DONE.
=------------------------------------------------------------------------------=
