
     Program PWSCF v.7.5 starts on 15Mar2026 at  1:57: 0 

     This program is part of the open-source Quantum ESPRESSO suite
     for quantum simulation of materials; please cite
         "P. Giannozzi et al., J. Phys.:Condens. Matter 21 395502 (2009);
         "P. Giannozzi et al., J. Phys.:Condens. Matter 29 465901 (2017);
         "P. Giannozzi et al., J. Chem. Phys. 152 154105 (2020);
          URL http://www.quantum-espresso.org", 
     in publications or presentations arising from this work. More details at
     http://www.quantum-espresso.org/quote

     Parallel version (MPI), running on    80 processors

     MPI processes distributed on     4 nodes
     81257 MiB available memory on the printing compute node when the environment starts
 
     Reading input from NaphthaleneOnGlassSite3Snapshot30.in
Warning: card &CELL ignored
Warning: card &FCP ignored
Warning: card &RISM ignored

     Current dimensions of program PWSCF are:
     Max number of different atomic species (ntypx) = 10
     Max number of k-points (npk) =  40000
     Max angular momentum in pseudopotentials (lmaxx) =  4
     file Na.paw.z_9.ld1.psl.v1.0.0-low.upf: wavefunction(s)  2P renormalized
     file O.pbe-n-kjpaw_psl.0.1.UPF: wavefunction(s)  2P renormalized
     file Al.pbe-n-kjpaw_psl.1.0.0.UPF: wavefunction(s)  3S 3P renormalized
     file C.pbe-n-kjpaw_psl.1.0.0.UPF: wavefunction(s)  2S 2P renormalized
 
     R & G space division:  proc/nbgrp/npool/nimage =      80
     Subspace diagonalization in iterative solution of the eigenvalue problem:
     one sub-group per band group will be used
     custom distributed-memory algorithm (size of sub-group:  8*  8 procs)

 
     Parallelization info
     --------------------
     sticks:   dense  smooth     PW     G-vecs:    dense   smooth      PW
     Min         450     400    100               199276   167008   20874
     Max         451     401    101               199303   167021   20885
     Sum       36073   32057   8021             15943719 13361281 1670237
 
     Using Slab Decomposition
 


     bravais-lattice index     =            0
     lattice parameter (alat)  =      35.4885  a.u.
     unit-cell volume          =  138228.4306 (a.u.)^3
     number of atoms/cell      =          358
     number of atomic types    =            7
     number of electrons       =      1872.00
     number of Kohn-Sham states=         1123
     kinetic-energy cutoff     =      80.0000  Ry
     charge density cutoff     =     360.0000  Ry
     scf convergence threshold =      1.0E-08
     mixing beta               =       0.1000
     number of iterations used =            8  plain     mixing
     Exchange-correlation= PBE
                           (   1   4   3   4   0   0   0)

     celldm(1)=  35.488539  celldm(2)=   0.000000  celldm(3)=   0.000000
     celldm(4)=   0.000000  celldm(5)=   0.000000  celldm(6)=   0.000000

     crystal axes: (cart. coord. in units of alat)
               a(1) = (   1.000000   0.000000   0.000000 )  
               a(2) = (   0.000000   1.000000   0.000000 )  
               a(3) = (   0.000000   0.000000   3.092666 )  

     reciprocal axes: (cart. coord. in units 2 pi/alat)
               b(1) = (  1.000000  0.000000  0.000000 )  
               b(2) = (  0.000000  1.000000  0.000000 )  
               b(3) = (  0.000000  0.000000  0.323346 )  


     PseudoPot. # 1 for Na read from file:
     /home/sabeel/VOCC_Simulation/pseudopotentials/SSSP_Precision/Na.paw.z_9.ld1.psl.v1.0.0-low.upf
     MD5 check sum: 32bccecb13d7399e6c7dae6fe6685ff0
     Pseudo is Projector augmented-wave + core cor, Zval =  9.0
     Generated using &quot;atomic&quot; code by A. Dal Corso  v.6.3MaX
     Shape of augmentation charge: PSQ
     Using radial grid of 1121 points,  4 beta functions with: 
                l(1) =   0
                l(2) =   0
                l(3) =   1
                l(4) =   1
     Q(r) pseudized with 0 coefficients 


     PseudoPot. # 2 for B  read from file:
     /home/sabeel/VOCC_Simulation/pseudopotentials/SSSP_Precision/B_pbe_v1.01.uspp.F.UPF
     MD5 check sum: d081ebb89d0c768e112975f650467a00
     Pseudo is Ultrasoft + core correction, Zval =  3.0
     Generated by new atomic code, or converted to UPF format
     Using radial grid of  781 points,  4 beta functions with: 
                l(1) =   0
                l(2) =   0
                l(3) =   1
                l(4) =   1
     Q(r) pseudized with  8 coefficients,  rinner =    1.100   1.100   1.100


     PseudoPot. # 3 for Si read from file:
     /home/sabeel/VOCC_Simulation/pseudopotentials/SSSP_Precision/Si.pbe-n-rrkjus_psl.1.0.0.UPF
     MD5 check sum: 0b0bb1205258b0d07b9f9672cf965d36
     Pseudo is Ultrasoft + core correction, Zval =  4.0
     Generated using "atomic" code by A. Dal Corso  v.5.1
     Using radial grid of 1141 points,  6 beta functions with: 
                l(1) =   0
                l(2) =   0
                l(3) =   1
                l(4) =   1
                l(5) =   2
                l(6) =   2
     Q(r) pseudized with 0 coefficients 


     PseudoPot. # 4 for O  read from file:
     /home/sabeel/VOCC_Simulation/pseudopotentials/SSSP_Precision/O.pbe-n-kjpaw_psl.0.1.UPF
     MD5 check sum: 0234752ac141de4415c5fc33072bef88
     Pseudo is Projector augmented-wave + core cor, Zval =  6.0
     Generated using "atomic" code by A. Dal Corso  v.5.0.99 svn rev. 10869
     Shape of augmentation charge: BESSEL
     Using radial grid of 1095 points,  4 beta functions with: 
                l(1) =   0
                l(2) =   0
                l(3) =   1
                l(4) =   1
     Q(r) pseudized with 0 coefficients 


     PseudoPot. # 5 for Al read from file:
     /home/sabeel/VOCC_Simulation/pseudopotentials/SSSP_Precision/Al.pbe-n-kjpaw_psl.1.0.0.UPF
     MD5 check sum: cfc449ca30b5f3223ec38ddd88ac046d
     Pseudo is Projector augmented-wave + core cor, Zval =  3.0
     Generated using "atomic" code by A. Dal Corso  v.5.1
     Shape of augmentation charge: PSQ
     Using radial grid of 1135 points,  6 beta functions with: 
                l(1) =   0
                l(2) =   0
                l(3) =   1
                l(4) =   1
                l(5) =   2
                l(6) =   2
     Q(r) pseudized with 0 coefficients 


     PseudoPot. # 6 for C  read from file:
     /home/sabeel/VOCC_Simulation/pseudopotentials/SSSP_Precision/C.pbe-n-kjpaw_psl.1.0.0.UPF
     MD5 check sum: 5d2aebdfa2cae82b50a7e79e9516da0f
     Pseudo is Projector augmented-wave + core cor, Zval =  4.0
     Generated using "atomic" code by A. Dal Corso  v.5.1
     Shape of augmentation charge: PSQ
     Using radial grid of 1073 points,  4 beta functions with: 
                l(1) =   0
                l(2) =   0
                l(3) =   1
                l(4) =   1
     Q(r) pseudized with 0 coefficients 


     PseudoPot. # 7 for H  read from file:
     /home/sabeel/VOCC_Simulation/pseudopotentials/SSSP_Precision/H_ONCV_PBE-1.0.oncvpsp.upf
     MD5 check sum: 1790becc920ee074925cf490c71280fe
     Pseudo is Norm-conserving, Zval =  1.0
     Generated using ONCVPSP code by D. R. Hamann
     Using radial grid of 1166 points,  2 beta functions with: 
                l(1) =   0
                l(2) =   0

     atomic species   valence    mass     pseudopotential
     Na                9.00    22.98977     Na( 1.00)
     B                 3.00    10.81000     B ( 1.00)
     Si                4.00    28.08500     Si( 1.00)
     O                 6.00    15.99900     O ( 1.00)
     Al                3.00    26.98154     Al( 1.00)
     C                 4.00    12.01100     C ( 1.00)
     H                 1.00     1.00800     H ( 1.00)

     No symmetry found



   Cartesian axes

     site n.     atom                  positions (alat units)
         1        Na     tau(   1) = (   0.2476327   0.1287261   1.4401902  )
         2        Na     tau(   2) = (   0.2347070   0.3964799   1.8357059  )
         3        Na     tau(   3) = (   0.2580766   0.4457236   1.6551511  )
         4        Na     tau(   4) = (   0.0484944   0.0277893   1.6277847  )
         5        Na     tau(   5) = (   0.2352313   0.0813062   1.2863150  )
         6        Na     tau(   6) = (   0.0747243   0.2371463   1.1982473  )
         7        Na     tau(   7) = (   0.1133306   0.7698962   1.8611434  )
         8        Na     tau(   8) = (   0.9037110   0.1954209   1.2700780  )
         9        Na     tau(   9) = (   0.5181841   0.1014052   1.4940734  )
        10        Na     tau(  10) = (   0.3803624   0.0140251   1.8302637  )
        11        Na     tau(  11) = (   0.3545179   0.4989222   1.3772145  )
        12        B      tau(  12) = (   0.9565860   0.6559989   1.4661680  )
        13        B      tau(  13) = (   0.3779039   0.3190213   1.8506233  )
        14        B      tau(  14) = (   0.6357433   0.7757670   1.3375748  )
        15        B      tau(  15) = (   0.9958362   0.0827877   1.8476266  )
        16        B      tau(  16) = (   0.6987179   0.5586979   1.3943070  )
        17        B      tau(  17) = (   0.0903279   0.5997535   1.2200041  )
        18        B      tau(  18) = (   0.9460845   0.5017876   1.4754679  )
        19        B      tau(  19) = (   0.0032347   0.0527127   1.2839437  )
        20        B      tau(  20) = (   0.1241012   0.5940167   1.6016841  )
        21        B      tau(  21) = (   0.4174729   0.9198072   1.5541475  )
        22        B      tau(  22) = (   0.4638227   0.9107282   1.2322731  )
        23        B      tau(  23) = (   0.5096053   0.7092947   1.5000083  )
        24        B      tau(  24) = (   0.4035376   0.9367665   1.6900270  )
        25        B      tau(  25) = (   0.7132674   0.8560217   1.2558196  )
        26        B      tau(  26) = (   0.2579773   0.4217781   1.2874388  )
        27        B      tau(  27) = (   0.1862793   0.2338812   1.3576537  )
        28        B      tau(  28) = (   0.2134919   0.3664862   1.5073156  )
        29        B      tau(  29) = (   0.3546252   0.0462610   1.5293894  )
        30        B      tau(  30) = (   0.8082206   0.9504483   1.6218439  )
        31        B      tau(  31) = (   0.4915043   0.5408159   1.2913026  )
        32        B      tau(  32) = (   0.2471486   0.9450605   1.4099193  )
        33        B      tau(  33) = (   0.7089246   0.1566090   1.6669558  )
        34        B      tau(  34) = (   0.4858908   0.1745693   1.3498737  )
        35        Si     tau(  35) = (   0.5740761   0.3686341   1.4981594  )
        36        Si     tau(  36) = (   0.9600416   0.6521543   1.2713743  )
        37        Si     tau(  37) = (   0.8029666   0.9237355   1.4090604  )
        38        Si     tau(  38) = (   0.6589027   0.0111466   1.4303706  )
        39        Si     tau(  39) = (   0.7148031   0.8518694   1.6658713  )
        40        Si     tau(  40) = (   0.4062844   0.4370669   1.7000479  )
        41        Si     tau(  41) = (   0.8652299   0.0194200   1.2866760  )
        42        Si     tau(  42) = (   0.8792462   0.4724358   1.3313926  )
        43        Si     tau(  43) = (   0.9761010   0.8191325   1.3004490  )
        44        Si     tau(  44) = (   0.0927580   0.6000365   1.4532062  )
        45        Si     tau(  45) = (   0.8492038   0.6801733   1.8429896  )
        46        Si     tau(  46) = (   0.7648638   0.9759642   1.8781504  )
        47        Si     tau(  47) = (   0.8282769   0.9005504   1.7531841  )
        48        Si     tau(  48) = (   0.2400871   0.2615564   1.6009290  )
        49        Si     tau(  49) = (   0.0782160   0.8578516   1.7113893  )
        50        Si     tau(  50) = (   0.1793983   0.5421597   1.3229395  )
        51        Si     tau(  51) = (   0.3045589   0.3154693   1.3856788  )
        52        Si     tau(  52) = (   0.1868342   0.9496617   1.8144358  )
        53        Si     tau(  53) = (   0.5597482   0.9942014   1.8563540  )
        54        Si     tau(  54) = (   0.3283405   0.8654915   1.7979255  )
        55        Si     tau(  55) = (   0.3944303   0.1342286   1.2558232  )
        56        Si     tau(  56) = (   0.5556116   0.4029995   1.7688172  )
        57        Si     tau(  57) = (   0.8886951   0.0519111   1.5515978  )
        58        Si     tau(  58) = (   0.9177874   0.8266438   1.8602018  )
        59        Si     tau(  59) = (   0.5141592   0.7513592   1.7304853  )
        60        Si     tau(  60) = (   0.6200680   0.7296116   1.5975635  )
        61        Si     tau(  61) = (   0.4531771   0.2653855   1.4551164  )
        62        Si     tau(  62) = (   0.9530092   0.1910999   1.6203079  )
        63        Si     tau(  63) = (   0.9806318   0.2594417   1.4695044  )
        64        Si     tau(  64) = (   0.1810221   0.5658568   1.7318917  )
        65        Si     tau(  65) = (   0.2276537   0.6624309   1.2309086  )
        66        Si     tau(  66) = (   0.7086066   0.3068958   1.4624957  )
        67        Si     tau(  67) = (   0.7573617   0.5008676   1.2102682  )
        68        Si     tau(  68) = (   0.0630774   0.5052222   1.8068999  )
        69        Si     tau(  69) = (   0.9531780   0.4208941   1.7332624  )
        70        Si     tau(  70) = (   0.8429520   0.6341042   1.3864806  )
        71        Si     tau(  71) = (   0.8255070   0.2513717   1.7092992  )
        72        Si     tau(  72) = (   0.4660404   0.3166643   1.5999861  )
        73        Si     tau(  73) = (   0.3218087   0.1696541   1.7095271  )
        74        Si     tau(  74) = (   0.6054871   0.0864265   1.2929813  )
        75        Si     tau(  75) = (   0.4402609   0.0821865   1.6559030  )
        76        Si     tau(  76) = (   0.3770531   0.0317907   1.3941734  )
        77        Si     tau(  77) = (   0.5059912   0.8072476   1.3243503  )
        78        Si     tau(  78) = (   0.6069382   0.5044701   1.6609957  )
        79        Si     tau(  79) = (   0.6370349   0.4244534   1.3741369  )
        80        Si     tau(  80) = (   0.6855674   0.7078304   1.8645318  )
        81        Si     tau(  81) = (   0.0765130   0.9298841   1.2314627  )
        82        Si     tau(  82) = (   0.9863684   0.4054382   1.2235204  )
        83        Si     tau(  83) = (   0.4950631   0.2585395   1.7548401  )
        84        Si     tau(  84) = (   0.5719431   0.1160579   1.7357262  )
        85        Si     tau(  85) = (   0.3566442   0.7389475   1.7027041  )
        86        Si     tau(  86) = (   0.5887626   0.6478135   1.7482870  )
        87        Si     tau(  87) = (   0.3778403   0.4701707   1.1981005  )
        88        Si     tau(  88) = (   0.7705746   0.7745811   1.3546535  )
        89        Si     tau(  89) = (   0.6353056   0.3899359   1.2194797  )
        90        Si     tau(  90) = (   0.3199297   0.6027545   1.8036004  )
        91        Si     tau(  91) = (   0.6901246   0.5787282   1.5496775  )
        92        Si     tau(  92) = (   0.1108815   0.9857043   1.4484254  )
        93        Si     tau(  93) = (   0.0087222   0.8101075   1.4596435  )
        94        Si     tau(  94) = (   0.4662737   0.5842118   1.4387730  )
        95        Si     tau(  95) = (   0.1497603   0.1150345   1.8191784  )
        96        Si     tau(  96) = (   0.9119816   0.9073773   1.5284091  )
        97        Si     tau(  97) = (   0.5081777   0.9347421   1.4393654  )
        98        Si     tau(  98) = (   0.9733658   0.9480751   1.7929925  )
        99        Si     tau(  99) = (   0.2449909   0.7736475   1.5958723  )
       100        Si     tau( 100) = (   0.2568298   0.7840856   1.3334763  )
       101        Si     tau( 101) = (   0.1600543   0.7576293   1.4557816  )
       102        Si     tau( 102) = (   0.9190690   0.2974838   1.8287833  )
       103        Si     tau( 103) = (   0.8499270   0.3745654   1.6104514  )
       104        Si     tau( 104) = (   0.8444491   0.5369054   1.7673517  )
       105        Si     tau( 105) = (   0.1203187   0.1732756   1.6597012  )
       106        Si     tau( 106) = (   0.6321686   0.6005607   1.2681838  )
       107        Si     tau( 107) = (   0.6235724   0.8470731   1.8048529  )
       108        Si     tau( 108) = (   0.7501132   0.1202716   1.2309056  )
       109        Si     tau( 109) = (   0.2746484   0.2046900   1.8670863  )
       110        Si     tau( 110) = (   0.2273259   0.0646953   1.6216725  )
       111        Si     tau( 111) = (   0.0729274   0.4042159   1.4579120  )
       112        Si     tau( 112) = (   0.6640697   0.1601480   1.5162335  )
       113        Si     tau( 113) = (   0.1226817   0.7031938   1.6887692  )
       114        Si     tau( 114) = (   0.8406300   0.5276586   1.5875131  )
       115        Si     tau( 115) = (   0.8389500   0.3149315   1.3901795  )
       116        Si     tau( 116) = (   0.1722727   0.9211130   1.5953570  )
       117        Si     tau( 117) = (   0.0763504   0.1375521   1.3930086  )
       118        Si     tau( 118) = (   0.3256209   0.9115638   1.2548481  )
       119        Si     tau( 119) = (   0.3955849   0.7224945   1.4035300  )
       120        Si     tau( 120) = (   0.4652418   0.5499611   1.5942954  )
       121        Si     tau( 121) = (   0.1212618   0.3651412   1.3045003  )
       122        O      tau( 122) = (   0.0295168   0.4481121   1.8630498  )
       123        O      tau( 123) = (   0.8632305   0.7660730   1.8351295  )
       124        O      tau( 124) = (   0.7865379   0.5198677   1.8292109  )
       125        O      tau( 125) = (   0.7687039   0.8065522   1.2712216  )
       126        O      tau( 126) = (   0.2613316   0.2462125   1.3627201  )
       127        O      tau( 127) = (   0.4383841   0.2721051   1.5384261  )
       128        O      tau( 128) = (   0.4075804   0.9041606   1.6244717  )
       129        O      tau( 129) = (   0.2891632   0.9821156   1.2266374  )
       130        O      tau( 130) = (   0.3003666   0.1796727   1.7902854  )
       131        O      tau( 131) = (   0.5973279   0.4225163   1.2949590  )
       132        O      tau( 132) = (   0.5334428   0.5020140   1.6146071  )
       133        O      tau( 133) = (   0.2755656   0.1058719   1.6786020  )
       134        O      tau( 134) = (   0.1545595   0.1075181   1.6150265  )
       135        O      tau( 135) = (   0.1198242   0.5723265   1.5291309  )
       136        O      tau( 136) = (   0.5826608   0.7211316   1.6806210  )
       137        O      tau( 137) = (   0.4384820   0.7620469   1.6969890  )
       138        O      tau( 138) = (   0.3813441   0.2977472   1.4178316  )
       139        O      tau( 139) = (   0.9518571   0.2429557   1.5505285  )
       140        O      tau( 140) = (   0.6668767   0.5177678   1.6031137  )
       141        O      tau( 141) = (   0.1520770   0.1695411   1.3620472  )
       142        O      tau( 142) = (   0.6925009   0.7509516   1.3753791  )
       143        O      tau( 143) = (   0.1434568   0.6580895   1.2139172  )
       144        O      tau( 144) = (   0.4761486   0.9028411   1.5138988  )
       145        O      tau( 145) = (   0.0631356   0.5782061   1.8492954  )
       146        O      tau( 146) = (   0.5876332   0.4146284   1.8503125  )
       147        O      tau( 147) = (   0.1071621   0.8902567   1.6361869  )
       148        O      tau( 148) = (   0.0331486   0.1967754   1.4407710  )
       149        O      tau( 149) = (   0.9443941   0.9810288   1.5588672  )
       150        O      tau( 150) = (   0.5485694   0.5774714   1.2625723  )
       151        O      tau( 151) = (   0.6090489   0.9225244   1.8421140  )
       152        O      tau( 152) = (   0.3184350   0.7927686   1.7545505  )
       153        O      tau( 153) = (   0.2965868   0.2359092   1.6579206  )
       154        O      tau( 154) = (   0.3399948   0.4149078   1.7451441  )
       155        O      tau( 155) = (   0.6583099   0.3076783   1.2358723  )
       156        O      tau( 156) = (   0.5620926   0.7442927   1.5385442  )
       157        O      tau( 157) = (   0.5556976   0.3175372   1.7688381  )
       158        O      tau( 158) = (   0.3525972   0.6632019   1.7471104  )
       159        O      tau( 159) = (   0.9620412   0.3446718   1.7697440  )
       160        O      tau( 160) = (   0.5313272   0.1848172   1.7709556  )
       161        O      tau( 161) = (   0.9429693   0.0183272   1.3239474  )
       162        O      tau( 162) = (   0.4858005   0.9533180   1.8755890  )
       163        O      tau( 163) = (   0.3657073   0.5328581   1.8345358  )
       164        O      tau( 164) = (   0.4406081   0.5066782   1.2484323  )
       165        O      tau( 165) = (   0.3135028   0.2834622   1.8690668  )
       166        O      tau( 166) = (   0.7907911   0.8360261   1.7119523  )
       167        O      tau( 167) = (   0.7289290   0.9234833   1.2340123  )
       168        O      tau( 168) = (   0.1454692   0.2885690   1.3267456  )
       169        O      tau( 169) = (   0.3914991   0.9066251   1.7575926  )
       170        O      tau( 170) = (   0.7079875   0.2222935   1.4707635  )
       171        O      tau( 171) = (   0.9743698   0.8515159   1.5269402  )
       172        O      tau( 172) = (   0.1330105   0.5361140   1.2470617  )
       173        O      tau( 173) = (   0.5827735   0.0420994   1.2254729  )
       174        O      tau( 174) = (   0.8602910   0.6220068   1.7811976  )
       175        O      tau( 175) = (   0.5252483   0.6418342   1.4684534  )
       176        O      tau( 176) = (   0.6556139   0.6691234   1.7930720  )
       177        O      tau( 177) = (   0.9478947   0.4555202   1.2814895  )
       178        O      tau( 178) = (   0.9699578   0.0766966   1.2188133  )
       179        O      tau( 179) = (   0.5480526   0.8088247   1.7836236  )
       180        O      tau( 180) = (   0.3152477   0.7447790   1.3880620  )
       181        O      tau( 181) = (   0.1477991   0.6460434   1.7450578  )
       182        O      tau( 182) = (   0.4226375   0.0083615   1.6949577  )
       183        O      tau( 183) = (   0.5004654   0.8461638   1.2447985  )
       184        O      tau( 184) = (   0.7864920   0.8423242   1.4036977  )
       185        O      tau( 185) = (   0.9046070   0.6136339   1.3286598  )
       186        O      tau( 186) = (   0.1308852   0.5564651   1.3912596  )
       187        O      tau( 187) = (   0.0181193   0.9388870   1.8632981  )
       188        O      tau( 188) = (   0.5236768   0.3172741   1.4469420  )
       189        O      tau( 189) = (   0.6771903   0.1363695   1.2729556  )
       190        O      tau( 190) = (   0.5668565   0.7520726   1.3411952  )
       191        O      tau( 191) = (   0.4390184   0.1054952   1.8920128  )
       192        O      tau( 192) = (   0.2801127   0.0556319   1.5537880  )
       193        O      tau( 193) = (   0.9517833   0.2240015   1.8530263  )
       194        O      tau( 194) = (   0.4078786   0.5134087   1.6517908  )
       195        O      tau( 195) = (   0.6735166   0.7941076   1.8547702  )
       196        O      tau( 196) = (   0.7896414   0.2674110   1.3392843  )
       197        O      tau( 197) = (   0.9136500   0.5214282   1.5392122  )
       198        O      tau( 198) = (   0.5881526   0.4350093   1.4460280  )
       199        O      tau( 199) = (   0.7745755   0.5842257   1.3844862  )
       200        O      tau( 200) = (   0.2034896   0.9862494   1.6415920  )
       201        O      tau( 201) = (   0.1233221   0.6813655   1.4530684  )
       202        O      tau( 202) = (   0.7937827   0.3272627   1.4639956  )
       203        O      tau( 203) = (   0.4473563   0.5396589   1.5104804  )
       204        O      tau( 204) = (   0.6542799   0.3403998   1.5182787  )
       205        O      tau( 205) = (   0.8234572   0.7113307   1.3622509  )
       206        O      tau( 206) = (   0.8127487   0.4431771   1.5824090  )
       207        O      tau( 207) = (   0.5134106   0.6764784   1.7758121  )
       208        O      tau( 208) = (   0.1836556   0.7783442   1.3761575  )
       209        O      tau( 209) = (   0.8104766   0.3105590   1.6473803  )
       210        O      tau( 210) = (   0.3044033   0.9850075   1.3843284  )
       211        O      tau( 211) = (   0.1301504   0.8965179   1.7717389  )
       212        O      tau( 212) = (   0.3197141   0.1653364   1.2298596  )
       213        O      tau( 213) = (   0.4699233   0.1934200   1.4196372  )
       214        O      tau( 214) = (   0.2809558   0.8612246   1.3097159  )
       215        O      tau( 215) = (   0.4264163   0.2824703   1.8051299  )
       216        O      tau( 216) = (   0.6599679   0.6539216   1.5790006  )
       217        O      tau( 217) = (   0.7349642   0.9291111   1.6364595  )
       218        O      tau( 218) = (   0.0099961   0.4612132   1.4800917  )
       219        O      tau( 219) = (   0.5892025   0.1978638   1.5290320  )
       220        O      tau( 220) = (   0.0485841   0.8646896   1.2765110  )
       221        O      tau( 221) = (   0.9732948   0.8322736   1.3845405  )
       222        O      tau( 222) = (   0.4005127   0.1467648   1.7001924  )
       223        O      tau( 223) = (   0.8561165   0.3880932   1.3551362  )
       224        O      tau( 224) = (   0.1908703   0.7320545   1.6493092  )
       225        O      tau( 225) = (   0.5316561   0.3624401   1.5720686  )
       226        O      tau( 226) = (   0.6407674   0.0341441   1.3503554  )
       227        O      tau( 227) = (   0.2507360   0.3493753   1.4464087  )
       228        O      tau( 228) = (   0.5138994   0.8709061   1.3834646  )
       229        O      tau( 229) = (   0.9079300   0.5013233   1.4088368  )
       230        O      tau( 230) = (   0.4395504   0.1937154   1.2966161  )
       231        O      tau( 231) = (   0.2308999   0.6103161   1.2990312  )
       232        O      tau( 232) = (   0.3685013   0.9700313   1.5258447  )
       233        O      tau( 233) = (   0.8514985   0.9494698   1.6877232  )
       234        O      tau( 234) = (   0.0187499   0.4824011   1.7364241  )
       235        O      tau( 235) = (   0.2414021   0.3421124   1.5740169  )
       236        O      tau( 236) = (   0.6097970   0.4413714   1.7163163  )
       237        O      tau( 237) = (   0.4788214   0.4352721   1.7472383  )
       238        O      tau( 238) = (   0.1395403   0.9630524   1.5257738  )
       239        O      tau( 239) = (   0.3787358   0.0784353   1.3203646  )
       240        O      tau( 240) = (   0.5839692   0.9685892   1.4551464  )
       241        O      tau( 241) = (   0.9110607   0.6557788   1.2003494  )
       242        O      tau( 242) = (   0.0686474   0.1043740   1.8437037  )
       243        O      tau( 243) = (   0.1460976   0.3999842   1.5060950  )
       244        O      tau( 244) = (   0.4166165   0.3782170   1.6358330  )
       245        O      tau( 245) = (   0.0075933   0.9084354   1.7265037  )
       246        O      tau( 246) = (   0.8482460   0.9888286   1.2074661  )
       247        O      tau( 247) = (   0.6787187   0.3475581   1.3906861  )
       248        O      tau( 248) = (   0.2793975   0.6318760   1.8700688  )
       249        O      tau( 249) = (   0.1753735   0.9662414   1.3957977  )
       250        O      tau( 250) = (   0.0079684   0.6039592   1.4520956  )
       251        O      tau( 251) = (   0.6799702   0.7916690   1.6137563  )
       252        O      tau( 252) = (   0.8228944   0.4963375   1.2716413  )
       253        O      tau( 253) = (   0.1652982   0.5553089   1.6491463  )
       254        O      tau( 254) = (   0.6527640   0.8346788   1.2935381  )
       255        O      tau( 255) = (   0.0358116   0.1810737   1.6422342  )
       256        O      tau( 256) = (   0.5638762   0.0484964   1.7892635  )
       257        O      tau( 257) = (   0.7314789   0.9670683   1.4359075  )
       258        O      tau( 258) = (   0.2559548   0.8899428   1.4535926  )
       259        O      tau( 259) = (   0.7774448   0.5773609   1.5598674  )
       260        O      tau( 260) = (   0.0868638   0.6515873   1.6288983  )
       261        O      tau( 261) = (   0.2614827   0.9212168   1.7891965  )
       262        O      tau( 262) = (   0.1954831   0.1735609   1.8664394  )
       263        O      tau( 263) = (   0.9906684   0.7948073   1.8435173  )
       264        O      tau( 264) = (   0.4575167   0.9955248   1.4051103  )
       265        O      tau( 265) = (   0.7735858   0.2011661   1.2118609  )
       266        O      tau( 266) = (   0.8814090   0.9281431   1.4499689  )
       267        O      tau( 267) = (   0.4072071   0.9256292   1.2771435  )
       268        O      tau( 268) = (   0.8399764   0.8937974   1.5751596  )
       269        O      tau( 269) = (   0.9802476   0.7272430   1.4739436  )
       270        O      tau( 270) = (   0.4029974   0.6353892   1.4077172  )
       271        O      tau( 271) = (   0.5236271   0.0940762   1.6637713  )
       272        O      tau( 272) = (   0.2291142   0.8566340   1.6031926  )
       273        O      tau( 273) = (   0.1369597   0.1529802   1.7410824  )
       274        O      tau( 274) = (   0.8956842   0.4684356   1.7728116  )
       275        O      tau( 275) = (   0.0304714   0.3296381   1.4668483  )
       276        O      tau( 276) = (   0.9261533   0.1126670   1.5937994  )
       277        O      tau( 277) = (   0.3196110   0.7473434   1.6269653  )
       278        O      tau( 278) = (   0.2346612   0.4755155   1.3381933  )
       279        O      tau( 279) = (   0.0309321   0.9618656   1.4299785  )
       280        O      tau( 280) = (   0.1026240   0.4047238   1.3770124  )
       281        O      tau( 281) = (   0.0996948   0.0720356   1.4419196  )
       282        O      tau( 282) = (   0.9796419   0.7336502   1.2951357  )
       283        O      tau( 283) = (   0.4798587   0.2721799   1.6719849  )
       284        O      tau( 284) = (   0.1447462   0.5042309   1.7791641  )
       285        O      tau( 285) = (   0.6584207   0.0850578   1.4744274  )
       286        O      tau( 286) = (   0.8447302   0.2856675   1.7867899  )
       287        O      tau( 287) = (   0.9236456   0.3532967   1.8933803  )
       288        O      tau( 288) = (   0.7131244   0.4260542   1.2089447  )
       289        O      tau( 289) = (   0.1815374   0.0351118   1.8104616  )
       290        O      tau( 290) = (   0.0329975   0.6097415   1.2681351  )
       291        O      tau( 291) = (   0.8998275   0.8951096   1.8045433  )
       292        O      tau( 292) = (   0.3016404   0.4593341   1.2337882  )
       293        O      tau( 293) = (   0.2631331   0.5633327   1.7490475  )
       294        O      tau( 294) = (   0.7023044   0.1539457   1.5910141  )
       295        O      tau( 295) = (   0.5450848   0.1349270   1.3303906  )
       296        O      tau( 296) = (   0.1632620   0.2443342   1.6379519  )
       297        O      tau( 297) = (   0.1916640   0.3894955   1.2601897  )
       298        O      tau( 298) = (   0.0615898   0.0043928   1.2718305  )
       299        O      tau( 299) = (   0.3967139   0.3875856   1.8762703  )
       300        O      tau( 300) = (   0.4846187   0.5410669   1.3666698  )
       301        O      tau( 301) = (   0.8186424   0.0168112   1.5820830  )
       302        O      tau( 302) = (   0.5974300   0.5762403   1.7036424  )
       303        O      tau( 303) = (   0.4323575   0.7667648   1.3386386  )
       304        O      tau( 304) = (   0.7719883   0.9374236   1.8028857  )
       305        O      tau( 305) = (   0.7672182   0.1900179   1.6976508  )
       306        O      tau( 306) = (   0.8994379   0.0650389   1.4672678  )
       307        O      tau( 307) = (   0.4462121   0.7426137   1.4731770  )
       308        O      tau( 308) = (   0.9211726   0.3961581   1.6533343  )
       309        O      tau( 309) = (   0.2420202   0.2200105   1.5251544  )
       310        O      tau( 310) = (   0.8842963   0.6436934   1.4589679  )
       311        O      tau( 311) = (   0.6482991   0.6785877   1.2330670  )
       312        O      tau( 312) = (   0.4832983   0.6325017   1.6039613  )
       313        O      tau( 313) = (   0.7361349   0.0571749   1.8732737  )
       314        O      tau( 314) = (   0.6649925   0.8590630   1.7336776  )
       315        O      tau( 315) = (   0.9130296   0.2721061   1.4159943  )
       316        O      tau( 316) = (   0.6511009   0.5989696   1.3506902  )
       317        O      tau( 317) = (   0.8131240   0.0898692   1.2825970  )
       318        O      tau( 318) = (   0.6524595   0.1336951   1.7108949  )
       319        O      tau( 319) = (   0.6784211   0.5695802   1.4690337  )
       320        O      tau( 320) = (   0.9018920   0.2183548   1.6834522  )
       321        O      tau( 321) = (   0.9678130   0.0358255   1.7940055  )
       322        O      tau( 322) = (   0.8368182   0.5391156   1.6776043  )
       323        O      tau( 323) = (   0.7668768   0.6856661   1.8697035  )
       324        O      tau( 324) = (   0.1531671   0.9301796   1.8945654  )
       325        O      tau( 325) = (   0.2178402   0.7542098   1.5177838  )
       326        O      tau( 326) = (   0.3614324   0.0782581   1.4600024  )
       327        O      tau( 327) = (   0.4053368   0.0766386   1.5793453  )
       328        O      tau( 328) = (   0.3320739   0.8564650   1.8828345  )
       329        O      tau( 329) = (   0.0914304   0.8126101   1.4681485  )
       330        O      tau( 330) = (   0.2416337   0.7445048   1.2588964  )
       331        O      tau( 331) = (   0.8232583   0.9617889   1.3373563  )
       332        O      tau( 332) = (   0.0224173   0.1103921   1.3331986  )
       333        O      tau( 333) = (   0.0827261   0.7743688   1.7158336  )
       334        O      tau( 334) = (   0.3058372   0.3697607   1.3216954  )
       335        O      tau( 335) = (   0.6940744   0.4843818   1.3763524  )
       336        O      tau( 336) = (   0.0505520   0.3569640   1.2588409  )
       337        O      tau( 337) = (   0.6956442   0.5556100   1.2255199  )
       338        O      tau( 338) = (   0.9205918   0.8444316   1.2442634  )
       339        Al     tau( 339) = (   0.9474166   0.9984982   1.4171699  )
       340        Al     tau( 340) = (   0.7317137   0.2651324   1.2660316  )
       341        C      tau( 341) = (   0.5691377   0.4617851   2.7521909  )
       342        C      tau( 342) = (   0.4944784   0.4516561   2.7536747  )
       343        C      tau( 343) = (   0.6140474   0.4021687   2.7475646  )
       344        C      tau( 344) = (   0.4669239   0.3822075   2.7505044  )
       345        C      tau( 345) = (   0.5966869   0.5312330   2.7553614  )
       346        C      tau( 346) = (   0.4495738   0.5112736   2.7582956  )
       347        C      tau( 347) = (   0.5857528   0.3335483   2.7444511  )
       348        C      tau( 348) = (   0.5123336   0.3235869   2.7459208  )
       349        C      tau( 349) = (   0.5512823   0.5898546   2.7599396  )
       350        C      tau( 350) = (   0.4778681   0.5798945   2.7613986  )
       351        H      tau( 351) = (   0.6715984   0.4086951   2.7463388  )
       352        H      tau( 352) = (   0.4097061   0.3731626   2.7515730  )
       353        H      tau( 353) = (   0.6539041   0.5402829   2.7542984  )
       354        H      tau( 354) = (   0.3920120   0.5047463   2.7595111  )
       355        H      tau( 355) = (   0.6210717   0.2878911   2.7408865  )
       356        H      tau( 356) = (   0.4903398   0.2701488   2.7434938  )
       357        H      tau( 357) = (   0.5732767   0.6432877   2.7623610  )
       358        H      tau( 358) = (   0.4425484   0.6255570   2.7649634  )

     number of k points=     1  Gaussian smearing, width (Ry)=  0.0100
                       cart. coord. in units 2pi/alat
        k(    1) = (   0.0000000   0.0000000   0.0000000), wk =   2.0000000

     Dense  grid: 15943719 G-vectors     FFT dimensions: ( 216, 216, 675)

     Smooth grid: 13361281 G-vectors     FFT dimensions: ( 216, 216, 625)

     Estimated max dynamical RAM per process >       4.14 GB

     Estimated total dynamical RAM >     331.13 GB

     Check: negative core charge=   -0.000001

     Initial potential from superposition of free atoms

     starting charge    1871.8703, renormalised to    1872.0000

     negative rho (up, down):  4.206E-02 0.000E+00
     Starting wfcs are 1419 randomized atomic wfcs
     Checking if some PAW data can be deallocated... 

     total cpu time spent up to now is      149.2 secs

     per-process dynamical memory:  1754.1 Mb

     Self-consistent Calculation

     iteration #  1     ecut=    80.00 Ry     beta= 0.10
     Davidson diagonalization with overlap
     ethr =  1.00E-02,  avg # of iterations =  3.0

     negative rho (up, down):  4.413E-02 0.000E+00

     total cpu time spent up to now is      639.8 secs

     total energy              =  -11693.37003598 Ry
     estimated scf accuracy    <     115.61155761 Ry

     iteration #  2     ecut=    80.00 Ry     beta= 0.10
     Davidson diagonalization with overlap
     ethr =  6.18E-03,  avg # of iterations =  1.0

     negative rho (up, down):  4.586E-02 0.000E+00

     total cpu time spent up to now is      925.8 secs

     total energy              =  -11688.11070713 Ry
     estimated scf accuracy    <      84.87558008 Ry

     iteration #  3     ecut=    80.00 Ry     beta= 0.10
     Davidson diagonalization with overlap
     ethr =  4.53E-03,  avg # of iterations =  1.0

     negative rho (up, down):  4.770E-02 0.000E+00

     total cpu time spent up to now is     1211.7 secs

     total energy              =  -11681.50129255 Ry
     estimated scf accuracy    <      59.19086834 Ry

     iteration #  4     ecut=    80.00 Ry     beta= 0.10
     Davidson diagonalization with overlap
     ethr =  3.16E-03,  avg # of iterations =  2.0

     negative rho (up, down):  4.881E-02 0.000E+00

     total cpu time spent up to now is     1529.9 secs

     total energy              =  -11682.82201380 Ry
     estimated scf accuracy    <      60.37595949 Ry

     iteration #  5     ecut=    80.00 Ry     beta= 0.10
     Davidson diagonalization with overlap
     ethr =  3.16E-03,  avg # of iterations =  1.0

     negative rho (up, down):  4.993E-02 0.000E+00

     total cpu time spent up to now is     1814.8 secs

     total energy              =  -11682.19991550 Ry
     estimated scf accuracy    <      39.50141763 Ry

     iteration #  6     ecut=    80.00 Ry     beta= 0.10
     Davidson diagonalization with overlap
     ethr =  2.11E-03,  avg # of iterations =  2.0

     negative rho (up, down):  5.080E-02 0.000E+00

     total cpu time spent up to now is     2132.6 secs

     total energy              =  -11682.42855952 Ry
     estimated scf accuracy    <      26.87451240 Ry

     iteration #  7     ecut=    80.00 Ry     beta= 0.10
     Davidson diagonalization with overlap
     ethr =  1.44E-03,  avg # of iterations =  2.0

     negative rho (up, down):  5.162E-02 0.000E+00

     total cpu time spent up to now is     2451.1 secs

     total energy              =  -11682.17433180 Ry
     estimated scf accuracy    <      34.68987580 Ry

     iteration #  8     ecut=    80.00 Ry     beta= 0.10
     Davidson diagonalization with overlap
     ethr =  1.44E-03,  avg # of iterations =  1.0

     negative rho (up, down):  5.221E-02 0.000E+00

     total cpu time spent up to now is     2736.2 secs

     total energy              =  -11682.32241013 Ry
     estimated scf accuracy    <      19.15494394 Ry

     iteration #  9     ecut=    80.00 Ry     beta= 0.10
     Davidson diagonalization with overlap
     ethr =  1.02E-03,  avg # of iterations =  2.0

     negative rho (up, down):  5.279E-02 0.000E+00

     total cpu time spent up to now is     3055.5 secs

     total energy              =  -11682.16107551 Ry
     estimated scf accuracy    <      18.54125678 Ry

     iteration # 10     ecut=    80.00 Ry     beta= 0.10
     Davidson diagonalization with overlap
     ethr =  9.90E-04,  avg # of iterations =  1.0

     negative rho (up, down):  5.331E-02 0.000E+00

     total cpu time spent up to now is     3340.4 secs

     total energy              =  -11682.15507080 Ry
     estimated scf accuracy    <      11.89692709 Ry

     iteration # 11     ecut=    80.00 Ry     beta= 0.10
     Davidson diagonalization with overlap
     ethr =  6.36E-04,  avg # of iterations =  2.0

     negative rho (up, down):  5.367E-02 0.000E+00

     total cpu time spent up to now is     3660.4 secs

     total energy              =  -11682.03523634 Ry
     estimated scf accuracy    <      22.90226105 Ry

     iteration # 12     ecut=    80.00 Ry     beta= 0.10
     Davidson diagonalization with overlap
     ethr =  6.36E-04,  avg # of iterations =  2.0

     negative rho (up, down):  5.396E-02 0.000E+00

     total cpu time spent up to now is     3978.8 secs

     total energy              =  -11682.31074206 Ry
     estimated scf accuracy    <       5.22811548 Ry

     iteration # 13     ecut=    80.00 Ry     beta= 0.10
     Davidson diagonalization with overlap
     ethr =  2.79E-04,  avg # of iterations = 18.0

     negative rho (up, down):  5.436E-02 0.000E+00

     total cpu time spent up to now is     4438.2 secs

     total energy              =  -11682.22799221 Ry
     estimated scf accuracy    <       6.21626945 Ry

     iteration # 14     ecut=    80.00 Ry     beta= 0.10
     Davidson diagonalization with overlap
     ethr =  2.79E-04,  avg # of iterations =  1.0

     negative rho (up, down):  5.490E-02 0.000E+00

     total cpu time spent up to now is     4722.2 secs

     total energy              =  -11682.09559727 Ry
     estimated scf accuracy    <       4.86848685 Ry

     iteration # 15     ecut=    80.00 Ry     beta= 0.10
     Davidson diagonalization with overlap
     ethr =  2.60E-04,  avg # of iterations =  1.0

     negative rho (up, down):  5.491E-02 0.000E+00

     total cpu time spent up to now is     5006.5 secs

     total energy              =  -11681.93210866 Ry
     estimated scf accuracy    <      17.33318266 Ry

     iteration # 16     ecut=    80.00 Ry     beta= 0.10
     Davidson diagonalization with overlap
     ethr =  2.60E-04,  avg # of iterations =  2.0

     negative rho (up, down):  5.524E-02 0.000E+00

     total cpu time spent up to now is     5324.8 secs

     total energy              =  -11682.15241043 Ry
     estimated scf accuracy    <       3.79312455 Ry

     iteration # 17     ecut=    80.00 Ry     beta= 0.10
     Davidson diagonalization with overlap
     ethr =  2.03E-04,  avg # of iterations =  1.0

     negative rho (up, down):  5.588E-02 0.000E+00

     total cpu time spent up to now is     5608.4 secs

     total energy              =  -11682.07386718 Ry
     estimated scf accuracy    <       3.02577711 Ry

     iteration # 18     ecut=    80.00 Ry     beta= 0.10
     Davidson diagonalization with overlap
     ethr =  1.62E-04,  avg # of iterations =  2.0

     negative rho (up, down):  5.582E-02 0.000E+00

     total cpu time spent up to now is     5928.0 secs

     total energy              =  -11681.94637867 Ry
     estimated scf accuracy    <       9.45064099 Ry

     iteration # 19     ecut=    80.00 Ry     beta= 0.10
     Davidson diagonalization with overlap
     ethr =  1.62E-04,  avg # of iterations =  2.0

     negative rho (up, down):  5.604E-02 0.000E+00

     total cpu time spent up to now is     6246.1 secs

     total energy              =  -11682.12424779 Ry
     estimated scf accuracy    <       2.44899149 Ry

     iteration # 20     ecut=    80.00 Ry     beta= 0.10
     Davidson diagonalization with overlap
     ethr =  1.31E-04,  avg # of iterations =  1.0

     negative rho (up, down):  5.646E-02 0.000E+00

     total cpu time spent up to now is     6530.3 secs

     total energy              =  -11682.08055225 Ry
     estimated scf accuracy    <       2.79073082 Ry

     iteration # 21     ecut=    80.00 Ry     beta= 0.10
     Davidson diagonalization with overlap
     ethr =  1.31E-04,  avg # of iterations =  1.0

     negative rho (up, down):  5.659E-02 0.000E+00

     total cpu time spent up to now is     6814.1 secs

     total energy              =  -11682.01268202 Ry
     estimated scf accuracy    <       7.81294846 Ry

     iteration # 22     ecut=    80.00 Ry     beta= 0.10
     Davidson diagonalization with overlap
     ethr =  1.31E-04,  avg # of iterations =  1.0

     negative rho (up, down):  5.683E-02 0.000E+00

     total cpu time spent up to now is     7099.1 secs

     total energy              =  -11682.03402297 Ry
     estimated scf accuracy    <      11.76069855 Ry

     iteration # 23     ecut=    80.00 Ry     beta= 0.10
     Davidson diagonalization with overlap
     ethr =  1.31E-04,  avg # of iterations =  1.0

     negative rho (up, down):  5.677E-02 0.000E+00

     total cpu time spent up to now is     7382.7 secs

     total energy              =  -11682.05475136 Ry
     estimated scf accuracy    <       4.73753251 Ry

     iteration # 24     ecut=    80.00 Ry     beta= 0.10
     Davidson diagonalization with overlap
     ethr =  1.31E-04,  avg # of iterations =  1.0

     negative rho (up, down):  5.721E-02 0.000E+00

     total cpu time spent up to now is     7666.8 secs

     total energy              =  -11682.06373891 Ry
     estimated scf accuracy    <       4.84071885 Ry

     iteration # 25     ecut=    80.00 Ry     beta= 0.10
     Davidson diagonalization with overlap
     ethr =  1.31E-04,  avg # of iterations =  1.0

     negative rho (up, down):  5.738E-02 0.000E+00

     total cpu time spent up to now is     7951.2 secs

     total energy              =  -11682.08230630 Ry
     estimated scf accuracy    <       2.29170910 Ry

     iteration # 26     ecut=    80.00 Ry     beta= 0.10
     Davidson diagonalization with overlap
     ethr =  1.22E-04,  avg # of iterations =  1.0

     negative rho (up, down):  5.752E-02 0.000E+00

     total cpu time spent up to now is     8235.7 secs

     total energy              =  -11682.07748200 Ry
     estimated scf accuracy    <       1.60118589 Ry

     iteration # 27     ecut=    80.00 Ry     beta= 0.10
     Davidson diagonalization with overlap
     ethr =  8.55E-05,  avg # of iterations =  1.0

     negative rho (up, down):  5.802E-02 0.000E+00

     total cpu time spent up to now is     8519.9 secs

     total energy              =  -11682.06774317 Ry
     estimated scf accuracy    <       2.97129163 Ry

     iteration # 28     ecut=    80.00 Ry     beta= 0.10
     Davidson diagonalization with overlap
     ethr =  8.55E-05,  avg # of iterations =  1.0

     negative rho (up, down):  5.763E-02 0.000E+00

     total cpu time spent up to now is     8804.1 secs

     total energy              =  -11682.00578074 Ry
     estimated scf accuracy    <       5.61718756 Ry

     iteration # 29     ecut=    80.00 Ry     beta= 0.10
     Davidson diagonalization with overlap
     ethr =  8.55E-05,  avg # of iterations =  1.0

     negative rho (up, down):  5.777E-02 0.000E+00

     total cpu time spent up to now is     9088.4 secs

     total energy              =  -11682.08149642 Ry
     estimated scf accuracy    <       4.12703598 Ry

     iteration # 30     ecut=    80.00 Ry     beta= 0.10
     Davidson diagonalization with overlap
     ethr =  8.55E-05,  avg # of iterations =  1.0

     negative rho (up, down):  5.790E-02 0.000E+00

     total cpu time spent up to now is     9372.8 secs

     total energy              =  -11682.10179931 Ry
     estimated scf accuracy    <       0.63885745 Ry

     iteration # 31     ecut=    80.00 Ry     beta= 0.10
     Davidson diagonalization with overlap
     ethr =  3.41E-05,  avg # of iterations =  1.0

     negative rho (up, down):  5.815E-02 0.000E+00

     total cpu time spent up to now is     9657.1 secs

     total energy              =  -11682.09907083 Ry
     estimated scf accuracy    <       0.67930885 Ry

     iteration # 32     ecut=    80.00 Ry     beta= 0.10
     Davidson diagonalization with overlap
     ethr =  3.41E-05,  avg # of iterations =  1.0

     negative rho (up, down):  5.828E-02 0.000E+00

     total cpu time spent up to now is     9940.7 secs

     total energy              =  -11682.09023256 Ry
     estimated scf accuracy    <       1.10518484 Ry

     iteration # 33     ecut=    80.00 Ry     beta= 0.10
     Davidson diagonalization with overlap
     ethr =  3.41E-05,  avg # of iterations =  1.0

     negative rho (up, down):  5.819E-02 0.000E+00

     total cpu time spent up to now is    10225.0 secs

     total energy              =  -11682.09371365 Ry
     estimated scf accuracy    <       0.84597246 Ry

     iteration # 34     ecut=    80.00 Ry     beta= 0.10
     Davidson diagonalization with overlap
     ethr =  3.41E-05,  avg # of iterations =  1.0

     negative rho (up, down):  5.841E-02 0.000E+00

     total cpu time spent up to now is    10508.7 secs

     total energy              =  -11682.09603653 Ry
     estimated scf accuracy    <       0.87233404 Ry

     iteration # 35     ecut=    80.00 Ry     beta= 0.10
     Davidson diagonalization with overlap
     ethr =  3.41E-05,  avg # of iterations =  1.0

     negative rho (up, down):  5.848E-02 0.000E+00

     total cpu time spent up to now is    10793.2 secs

     total energy              =  -11682.08557840 Ry
     estimated scf accuracy    <       2.64544148 Ry

     iteration # 36     ecut=    80.00 Ry     beta= 0.10
     Davidson diagonalization with overlap
     ethr =  3.41E-05,  avg # of iterations =  1.0

     negative rho (up, down):  5.877E-02 0.000E+00

     total cpu time spent up to now is    11077.8 secs

     total energy              =  -11682.09769039 Ry
     estimated scf accuracy    <       0.61300378 Ry

     iteration # 37     ecut=    80.00 Ry     beta= 0.10
     Davidson diagonalization with overlap
     ethr =  3.27E-05,  avg # of iterations =  1.0

     negative rho (up, down):  5.942E-02 0.000E+00

     total cpu time spent up to now is    11361.7 secs

     total energy              =  -11682.08857977 Ry
     estimated scf accuracy    <       1.45737476 Ry

     iteration # 38     ecut=    80.00 Ry     beta= 0.10
     Davidson diagonalization with overlap
     ethr =  3.27E-05,  avg # of iterations =  1.0

     negative rho (up, down):  5.892E-02 0.000E+00

     total cpu time spent up to now is    11645.4 secs

     total energy              =  -11682.08810750 Ry
     estimated scf accuracy    <       0.76937100 Ry

     iteration # 39     ecut=    80.00 Ry     beta= 0.10
     Davidson diagonalization with overlap
     ethr =  3.27E-05,  avg # of iterations =  1.0

     negative rho (up, down):  5.883E-02 0.000E+00

     total cpu time spent up to now is    11929.8 secs

     total energy              =  -11682.08419661 Ry
     estimated scf accuracy    <       1.75598850 Ry

     iteration # 40     ecut=    80.00 Ry     beta= 0.10
     Davidson diagonalization with overlap
     ethr =  3.27E-05,  avg # of iterations =  1.0

     negative rho (up, down):  5.901E-02 0.000E+00

     total cpu time spent up to now is    12213.9 secs

     total energy              =  -11682.09133000 Ry
     estimated scf accuracy    <       1.87428386 Ry

     iteration # 41     ecut=    80.00 Ry     beta= 0.10
     Davidson diagonalization with overlap
     ethr =  3.27E-05,  avg # of iterations =  1.0

     negative rho (up, down):  5.927E-02 0.000E+00

     total cpu time spent up to now is    12497.5 secs

     total energy              =  -11682.10139329 Ry
     estimated scf accuracy    <       0.49496821 Ry

     iteration # 42     ecut=    80.00 Ry     beta= 0.10
     Davidson diagonalization with overlap
     ethr =  2.64E-05,  avg # of iterations =  1.0

     negative rho (up, down):  5.928E-02 0.000E+00

     total cpu time spent up to now is    12781.1 secs

     total energy              =  -11682.10149636 Ry
     estimated scf accuracy    <       0.24061395 Ry

     iteration # 43     ecut=    80.00 Ry     beta= 0.10
     Davidson diagonalization with overlap
     ethr =  1.29E-05,  avg # of iterations = 19.0

     negative rho (up, down):  5.921E-02 0.000E+00

     total cpu time spent up to now is    13192.9 secs

     total energy              =  -11682.09655789 Ry
     estimated scf accuracy    <       1.20119015 Ry

     iteration # 44     ecut=    80.00 Ry     beta= 0.10
     Davidson diagonalization with overlap
     ethr =  1.29E-05,  avg # of iterations =  1.0

     negative rho (up, down):  5.936E-02 0.000E+00

     total cpu time spent up to now is    13478.0 secs

     total energy              =  -11682.10196205 Ry
     estimated scf accuracy    <       0.52908608 Ry

     iteration # 45     ecut=    80.00 Ry     beta= 0.10
     Davidson diagonalization with overlap
     ethr =  1.29E-05,  avg # of iterations =  1.0

     negative rho (up, down):  5.929E-02 0.000E+00

     total cpu time spent up to now is    13762.1 secs

     total energy              =  -11682.10342433 Ry
     estimated scf accuracy    <       0.10313762 Ry

     iteration # 46     ecut=    80.00 Ry     beta= 0.10
     Davidson diagonalization with overlap
     ethr =  5.51E-06,  avg # of iterations =  1.0

     negative rho (up, down):  5.944E-02 0.000E+00

     total cpu time spent up to now is    14045.8 secs

     total energy              =  -11682.10323456 Ry
     estimated scf accuracy    <       0.29643434 Ry

     iteration # 47     ecut=    80.00 Ry     beta= 0.10
     Davidson diagonalization with overlap
     ethr =  5.51E-06,  avg # of iterations =  1.0

     negative rho (up, down):  5.953E-02 0.000E+00

     total cpu time spent up to now is    14331.4 secs

     total energy              =  -11682.10121340 Ry
     estimated scf accuracy    <       0.44148092 Ry

     iteration # 48     ecut=    80.00 Ry     beta= 0.10
     Davidson diagonalization with overlap
     ethr =  5.51E-06,  avg # of iterations =  1.0

     negative rho (up, down):  5.950E-02 0.000E+00

     total cpu time spent up to now is    14614.8 secs

     total energy              =  -11682.09905206 Ry
     estimated scf accuracy    <       0.64288338 Ry

     iteration # 49     ecut=    80.00 Ry     beta= 0.10
     Davidson diagonalization with overlap
     ethr =  5.51E-06,  avg # of iterations =  1.0

     negative rho (up, down):  5.950E-02 0.000E+00

     total cpu time spent up to now is    14899.2 secs

     total energy              =  -11682.10388390 Ry
     estimated scf accuracy    <       0.21142119 Ry

     iteration # 50     ecut=    80.00 Ry     beta= 0.10
     Davidson diagonalization with overlap
     ethr =  5.51E-06,  avg # of iterations =  1.0

     negative rho (up, down):  5.950E-02 0.000E+00

     total cpu time spent up to now is    15184.3 secs

     total energy              =  -11682.10408585 Ry
     estimated scf accuracy    <       0.23369652 Ry

     iteration # 51     ecut=    80.00 Ry     beta= 0.10
     Davidson diagonalization with overlap
     ethr =  5.51E-06,  avg # of iterations =  1.0

     negative rho (up, down):  5.954E-02 0.000E+00

     total cpu time spent up to now is    15468.9 secs

     total energy              =  -11682.10479105 Ry
     estimated scf accuracy    <       0.14723932 Ry

     iteration # 52     ecut=    80.00 Ry     beta= 0.10
     Davidson diagonalization with overlap
     ethr =  5.51E-06,  avg # of iterations =  1.0

     negative rho (up, down):  5.956E-02 0.000E+00

     total cpu time spent up to now is    15752.4 secs

     total energy              =  -11682.10560536 Ry
     estimated scf accuracy    <       0.06866784 Ry

     iteration # 53     ecut=    80.00 Ry     beta= 0.10
     Davidson diagonalization with overlap
     ethr =  3.67E-06,  avg # of iterations =  1.0

     negative rho (up, down):  5.958E-02 0.000E+00

     total cpu time spent up to now is    16037.4 secs

     total energy              =  -11682.10547543 Ry
     estimated scf accuracy    <       0.12781275 Ry

     iteration # 54     ecut=    80.00 Ry     beta= 0.10
     Davidson diagonalization with overlap
     ethr =  3.67E-06,  avg # of iterations =  1.0

     negative rho (up, down):  5.962E-02 0.000E+00

     total cpu time spent up to now is    16321.6 secs

     total energy              =  -11682.10629486 Ry
     estimated scf accuracy    <       0.03982292 Ry

     iteration # 55     ecut=    80.00 Ry     beta= 0.10
     Davidson diagonalization with overlap
     ethr =  2.13E-06,  avg # of iterations =  1.0

     negative rho (up, down):  5.963E-02 0.000E+00

     total cpu time spent up to now is    16605.7 secs

     total energy              =  -11682.10610103 Ry
     estimated scf accuracy    <       0.04948966 Ry

     iteration # 56     ecut=    80.00 Ry     beta= 0.10
     Davidson diagonalization with overlap
     ethr =  2.13E-06,  avg # of iterations =  1.0

     negative rho (up, down):  5.965E-02 0.000E+00

     total cpu time spent up to now is    16889.9 secs

     total energy              =  -11682.10634104 Ry
     estimated scf accuracy    <       0.04263357 Ry

     iteration # 57     ecut=    80.00 Ry     beta= 0.10
     Davidson diagonalization with overlap
     ethr =  2.13E-06,  avg # of iterations =  1.0

     negative rho (up, down):  5.968E-02 0.000E+00

     total cpu time spent up to now is    17174.2 secs

     total energy              =  -11682.10660691 Ry
     estimated scf accuracy    <       0.02252773 Ry

     iteration # 58     ecut=    80.00 Ry     beta= 0.10
     Davidson diagonalization with overlap
     ethr =  1.20E-06,  avg # of iterations =  1.0

     negative rho (up, down):  5.971E-02 0.000E+00

     total cpu time spent up to now is    17458.7 secs

     total energy              =  -11682.10649033 Ry
     estimated scf accuracy    <       0.06966058 Ry

     iteration # 59     ecut=    80.00 Ry     beta= 0.10
     Davidson diagonalization with overlap
     ethr =  1.20E-06,  avg # of iterations =  1.0

     negative rho (up, down):  5.973E-02 0.000E+00

     total cpu time spent up to now is    17742.9 secs

     total energy              =  -11682.10670530 Ry
     estimated scf accuracy    <       0.02232578 Ry

     iteration # 60     ecut=    80.00 Ry     beta= 0.10
     Davidson diagonalization with overlap
     ethr =  1.19E-06,  avg # of iterations =  1.0

     negative rho (up, down):  5.974E-02 0.000E+00

     total cpu time spent up to now is    18027.3 secs

     total energy              =  -11682.10615688 Ry
     estimated scf accuracy    <       0.13916545 Ry

     iteration # 61     ecut=    80.00 Ry     beta= 0.10
     Davidson diagonalization with overlap
     ethr =  1.19E-06,  avg # of iterations =  1.0

     negative rho (up, down):  5.978E-02 0.000E+00

     total cpu time spent up to now is    18312.0 secs

     total energy              =  -11682.10669784 Ry
     estimated scf accuracy    <       0.04783055 Ry

     iteration # 62     ecut=    80.00 Ry     beta= 0.10
     Davidson diagonalization with overlap
     ethr =  1.19E-06,  avg # of iterations =  1.0

     negative rho (up, down):  5.981E-02 0.000E+00

     total cpu time spent up to now is    18596.1 secs

     total energy              =  -11682.10664116 Ry
     estimated scf accuracy    <       0.05726482 Ry

     iteration # 63     ecut=    80.00 Ry     beta= 0.10
     Davidson diagonalization with overlap
     ethr =  1.19E-06,  avg # of iterations =  1.0

     negative rho (up, down):  5.977E-02 0.000E+00

     total cpu time spent up to now is    18879.3 secs

     total energy              =  -11682.10632536 Ry
     estimated scf accuracy    <       0.10109668 Ry

     iteration # 64     ecut=    80.00 Ry     beta= 0.10
     Davidson diagonalization with overlap
     ethr =  1.19E-06,  avg # of iterations =  1.0

     negative rho (up, down):  5.983E-02 0.000E+00

     total cpu time spent up to now is    19163.1 secs

     total energy              =  -11682.10716690 Ry
     estimated scf accuracy    <       0.03398040 Ry

     iteration # 65     ecut=    80.00 Ry     beta= 0.10
     Davidson diagonalization with overlap
     ethr =  1.19E-06,  avg # of iterations =  1.0

     negative rho (up, down):  5.981E-02 0.000E+00

     total cpu time spent up to now is    19448.0 secs

     total energy              =  -11682.10691288 Ry
     estimated scf accuracy    <       0.03697256 Ry

     iteration # 66     ecut=    80.00 Ry     beta= 0.10
     Davidson diagonalization with overlap
     ethr =  1.19E-06,  avg # of iterations =  1.0

     negative rho (up, down):  5.983E-02 0.000E+00

     total cpu time spent up to now is    19733.0 secs

     total energy              =  -11682.10711402 Ry
     estimated scf accuracy    <       0.03144664 Ry

     iteration # 67     ecut=    80.00 Ry     beta= 0.10
     Davidson diagonalization with overlap
     ethr =  1.19E-06,  avg # of iterations =  1.0

     negative rho (up, down):  5.985E-02 0.000E+00

     total cpu time spent up to now is    20017.2 secs

     total energy              =  -11682.10733150 Ry
     estimated scf accuracy    <       0.01325052 Ry

     iteration # 68     ecut=    80.00 Ry     beta= 0.10
     Davidson diagonalization with overlap
     ethr =  7.08E-07,  avg # of iterations =  1.0

     negative rho (up, down):  5.987E-02 0.000E+00

     total cpu time spent up to now is    20302.2 secs

     total energy              =  -11682.10731434 Ry
     estimated scf accuracy    <       0.02362494 Ry

     iteration # 69     ecut=    80.00 Ry     beta= 0.10
     Davidson diagonalization with overlap
     ethr =  7.08E-07,  avg # of iterations =  1.0

     negative rho (up, down):  5.989E-02 0.000E+00

     total cpu time spent up to now is    20587.3 secs

     total energy              =  -11682.10747442 Ry
     estimated scf accuracy    <       0.01077230 Ry

     iteration # 70     ecut=    80.00 Ry     beta= 0.10
     Davidson diagonalization with overlap
     ethr =  5.75E-07,  avg # of iterations =  1.0

     negative rho (up, down):  5.990E-02 0.000E+00

     total cpu time spent up to now is    20871.5 secs

     total energy              =  -11682.10734322 Ry
     estimated scf accuracy    <       0.03490291 Ry

     iteration # 71     ecut=    80.00 Ry     beta= 0.10
     Davidson diagonalization with overlap
     ethr =  5.75E-07,  avg # of iterations =  1.0

     negative rho (up, down):  5.995E-02 0.000E+00

     total cpu time spent up to now is    21155.7 secs

     total energy              =  -11682.10756316 Ry
     estimated scf accuracy    <       0.01732746 Ry

     iteration # 72     ecut=    80.00 Ry     beta= 0.10
     Davidson diagonalization with overlap
     ethr =  5.75E-07,  avg # of iterations =  1.0

     negative rho (up, down):  5.996E-02 0.000E+00

     total cpu time spent up to now is    21440.0 secs

     total energy              =  -11682.10752440 Ry
     estimated scf accuracy    <       0.01966514 Ry

     iteration # 73     ecut=    80.00 Ry     beta= 0.10
     Davidson diagonalization with overlap
     ethr =  5.75E-07,  avg # of iterations =  1.0

     negative rho (up, down):  5.992E-02 0.000E+00

     total cpu time spent up to now is    21724.2 secs

     total energy              =  -11682.10722347 Ry
     estimated scf accuracy    <       0.04194051 Ry

     iteration # 74     ecut=    80.00 Ry     beta= 0.10
     Davidson diagonalization with overlap
     ethr =  5.75E-07,  avg # of iterations =  1.0

     negative rho (up, down):  5.998E-02 0.000E+00

     total cpu time spent up to now is    22008.4 secs

     total energy              =  -11682.10757852 Ry
     estimated scf accuracy    <       0.03672649 Ry

     iteration # 75     ecut=    80.00 Ry     beta= 0.10
     Davidson diagonalization with overlap
     ethr =  5.75E-07,  avg # of iterations =  1.0

     negative rho (up, down):  5.997E-02 0.000E+00

     total cpu time spent up to now is    22293.2 secs

     total energy              =  -11682.10755206 Ry
     estimated scf accuracy    <       0.01548166 Ry

     iteration # 76     ecut=    80.00 Ry     beta= 0.10
     Davidson diagonalization with overlap
     ethr =  5.75E-07,  avg # of iterations =  1.0

     negative rho (up, down):  5.998E-02 0.000E+00

     total cpu time spent up to now is    22576.6 secs

     total energy              =  -11682.10752328 Ry
     estimated scf accuracy    <       0.02987685 Ry

     iteration # 77     ecut=    80.00 Ry     beta= 0.10
     Davidson diagonalization with overlap
     ethr =  5.75E-07,  avg # of iterations =  1.0

     negative rho (up, down):  6.001E-02 0.000E+00

     total cpu time spent up to now is    22860.9 secs

     total energy              =  -11682.10771423 Ry
     estimated scf accuracy    <       0.01401757 Ry

     iteration # 78     ecut=    80.00 Ry     beta= 0.10
     Davidson diagonalization with overlap
     ethr =  5.75E-07,  avg # of iterations =  1.0

     negative rho (up, down):  6.000E-02 0.000E+00

     total cpu time spent up to now is    23144.8 secs

     total energy              =  -11682.10769272 Ry
     estimated scf accuracy    <       0.01655591 Ry

     iteration # 79     ecut=    80.00 Ry     beta= 0.10
     Davidson diagonalization with overlap
     ethr =  5.75E-07,  avg # of iterations =  1.0

     negative rho (up, down):  6.002E-02 0.000E+00

     total cpu time spent up to now is    23428.6 secs

     total energy              =  -11682.10782602 Ry
     estimated scf accuracy    <       0.00756440 Ry

     iteration # 80     ecut=    80.00 Ry     beta= 0.10
     Davidson diagonalization with overlap
     ethr =  4.04E-07,  avg # of iterations =  1.0

     negative rho (up, down):  6.002E-02 0.000E+00

     total cpu time spent up to now is    23713.4 secs

     total energy              =  -11682.10779836 Ry
     estimated scf accuracy    <       0.01555892 Ry

     iteration # 81     ecut=    80.00 Ry     beta= 0.10
     Davidson diagonalization with overlap
     ethr =  4.04E-07,  avg # of iterations =  1.0

     negative rho (up, down):  6.005E-02 0.000E+00

     total cpu time spent up to now is    23997.8 secs

     total energy              =  -11682.10791311 Ry
     estimated scf accuracy    <       0.00609659 Ry

     iteration # 82     ecut=    80.00 Ry     beta= 0.10
     Davidson diagonalization with overlap
     ethr =  3.26E-07,  avg # of iterations =  1.0

     negative rho (up, down):  6.006E-02 0.000E+00

     total cpu time spent up to now is    24282.0 secs

     total energy              =  -11682.10793080 Ry
     estimated scf accuracy    <       0.00558469 Ry

     iteration # 83     ecut=    80.00 Ry     beta= 0.10
     Davidson diagonalization with overlap
     ethr =  2.98E-07,  avg # of iterations =  1.0

     negative rho (up, down):  6.004E-02 0.000E+00

     total cpu time spent up to now is    24566.8 secs

     total energy              =  -11682.10781910 Ry
     estimated scf accuracy    <       0.01034571 Ry

     iteration # 84     ecut=    80.00 Ry     beta= 0.10
     Davidson diagonalization with overlap
     ethr =  2.98E-07,  avg # of iterations =  1.0

     negative rho (up, down):  6.008E-02 0.000E+00

     total cpu time spent up to now is    24851.5 secs

     total energy              =  -11682.10791436 Ry
     estimated scf accuracy    <       0.01791161 Ry

     iteration # 85     ecut=    80.00 Ry     beta= 0.10
     Davidson diagonalization with overlap
     ethr =  2.98E-07,  avg # of iterations =  1.0

     negative rho (up, down):  6.008E-02 0.000E+00

     total cpu time spent up to now is    25135.5 secs

     total energy              =  -11682.10794069 Ry
     estimated scf accuracy    <       0.00612248 Ry

     iteration # 86     ecut=    80.00 Ry     beta= 0.10
     Davidson diagonalization with overlap
     ethr =  2.98E-07,  avg # of iterations =  1.0

     negative rho (up, down):  6.010E-02 0.000E+00

     total cpu time spent up to now is    25419.7 secs

     total energy              =  -11682.10790862 Ry
     estimated scf accuracy    <       0.01428626 Ry

     iteration # 87     ecut=    80.00 Ry     beta= 0.10
     Davidson diagonalization with overlap
     ethr =  2.98E-07,  avg # of iterations =  1.0

     negative rho (up, down):  6.012E-02 0.000E+00

     total cpu time spent up to now is    25703.9 secs

     total energy              =  -11682.10798759 Ry
     estimated scf accuracy    <       0.00931591 Ry

     iteration # 88     ecut=    80.00 Ry     beta= 0.10
     Davidson diagonalization with overlap
     ethr =  2.98E-07,  avg # of iterations =  1.0

     negative rho (up, down):  6.010E-02 0.000E+00

     total cpu time spent up to now is    25987.6 secs

     total energy              =  -11682.10795144 Ry
     estimated scf accuracy    <       0.00905636 Ry

     iteration # 89     ecut=    80.00 Ry     beta= 0.10
     Davidson diagonalization with overlap
     ethr =  2.98E-07,  avg # of iterations =  1.0

     negative rho (up, down):  6.012E-02 0.000E+00

     total cpu time spent up to now is    26272.1 secs

     total energy              =  -11682.10802275 Ry
     estimated scf accuracy    <       0.00674236 Ry

     iteration # 90     ecut=    80.00 Ry     beta= 0.10
     Davidson diagonalization with overlap
     ethr =  2.98E-07,  avg # of iterations =  1.0

     negative rho (up, down):  6.012E-02 0.000E+00

     total cpu time spent up to now is    26556.6 secs

     total energy              =  -11682.10801206 Ry
     estimated scf accuracy    <       0.00927356 Ry

     iteration # 91     ecut=    80.00 Ry     beta= 0.10
     Davidson diagonalization with overlap
     ethr =  2.98E-07,  avg # of iterations =  1.0

     negative rho (up, down):  6.014E-02 0.000E+00

     total cpu time spent up to now is    26841.0 secs

     total energy              =  -11682.10807423 Ry
     estimated scf accuracy    <       0.00448940 Ry

     iteration # 92     ecut=    80.00 Ry     beta= 0.10
     Davidson diagonalization with overlap
     ethr =  2.40E-07,  avg # of iterations =  1.0

     negative rho (up, down):  6.015E-02 0.000E+00

     total cpu time spent up to now is    27125.5 secs

     total energy              =  -11682.10809468 Ry
     estimated scf accuracy    <       0.00279464 Ry

     iteration # 93     ecut=    80.00 Ry     beta= 0.10
     Davidson diagonalization with overlap
     ethr =  1.49E-07,  avg # of iterations =  1.0

     negative rho (up, down):  6.014E-02 0.000E+00

     total cpu time spent up to now is    27410.3 secs

     total energy              =  -11682.10807227 Ry
     estimated scf accuracy    <       0.00333598 Ry

     iteration # 94     ecut=    80.00 Ry     beta= 0.10
     Davidson diagonalization with overlap
     ethr =  1.49E-07,  avg # of iterations =  1.0

     negative rho (up, down):  6.016E-02 0.000E+00

     total cpu time spent up to now is    27694.9 secs

     total energy              =  -11682.10809168 Ry
     estimated scf accuracy    <       0.00800686 Ry

     iteration # 95     ecut=    80.00 Ry     beta= 0.10
     Davidson diagonalization with overlap
     ethr =  1.49E-07,  avg # of iterations =  1.0

     negative rho (up, down):  6.017E-02 0.000E+00

     total cpu time spent up to now is    27979.7 secs

     total energy              =  -11682.10813159 Ry
     estimated scf accuracy    <       0.00219949 Ry

     iteration # 96     ecut=    80.00 Ry     beta= 0.10
     Davidson diagonalization with overlap
     ethr =  1.17E-07,  avg # of iterations =  1.0

     negative rho (up, down):  6.018E-02 0.000E+00

     total cpu time spent up to now is    28264.0 secs

     total energy              =  -11682.10811720 Ry
     estimated scf accuracy    <       0.00466483 Ry

     iteration # 97     ecut=    80.00 Ry     beta= 0.10
     Davidson diagonalization with overlap
     ethr =  1.17E-07,  avg # of iterations =  1.0

     negative rho (up, down):  6.019E-02 0.000E+00

     total cpu time spent up to now is    28548.9 secs

     total energy              =  -11682.10814693 Ry
     estimated scf accuracy    <       0.00416024 Ry

     iteration # 98     ecut=    80.00 Ry     beta= 0.10
     Davidson diagonalization with overlap
     ethr =  1.17E-07,  avg # of iterations =  1.0

     negative rho (up, down):  6.018E-02 0.000E+00

     total cpu time spent up to now is    28832.4 secs

     total energy              =  -11682.10812312 Ry
     estimated scf accuracy    <       0.00360454 Ry

     iteration # 99     ecut=    80.00 Ry     beta= 0.10
     Davidson diagonalization with overlap
     ethr =  1.17E-07,  avg # of iterations =  1.0

     negative rho (up, down):  6.019E-02 0.000E+00

     total cpu time spent up to now is    29116.7 secs

     total energy              =  -11682.10814216 Ry
     estimated scf accuracy    <       0.00481656 Ry

     iteration #100     ecut=    80.00 Ry     beta= 0.10
     Davidson diagonalization with overlap
     ethr =  1.17E-07,  avg # of iterations =  1.0

     negative rho (up, down):  6.020E-02 0.000E+00

     total cpu time spent up to now is    29401.6 secs

     total energy              =  -11682.10813654 Ry
     estimated scf accuracy    <       0.00646543 Ry

     iteration #101     ecut=    80.00 Ry     beta= 0.10
     Davidson diagonalization with overlap
     ethr =  1.17E-07,  avg # of iterations =  1.0

     negative rho (up, down):  6.021E-02 0.000E+00

     total cpu time spent up to now is    29685.8 secs

     total energy              =  -11682.10817209 Ry
     estimated scf accuracy    <       0.00335658 Ry

     iteration #102     ecut=    80.00 Ry     beta= 0.10
     Davidson diagonalization with overlap
     ethr =  1.17E-07,  avg # of iterations =  1.0

     negative rho (up, down):  6.021E-02 0.000E+00

     total cpu time spent up to now is    29969.9 secs

     total energy              =  -11682.10818486 Ry
     estimated scf accuracy    <       0.00170008 Ry

     iteration #103     ecut=    80.00 Ry     beta= 0.10
     Davidson diagonalization with overlap
     ethr =  9.08E-08,  avg # of iterations =  1.0

     negative rho (up, down):  6.021E-02 0.000E+00

     total cpu time spent up to now is    30253.7 secs

     total energy              =  -11682.10818809 Ry
     estimated scf accuracy    <       0.00179771 Ry

     iteration #104     ecut=    80.00 Ry     beta= 0.10
     Davidson diagonalization with overlap
     ethr =  9.08E-08,  avg # of iterations =  1.0

     negative rho (up, down):  6.022E-02 0.000E+00

     total cpu time spent up to now is    30538.5 secs

     total energy              =  -11682.10818403 Ry
     estimated scf accuracy    <       0.00425176 Ry

     iteration #105     ecut=    80.00 Ry     beta= 0.10
     Davidson diagonalization with overlap
     ethr =  9.08E-08,  avg # of iterations =  1.0

     negative rho (up, down):  6.023E-02 0.000E+00

     total cpu time spent up to now is    30823.1 secs

     total energy              =  -11682.10821412 Ry
     estimated scf accuracy    <       0.00096655 Ry

     iteration #106     ecut=    80.00 Ry     beta= 0.10
     Davidson diagonalization with overlap
     ethr =  5.16E-08,  avg # of iterations =  1.0

     negative rho (up, down):  6.024E-02 0.000E+00

     total cpu time spent up to now is    31107.2 secs

     total energy              =  -11682.10821604 Ry
     estimated scf accuracy    <       0.00127429 Ry

     iteration #107     ecut=    80.00 Ry     beta= 0.10
     Davidson diagonalization with overlap
     ethr =  5.16E-08,  avg # of iterations =  1.0

     negative rho (up, down):  6.025E-02 0.000E+00

     total cpu time spent up to now is    31391.7 secs

     total energy              =  -11682.10822485 Ry
     estimated scf accuracy    <       0.00151938 Ry

     iteration #108     ecut=    80.00 Ry     beta= 0.10
     Davidson diagonalization with overlap
     ethr =  5.16E-08,  avg # of iterations =  1.0

     negative rho (up, down):  6.024E-02 0.000E+00

     total cpu time spent up to now is    31675.8 secs

     total energy              =  -11682.10821879 Ry
     estimated scf accuracy    <       0.00120608 Ry

     iteration #109     ecut=    80.00 Ry     beta= 0.10
     Davidson diagonalization with overlap
     ethr =  5.16E-08,  avg # of iterations =  1.0

     negative rho (up, down):  6.025E-02 0.000E+00

     total cpu time spent up to now is    31960.8 secs

     total energy              =  -11682.10821969 Ry
     estimated scf accuracy    <       0.00301580 Ry

     iteration #110     ecut=    80.00 Ry     beta= 0.10
     Davidson diagonalization with overlap
     ethr =  5.16E-08,  avg # of iterations =  1.0

     negative rho (up, down):  6.026E-02 0.000E+00

     total cpu time spent up to now is    32244.9 secs

     total energy              =  -11682.10821880 Ry
     estimated scf accuracy    <       0.00331826 Ry

     iteration #111     ecut=    80.00 Ry     beta= 0.10
     Davidson diagonalization with overlap
     ethr =  5.16E-08,  avg # of iterations =  1.0

     negative rho (up, down):  6.026E-02 0.000E+00

     total cpu time spent up to now is    32528.8 secs

     total energy              =  -11682.10823083 Ry
     estimated scf accuracy    <       0.00243299 Ry

     iteration #112     ecut=    80.00 Ry     beta= 0.10
     Davidson diagonalization with overlap
     ethr =  5.16E-08,  avg # of iterations =  1.0

     negative rho (up, down):  6.026E-02 0.000E+00

     total cpu time spent up to now is    32813.0 secs

     total energy              =  -11682.10823768 Ry
     estimated scf accuracy    <       0.00114397 Ry

     iteration #113     ecut=    80.00 Ry     beta= 0.10
     Davidson diagonalization with overlap
     ethr =  5.16E-08,  avg # of iterations =  1.0

     negative rho (up, down):  6.027E-02 0.000E+00

     total cpu time spent up to now is    33097.6 secs

     total energy              =  -11682.10824769 Ry
     estimated scf accuracy    <       0.00132067 Ry

     iteration #114     ecut=    80.00 Ry     beta= 0.10
     Davidson diagonalization with overlap
     ethr =  5.16E-08,  avg # of iterations =  1.0

     negative rho (up, down):  6.027E-02 0.000E+00

     total cpu time spent up to now is    33382.4 secs

     total energy              =  -11682.10823421 Ry
     estimated scf accuracy    <       0.00283997 Ry

     iteration #115     ecut=    80.00 Ry     beta= 0.10
     Davidson diagonalization with overlap
     ethr =  5.16E-08,  avg # of iterations =  1.0

     negative rho (up, down):  6.028E-02 0.000E+00

     total cpu time spent up to now is    33666.7 secs

     total energy              =  -11682.10825754 Ry
     estimated scf accuracy    <       0.00063055 Ry

     iteration #116     ecut=    80.00 Ry     beta= 0.10
     Davidson diagonalization with overlap
     ethr =  3.37E-08,  avg # of iterations =  1.0

     negative rho (up, down):  6.028E-02 0.000E+00

     total cpu time spent up to now is    33951.3 secs

     total energy              =  -11682.10825971 Ry
     estimated scf accuracy    <       0.00056504 Ry

     iteration #117     ecut=    80.00 Ry     beta= 0.10
     Davidson diagonalization with overlap
     ethr =  3.02E-08,  avg # of iterations =  1.0

     negative rho (up, down):  6.029E-02 0.000E+00

     total cpu time spent up to now is    34236.0 secs

     total energy              =  -11682.10826443 Ry
     estimated scf accuracy    <       0.00060109 Ry

     iteration #118     ecut=    80.00 Ry     beta= 0.10
     Davidson diagonalization with overlap
     ethr =  3.02E-08,  avg # of iterations =  1.0

     negative rho (up, down):  6.029E-02 0.000E+00

     total cpu time spent up to now is    34520.2 secs

     total energy              =  -11682.10826648 Ry
     estimated scf accuracy    <       0.00043814 Ry

     iteration #119     ecut=    80.00 Ry     beta= 0.10
     Davidson diagonalization with overlap
     ethr =  2.34E-08,  avg # of iterations =  1.0

     negative rho (up, down):  6.030E-02 0.000E+00

     total cpu time spent up to now is    34804.5 secs

     total energy              =  -11682.10826547 Ry
     estimated scf accuracy    <       0.00127883 Ry

     iteration #120     ecut=    80.00 Ry     beta= 0.10
     Davidson diagonalization with overlap
     ethr =  2.34E-08,  avg # of iterations =  1.0

     negative rho (up, down):  6.030E-02 0.000E+00

     total cpu time spent up to now is    35089.3 secs

     total energy              =  -11682.10826814 Ry
     estimated scf accuracy    <       0.00120757 Ry

     iteration #121     ecut=    80.00 Ry     beta= 0.10
     Davidson diagonalization with overlap
     ethr =  2.34E-08,  avg # of iterations =  1.0

     negative rho (up, down):  6.030E-02 0.000E+00

     total cpu time spent up to now is    35373.1 secs

     total energy              =  -11682.10827053 Ry
     estimated scf accuracy    <       0.00116725 Ry

     iteration #122     ecut=    80.00 Ry     beta= 0.10
     Davidson diagonalization with overlap
     ethr =  2.34E-08,  avg # of iterations =  1.0

     negative rho (up, down):  6.030E-02 0.000E+00

     total cpu time spent up to now is    35657.6 secs

     total energy              =  -11682.10827149 Ry
     estimated scf accuracy    <       0.00066053 Ry

     iteration #123     ecut=    80.00 Ry     beta= 0.10
     Davidson diagonalization with overlap
     ethr =  2.34E-08,  avg # of iterations =  1.0

     negative rho (up, down):  6.032E-02 0.000E+00

     total cpu time spent up to now is    35941.1 secs

     total energy              =  -11682.10828066 Ry
     estimated scf accuracy    <       0.00092983 Ry

     iteration #124     ecut=    80.00 Ry     beta= 0.10
     Davidson diagonalization with overlap
     ethr =  2.34E-08,  avg # of iterations =  1.0

     negative rho (up, down):  6.031E-02 0.000E+00

     total cpu time spent up to now is    36224.7 secs

     total energy              =  -11682.10826782 Ry
     estimated scf accuracy    <       0.00154214 Ry

     iteration #125     ecut=    80.00 Ry     beta= 0.10
     Davidson diagonalization with overlap
     ethr =  2.34E-08,  avg # of iterations =  1.0

     negative rho (up, down):  6.031E-02 0.000E+00

     total cpu time spent up to now is    36508.4 secs

     total energy              =  -11682.10828159 Ry
     estimated scf accuracy    <       0.00059732 Ry

     iteration #126     ecut=    80.00 Ry     beta= 0.10
     Davidson diagonalization with overlap
     ethr =  2.34E-08,  avg # of iterations =  1.0

     negative rho (up, down):  6.032E-02 0.000E+00

     total cpu time spent up to now is    36793.0 secs

     total energy              =  -11682.10828351 Ry
     estimated scf accuracy    <       0.00042562 Ry

     iteration #127     ecut=    80.00 Ry     beta= 0.10
     Davidson diagonalization with overlap
     ethr =  2.27E-08,  avg # of iterations =  1.0

     negative rho (up, down):  6.032E-02 0.000E+00

     total cpu time spent up to now is    37078.4 secs

     total energy              =  -11682.10828579 Ry
     estimated scf accuracy    <       0.00037603 Ry

     iteration #128     ecut=    80.00 Ry     beta= 0.10
     Davidson diagonalization with overlap
     ethr =  2.01E-08,  avg # of iterations =  1.0

     negative rho (up, down):  6.032E-02 0.000E+00

     total cpu time spent up to now is    37362.3 secs

     total energy              =  -11682.10828970 Ry
     estimated scf accuracy    <       0.00021691 Ry

     iteration #129     ecut=    80.00 Ry     beta= 0.10
     Davidson diagonalization with overlap
     ethr =  1.16E-08,  avg # of iterations =  1.0

     negative rho (up, down):  6.033E-02 0.000E+00

     total cpu time spent up to now is    37647.0 secs

     total energy              =  -11682.10828943 Ry
     estimated scf accuracy    <       0.00051930 Ry

     iteration #130     ecut=    80.00 Ry     beta= 0.10
     Davidson diagonalization with overlap
     ethr =  1.16E-08,  avg # of iterations =  1.0

     negative rho (up, down):  6.033E-02 0.000E+00

     total cpu time spent up to now is    37930.9 secs

     total energy              =  -11682.10829151 Ry
     estimated scf accuracy    <       0.00042203 Ry

     iteration #131     ecut=    80.00 Ry     beta= 0.10
     Davidson diagonalization with overlap
     ethr =  1.16E-08,  avg # of iterations =  1.0

     negative rho (up, down):  6.033E-02 0.000E+00

     total cpu time spent up to now is    38215.6 secs

     total energy              =  -11682.10829228 Ry
     estimated scf accuracy    <       0.00050130 Ry

     iteration #132     ecut=    80.00 Ry     beta= 0.10
     Davidson diagonalization with overlap
     ethr =  1.16E-08,  avg # of iterations =  1.0

     negative rho (up, down):  6.033E-02 0.000E+00

     total cpu time spent up to now is    38500.2 secs

     total energy              =  -11682.10829265 Ry
     estimated scf accuracy    <       0.00030777 Ry

     iteration #133     ecut=    80.00 Ry     beta= 0.10
     Davidson diagonalization with overlap
     ethr =  1.16E-08,  avg # of iterations =  1.0

     negative rho (up, down):  6.035E-02 0.000E+00

     total cpu time spent up to now is    38784.6 secs

     total energy              =  -11682.10829759 Ry
     estimated scf accuracy    <       0.00050217 Ry

     iteration #134     ecut=    80.00 Ry     beta= 0.10
     Davidson diagonalization with overlap
     ethr =  1.16E-08,  avg # of iterations =  1.0

     negative rho (up, down):  6.034E-02 0.000E+00

     total cpu time spent up to now is    39068.9 secs

     total energy              =  -11682.10829070 Ry
     estimated scf accuracy    <       0.00059048 Ry

     iteration #135     ecut=    80.00 Ry     beta= 0.10
     Davidson diagonalization with overlap
     ethr =  1.16E-08,  avg # of iterations =  1.0

     negative rho (up, down):  6.034E-02 0.000E+00

     total cpu time spent up to now is    39352.6 secs

     total energy              =  -11682.10829595 Ry
     estimated scf accuracy    <       0.00058752 Ry

     iteration #136     ecut=    80.00 Ry     beta= 0.10
     Davidson diagonalization with overlap
     ethr =  1.16E-08,  avg # of iterations =  1.0

     negative rho (up, down):  6.035E-02 0.000E+00

     total cpu time spent up to now is    39637.3 secs

     total energy              =  -11682.10829776 Ry
     estimated scf accuracy    <       0.00032608 Ry

     iteration #137     ecut=    80.00 Ry     beta= 0.10
     Davidson diagonalization with overlap
     ethr =  1.16E-08,  avg # of iterations =  1.0

     negative rho (up, down):  6.035E-02 0.000E+00

     total cpu time spent up to now is    39922.3 secs

     total energy              =  -11682.10829827 Ry
     estimated scf accuracy    <       0.00030435 Ry

     iteration #138     ecut=    80.00 Ry     beta= 0.10
     Davidson diagonalization with overlap
     ethr =  1.16E-08,  avg # of iterations =  1.0

     negative rho (up, down):  6.035E-02 0.000E+00

     total cpu time spent up to now is    40206.4 secs

     total energy              =  -11682.10830188 Ry
     estimated scf accuracy    <       0.00015130 Ry

     iteration #139     ecut=    80.00 Ry     beta= 0.10
     Davidson diagonalization with overlap
     ethr =  8.08E-09,  avg # of iterations =  1.0

     negative rho (up, down):  6.035E-02 0.000E+00

     total cpu time spent up to now is    40491.4 secs

     total energy              =  -11682.10830155 Ry
     estimated scf accuracy    <       0.00025865 Ry

     iteration #140     ecut=    80.00 Ry     beta= 0.10
     Davidson diagonalization with overlap
     ethr =  8.08E-09,  avg # of iterations =  1.0

     negative rho (up, down):  6.035E-02 0.000E+00

     total cpu time spent up to now is    40775.3 secs

     total energy              =  -11682.10830310 Ry
     estimated scf accuracy    <       0.00019154 Ry

     iteration #141     ecut=    80.00 Ry     beta= 0.10
     Davidson diagonalization with overlap
     ethr =  8.08E-09,  avg # of iterations =  1.0

     negative rho (up, down):  6.036E-02 0.000E+00

     total cpu time spent up to now is    41059.4 secs

     total energy              =  -11682.10830350 Ry
     estimated scf accuracy    <       0.00020967 Ry

     iteration #142     ecut=    80.00 Ry     beta= 0.10
     Davidson diagonalization with overlap
     ethr =  8.08E-09,  avg # of iterations =  1.0

     negative rho (up, down):  6.036E-02 0.000E+00

     total cpu time spent up to now is    41343.4 secs

     total energy              =  -11682.10830433 Ry
     estimated scf accuracy    <       0.00012016 Ry

     iteration #143     ecut=    80.00 Ry     beta= 0.10
     Davidson diagonalization with overlap
     ethr =  6.42E-09,  avg # of iterations =  1.0

     negative rho (up, down):  6.036E-02 0.000E+00

     total cpu time spent up to now is    41626.9 secs

     total energy              =  -11682.10830645 Ry
     estimated scf accuracy    <       0.00019766 Ry

     iteration #144     ecut=    80.00 Ry     beta= 0.10
     Davidson diagonalization with overlap
     ethr =  6.42E-09,  avg # of iterations =  1.0

     negative rho (up, down):  6.036E-02 0.000E+00

     total cpu time spent up to now is    41910.8 secs

     total energy              =  -11682.10830430 Ry
     estimated scf accuracy    <       0.00019239 Ry

     iteration #145     ecut=    80.00 Ry     beta= 0.10
     Davidson diagonalization with overlap
     ethr =  6.42E-09,  avg # of iterations =  1.0

     negative rho (up, down):  6.037E-02 0.000E+00

     total cpu time spent up to now is    42194.7 secs

     total energy              =  -11682.10830514 Ry
     estimated scf accuracy    <       0.00039432 Ry

     iteration #146     ecut=    80.00 Ry     beta= 0.10
     Davidson diagonalization with overlap
     ethr =  6.42E-09,  avg # of iterations =  1.0

     negative rho (up, down):  6.037E-02 0.000E+00

     total cpu time spent up to now is    42478.6 secs

     total energy              =  -11682.10830659 Ry
     estimated scf accuracy    <       0.00018660 Ry

     iteration #147     ecut=    80.00 Ry     beta= 0.10
     Davidson diagonalization with overlap
     ethr =  6.42E-09,  avg # of iterations =  1.0

     negative rho (up, down):  6.037E-02 0.000E+00

     total cpu time spent up to now is    42763.3 secs

     total energy              =  -11682.10830600 Ry
     estimated scf accuracy    <       0.00020790 Ry

     iteration #148     ecut=    80.00 Ry     beta= 0.10
     Davidson diagonalization with overlap
     ethr =  6.42E-09,  avg # of iterations =  1.0

     negative rho (up, down):  6.037E-02 0.000E+00

     total cpu time spent up to now is    43048.3 secs

     total energy              =  -11682.10830850 Ry
     estimated scf accuracy    <       0.00011953 Ry

     iteration #149     ecut=    80.00 Ry     beta= 0.10
     Davidson diagonalization with overlap
     ethr =  6.38E-09,  avg # of iterations =  1.0

     negative rho (up, down):  6.037E-02 0.000E+00

     total cpu time spent up to now is    43332.7 secs

     total energy              =  -11682.10830819 Ry
     estimated scf accuracy    <       0.00016990 Ry

     iteration #150     ecut=    80.00 Ry     beta= 0.10
     Davidson diagonalization with overlap
     ethr =  6.38E-09,  avg # of iterations =  1.0

     negative rho (up, down):  6.037E-02 0.000E+00

     total cpu time spent up to now is    43617.2 secs

     total energy              =  -11682.10830907 Ry
     estimated scf accuracy    <       0.00012396 Ry

     iteration #151     ecut=    80.00 Ry     beta= 0.10
     Davidson diagonalization with overlap
     ethr =  6.38E-09,  avg # of iterations =  1.0

     negative rho (up, down):  6.037E-02 0.000E+00

     total cpu time spent up to now is    43901.5 secs

     total energy              =  -11682.10830937 Ry
     estimated scf accuracy    <       0.00011296 Ry

     iteration #152     ecut=    80.00 Ry     beta= 0.10
     Davidson diagonalization with overlap
     ethr =  6.03E-09,  avg # of iterations =  1.0

     negative rho (up, down):  6.037E-02 0.000E+00

     total cpu time spent up to now is    44185.7 secs

     total energy              =  -11682.10831011 Ry
     estimated scf accuracy    <       0.00005413 Ry

     iteration #153     ecut=    80.00 Ry     beta= 0.10
     Davidson diagonalization with overlap
     ethr =  2.89E-09,  avg # of iterations =  1.0

     negative rho (up, down):  6.038E-02 0.000E+00

     total cpu time spent up to now is    44470.2 secs

     total energy              =  -11682.10831091 Ry
     estimated scf accuracy    <       0.00007502 Ry

     iteration #154     ecut=    80.00 Ry     beta= 0.10
     Davidson diagonalization with overlap
     ethr =  2.89E-09,  avg # of iterations =  1.0

     negative rho (up, down):  6.038E-02 0.000E+00

     total cpu time spent up to now is    44755.0 secs

     total energy              =  -11682.10831091 Ry
     estimated scf accuracy    <       0.00005971 Ry

     iteration #155     ecut=    80.00 Ry     beta= 0.10
     Davidson diagonalization with overlap
     ethr =  2.89E-09,  avg # of iterations =  1.0

     negative rho (up, down):  6.038E-02 0.000E+00

     total cpu time spent up to now is    45038.9 secs

     total energy              =  -11682.10831076 Ry
     estimated scf accuracy    <       0.00016930 Ry

     iteration #156     ecut=    80.00 Ry     beta= 0.10
     Davidson diagonalization with overlap
     ethr =  2.89E-09,  avg # of iterations =  1.0

     negative rho (up, down):  6.038E-02 0.000E+00

     total cpu time spent up to now is    45323.1 secs

     total energy              =  -11682.10831156 Ry
     estimated scf accuracy    <       0.00007292 Ry

     iteration #157     ecut=    80.00 Ry     beta= 0.10
     Davidson diagonalization with overlap
     ethr =  2.89E-09,  avg # of iterations =  1.0

     negative rho (up, down):  6.038E-02 0.000E+00

     total cpu time spent up to now is    45607.2 secs

     total energy              =  -11682.10831112 Ry
     estimated scf accuracy    <       0.00010378 Ry

     iteration #158     ecut=    80.00 Ry     beta= 0.10
     Davidson diagonalization with overlap
     ethr =  2.89E-09,  avg # of iterations =  1.0

     negative rho (up, down):  6.039E-02 0.000E+00

     total cpu time spent up to now is    45891.0 secs

     total energy              =  -11682.10831225 Ry
     estimated scf accuracy    <       0.00008011 Ry

     iteration #159     ecut=    80.00 Ry     beta= 0.10
     Davidson diagonalization with overlap
     ethr =  2.89E-09,  avg # of iterations =  1.0

     negative rho (up, down):  6.039E-02 0.000E+00

     total cpu time spent up to now is    46174.5 secs

     total energy              =  -11682.10831202 Ry
     estimated scf accuracy    <       0.00010495 Ry

     iteration #160     ecut=    80.00 Ry     beta= 0.10
     Davidson diagonalization with overlap
     ethr =  2.89E-09,  avg # of iterations =  1.0

     negative rho (up, down):  6.039E-02 0.000E+00

     total cpu time spent up to now is    46458.4 secs

     total energy              =  -11682.10831243 Ry
     estimated scf accuracy    <       0.00008463 Ry

     iteration #161     ecut=    80.00 Ry     beta= 0.10
     Davidson diagonalization with overlap
     ethr =  2.89E-09,  avg # of iterations =  1.0

     negative rho (up, down):  6.039E-02 0.000E+00

     total cpu time spent up to now is    46742.2 secs

     total energy              =  -11682.10831250 Ry
     estimated scf accuracy    <       0.00007806 Ry

     iteration #162     ecut=    80.00 Ry     beta= 0.10
     Davidson diagonalization with overlap
     ethr =  2.89E-09,  avg # of iterations =  1.0

     negative rho (up, down):  6.039E-02 0.000E+00

     total cpu time spent up to now is    47026.6 secs

     total energy              =  -11682.10831307 Ry
     estimated scf accuracy    <       0.00003614 Ry

     iteration #163     ecut=    80.00 Ry     beta= 0.10
     Davidson diagonalization with overlap
     ethr =  1.93E-09,  avg # of iterations =  1.0

     negative rho (up, down):  6.039E-02 0.000E+00

     total cpu time spent up to now is    47310.8 secs

     total energy              =  -11682.10831336 Ry
     estimated scf accuracy    <       0.00004108 Ry

     iteration #164     ecut=    80.00 Ry     beta= 0.10
     Davidson diagonalization with overlap
     ethr =  1.93E-09,  avg # of iterations =  1.0

     negative rho (up, down):  6.039E-02 0.000E+00

     total cpu time spent up to now is    47595.0 secs

     total energy              =  -11682.10831379 Ry
     estimated scf accuracy    <       0.00002341 Ry

     iteration #165     ecut=    80.00 Ry     beta= 0.10
     Davidson diagonalization with overlap
     ethr =  1.25E-09,  avg # of iterations =  1.0

     negative rho (up, down):  6.039E-02 0.000E+00

     total cpu time spent up to now is    47879.3 secs

     total energy              =  -11682.10831365 Ry
     estimated scf accuracy    <       0.00005666 Ry

     iteration #166     ecut=    80.00 Ry     beta= 0.10
     Davidson diagonalization with overlap
     ethr =  1.25E-09,  avg # of iterations =  1.0

     negative rho (up, down):  6.039E-02 0.000E+00

     total cpu time spent up to now is    48163.6 secs

     total energy              =  -11682.10831402 Ry
     estimated scf accuracy    <       0.00002560 Ry

     iteration #167     ecut=    80.00 Ry     beta= 0.10
     Davidson diagonalization with overlap
     ethr =  1.25E-09,  avg # of iterations =  1.0

     negative rho (up, down):  6.039E-02 0.000E+00

     total cpu time spent up to now is    48447.5 secs

     total energy              =  -11682.10831398 Ry
     estimated scf accuracy    <       0.00004140 Ry

     iteration #168     ecut=    80.00 Ry     beta= 0.10
     Davidson diagonalization with overlap
     ethr =  1.25E-09,  avg # of iterations =  1.0

     negative rho (up, down):  6.040E-02 0.000E+00

     total cpu time spent up to now is    48731.5 secs

     total energy              =  -11682.10831432 Ry
     estimated scf accuracy    <       0.00003991 Ry

     iteration #169     ecut=    80.00 Ry     beta= 0.10
     Davidson diagonalization with overlap
     ethr =  1.25E-09,  avg # of iterations =  1.0

     negative rho (up, down):  6.040E-02 0.000E+00

     total cpu time spent up to now is    49015.9 secs

     total energy              =  -11682.10831430 Ry
     estimated scf accuracy    <       0.00005170 Ry

     iteration #170     ecut=    80.00 Ry     beta= 0.10
     Davidson diagonalization with overlap
     ethr =  1.25E-09,  avg # of iterations =  1.0

     negative rho (up, down):  6.040E-02 0.000E+00

     total cpu time spent up to now is    49300.2 secs

     total energy              =  -11682.10831437 Ry
     estimated scf accuracy    <       0.00004913 Ry

     iteration #171     ecut=    80.00 Ry     beta= 0.10
     Davidson diagonalization with overlap
     ethr =  1.25E-09,  avg # of iterations =  1.0

     negative rho (up, down):  6.040E-02 0.000E+00

     total cpu time spent up to now is    49584.2 secs

     total energy              =  -11682.10831434 Ry
     estimated scf accuracy    <       0.00005533 Ry

     iteration #172     ecut=    80.00 Ry     beta= 0.10
     Davidson diagonalization with overlap
     ethr =  1.25E-09,  avg # of iterations =  1.0

     negative rho (up, down):  6.040E-02 0.000E+00

     total cpu time spent up to now is    49868.8 secs

     total energy              =  -11682.10831472 Ry
     estimated scf accuracy    <       0.00003130 Ry

     iteration #173     ecut=    80.00 Ry     beta= 0.10
     Davidson diagonalization with overlap
     ethr =  1.25E-09,  avg # of iterations =  1.0

     negative rho (up, down):  6.040E-02 0.000E+00

     total cpu time spent up to now is    50153.5 secs

     total energy              =  -11682.10831472 Ry
     estimated scf accuracy    <       0.00003272 Ry

     iteration #174     ecut=    80.00 Ry     beta= 0.10
     Davidson diagonalization with overlap
     ethr =  1.25E-09,  avg # of iterations =  1.0

     negative rho (up, down):  6.040E-02 0.000E+00

     total cpu time spent up to now is    50437.5 secs

     total energy              =  -11682.10831518 Ry
     estimated scf accuracy    <       0.00001446 Ry

     iteration #175     ecut=    80.00 Ry     beta= 0.10
     Davidson diagonalization with overlap
     ethr =  7.72E-10,  avg # of iterations =  1.0

     negative rho (up, down):  6.040E-02 0.000E+00

     total cpu time spent up to now is    50722.1 secs

     total energy              =  -11682.10831506 Ry
     estimated scf accuracy    <       0.00002422 Ry

     iteration #176     ecut=    80.00 Ry     beta= 0.10
     Davidson diagonalization with overlap
     ethr =  7.72E-10,  avg # of iterations =  1.0

     negative rho (up, down):  6.040E-02 0.000E+00

     total cpu time spent up to now is    51005.6 secs

     total energy              =  -11682.10831525 Ry
     estimated scf accuracy    <       0.00001107 Ry

     iteration #177     ecut=    80.00 Ry     beta= 0.10
     Davidson diagonalization with overlap
     ethr =  5.91E-10,  avg # of iterations =  1.0

     negative rho (up, down):  6.040E-02 0.000E+00

     total cpu time spent up to now is    51290.0 secs

     total energy              =  -11682.10831537 Ry
     estimated scf accuracy    <       0.00001540 Ry

     iteration #178     ecut=    80.00 Ry     beta= 0.10
     Davidson diagonalization with overlap
     ethr =  5.91E-10,  avg # of iterations =  1.0

     negative rho (up, down):  6.040E-02 0.000E+00

     total cpu time spent up to now is    51574.1 secs

     total energy              =  -11682.10831545 Ry
     estimated scf accuracy    <       0.00001556 Ry

     iteration #179     ecut=    80.00 Ry     beta= 0.10
     Davidson diagonalization with overlap
     ethr =  5.91E-10,  avg # of iterations =  1.0

     negative rho (up, down):  6.040E-02 0.000E+00

     total cpu time spent up to now is    51858.5 secs

     total energy              =  -11682.10831550 Ry
     estimated scf accuracy    <       0.00002184 Ry

     iteration #180     ecut=    80.00 Ry     beta= 0.10
     Davidson diagonalization with overlap
     ethr =  5.91E-10,  avg # of iterations =  1.0

     negative rho (up, down):  6.040E-02 0.000E+00

     total cpu time spent up to now is    52142.4 secs

     total energy              =  -11682.10831551 Ry
     estimated scf accuracy    <       0.00002281 Ry

     iteration #181     ecut=    80.00 Ry     beta= 0.10
     Davidson diagonalization with overlap
     ethr =  5.91E-10,  avg # of iterations =  1.0

     negative rho (up, down):  6.040E-02 0.000E+00

     total cpu time spent up to now is    52426.9 secs

     total energy              =  -11682.10831548 Ry
     estimated scf accuracy    <       0.00003249 Ry

     iteration #182     ecut=    80.00 Ry     beta= 0.10
     Davidson diagonalization with overlap
     ethr =  5.91E-10,  avg # of iterations =  1.0

     negative rho (up, down):  6.041E-02 0.000E+00

     total cpu time spent up to now is    52712.2 secs

     total energy              =  -11682.10831568 Ry
     estimated scf accuracy    <       0.00002376 Ry

     iteration #183     ecut=    80.00 Ry     beta= 0.10
     Davidson diagonalization with overlap
     ethr =  5.91E-10,  avg # of iterations =  1.0

     negative rho (up, down):  6.040E-02 0.000E+00

     total cpu time spent up to now is    52996.2 secs

     total energy              =  -11682.10831553 Ry
     estimated scf accuracy    <       0.00002316 Ry

     iteration #184     ecut=    80.00 Ry     beta= 0.10
     Davidson diagonalization with overlap
     ethr =  5.91E-10,  avg # of iterations =  1.0

     negative rho (up, down):  6.041E-02 0.000E+00

     total cpu time spent up to now is    53281.0 secs

     total energy              =  -11682.10831590 Ry
     estimated scf accuracy    <       0.00001357 Ry

     iteration #185     ecut=    80.00 Ry     beta= 0.10
     Davidson diagonalization with overlap
     ethr =  5.91E-10,  avg # of iterations =  1.0

     negative rho (up, down):  6.041E-02 0.000E+00

     total cpu time spent up to now is    53565.2 secs

     total energy              =  -11682.10831580 Ry
     estimated scf accuracy    <       0.00001493 Ry

     iteration #186     ecut=    80.00 Ry     beta= 0.10
     Davidson diagonalization with overlap
     ethr =  5.91E-10,  avg # of iterations =  1.0

     negative rho (up, down):  6.041E-02 0.000E+00

     total cpu time spent up to now is    53849.2 secs

     total energy              =  -11682.10831592 Ry
     estimated scf accuracy    <       0.00000717 Ry

     iteration #187     ecut=    80.00 Ry     beta= 0.10
     Davidson diagonalization with overlap
     ethr =  3.83E-10,  avg # of iterations =  1.0

     negative rho (up, down):  6.041E-02 0.000E+00

     total cpu time spent up to now is    54134.4 secs

     total energy              =  -11682.10831603 Ry
     estimated scf accuracy    <       0.00000759 Ry

     iteration #188     ecut=    80.00 Ry     beta= 0.10
     Davidson diagonalization with overlap
     ethr =  3.83E-10,  avg # of iterations =  1.0

     negative rho (up, down):  6.041E-02 0.000E+00

     total cpu time spent up to now is    54418.4 secs

     total energy              =  -11682.10831604 Ry
     estimated scf accuracy    <       0.00000655 Ry

     iteration #189     ecut=    80.00 Ry     beta= 0.10
     Davidson diagonalization with overlap
     ethr =  3.50E-10,  avg # of iterations =  1.0

     negative rho (up, down):  6.041E-02 0.000E+00

     total cpu time spent up to now is    54702.2 secs

     total energy              =  -11682.10831611 Ry
     estimated scf accuracy    <       0.00000956 Ry

     iteration #190     ecut=    80.00 Ry     beta= 0.10
     Davidson diagonalization with overlap
     ethr =  3.50E-10,  avg # of iterations =  1.0

     negative rho (up, down):  6.041E-02 0.000E+00

     total cpu time spent up to now is    54986.6 secs

     total energy              =  -11682.10831611 Ry
     estimated scf accuracy    <       0.00000904 Ry

     iteration #191     ecut=    80.00 Ry     beta= 0.10
     Davidson diagonalization with overlap
     ethr =  3.50E-10,  avg # of iterations =  1.0

     negative rho (up, down):  6.041E-02 0.000E+00

     total cpu time spent up to now is    55270.9 secs

     total energy              =  -11682.10831614 Ry
     estimated scf accuracy    <       0.00001499 Ry

     iteration #192     ecut=    80.00 Ry     beta= 0.10
     Davidson diagonalization with overlap
     ethr =  3.50E-10,  avg # of iterations =  1.0

     negative rho (up, down):  6.041E-02 0.000E+00

     total cpu time spent up to now is    55555.8 secs

     total energy              =  -11682.10831622 Ry
     estimated scf accuracy    <       0.00001235 Ry

     iteration #193     ecut=    80.00 Ry     beta= 0.10
     Davidson diagonalization with overlap
     ethr =  3.50E-10,  avg # of iterations =  1.0

     negative rho (up, down):  6.041E-02 0.000E+00

     total cpu time spent up to now is    55839.5 secs

     total energy              =  -11682.10831607 Ry
     estimated scf accuracy    <       0.00001124 Ry

     iteration #194     ecut=    80.00 Ry     beta= 0.10
     Davidson diagonalization with overlap
     ethr =  3.50E-10,  avg # of iterations =  1.0

     negative rho (up, down):  6.041E-02 0.000E+00

     total cpu time spent up to now is    56123.8 secs

     total energy              =  -11682.10831628 Ry
     estimated scf accuracy    <       0.00001360 Ry

     iteration #195     ecut=    80.00 Ry     beta= 0.10
     Davidson diagonalization with overlap
     ethr =  3.50E-10,  avg # of iterations =  1.0

     negative rho (up, down):  6.041E-02 0.000E+00

     total cpu time spent up to now is    56408.0 secs

     total energy              =  -11682.10831623 Ry
     estimated scf accuracy    <       0.00000960 Ry

     iteration #196     ecut=    80.00 Ry     beta= 0.10
     Davidson diagonalization with overlap
     ethr =  3.50E-10,  avg # of iterations =  1.0

     negative rho (up, down):  6.041E-02 0.000E+00

     total cpu time spent up to now is    56692.5 secs

     total energy              =  -11682.10831628 Ry
     estimated scf accuracy    <       0.00000582 Ry

     iteration #197     ecut=    80.00 Ry     beta= 0.10
     Davidson diagonalization with overlap
     ethr =  3.11E-10,  avg # of iterations =  1.0

     negative rho (up, down):  6.041E-02 0.000E+00

     total cpu time spent up to now is    56977.2 secs

     total energy              =  -11682.10831636 Ry
     estimated scf accuracy    <       0.00000585 Ry

     iteration #198     ecut=    80.00 Ry     beta= 0.10
     Davidson diagonalization with overlap
     ethr =  3.11E-10,  avg # of iterations =  1.0

     negative rho (up, down):  6.041E-02 0.000E+00

     total cpu time spent up to now is    57261.3 secs

     total energy              =  -11682.10831635 Ry
     estimated scf accuracy    <       0.00000372 Ry

     iteration #199     ecut=    80.00 Ry     beta= 0.10
     Davidson diagonalization with overlap
     ethr =  1.99E-10,  avg # of iterations =  1.0

     negative rho (up, down):  6.041E-02 0.000E+00

     total cpu time spent up to now is    57545.5 secs

     total energy              =  -11682.10831640 Ry
     estimated scf accuracy    <       0.00000529 Ry

     iteration #200     ecut=    80.00 Ry     beta= 0.10
     Davidson diagonalization with overlap
     ethr =  1.99E-10,  avg # of iterations =  1.0

     negative rho (up, down):  6.041E-02 0.000E+00

     total cpu time spent up to now is    57829.5 secs

     total energy              =  -11682.10831642 Ry
     estimated scf accuracy    <       0.00000370 Ry

     iteration #201     ecut=    80.00 Ry     beta= 0.10
     Davidson diagonalization with overlap
     ethr =  1.98E-10,  avg # of iterations =  1.0

     negative rho (up, down):  6.041E-02 0.000E+00

     total cpu time spent up to now is    58113.8 secs

     total energy              =  -11682.10831645 Ry
     estimated scf accuracy    <       0.00000585 Ry

     iteration #202     ecut=    80.00 Ry     beta= 0.10
     Davidson diagonalization with overlap
     ethr =  1.98E-10,  avg # of iterations =  1.0

     negative rho (up, down):  6.041E-02 0.000E+00

     total cpu time spent up to now is    58397.8 secs

     total energy              =  -11682.10831649 Ry
     estimated scf accuracy    <       0.00000463 Ry

     iteration #203     ecut=    80.00 Ry     beta= 0.10
     Davidson diagonalization with overlap
     ethr =  1.98E-10,  avg # of iterations =  1.0

     negative rho (up, down):  6.041E-02 0.000E+00

     total cpu time spent up to now is    58682.6 secs

     total energy              =  -11682.10831640 Ry
     estimated scf accuracy    <       0.00000410 Ry

     iteration #204     ecut=    80.00 Ry     beta= 0.10
     Davidson diagonalization with overlap
     ethr =  1.98E-10,  avg # of iterations =  1.0

     negative rho (up, down):  6.041E-02 0.000E+00

     total cpu time spent up to now is    58966.9 secs

     total energy              =  -11682.10831647 Ry
     estimated scf accuracy    <       0.00001140 Ry

     iteration #205     ecut=    80.00 Ry     beta= 0.10
     Davidson diagonalization with overlap
     ethr =  1.98E-10,  avg # of iterations =  1.0

     negative rho (up, down):  6.041E-02 0.000E+00

     total cpu time spent up to now is    59252.5 secs

     total energy              =  -11682.10831648 Ry
     estimated scf accuracy    <       0.00000476 Ry

     iteration #206     ecut=    80.00 Ry     beta= 0.10
     Davidson diagonalization with overlap
     ethr =  1.98E-10,  avg # of iterations =  1.0

     negative rho (up, down):  6.041E-02 0.000E+00

     total cpu time spent up to now is    59537.2 secs

     total energy              =  -11682.10831649 Ry
     estimated scf accuracy    <       0.00000432 Ry

     iteration #207     ecut=    80.00 Ry     beta= 0.10
     Davidson diagonalization with overlap
     ethr =  1.98E-10,  avg # of iterations =  1.0

     negative rho (up, down):  6.042E-02 0.000E+00

     total cpu time spent up to now is    59821.1 secs

     total energy              =  -11682.10831653 Ry
     estimated scf accuracy    <       0.00000509 Ry

     iteration #208     ecut=    80.00 Ry     beta= 0.10
     Davidson diagonalization with overlap
     ethr =  1.98E-10,  avg # of iterations =  1.0

     negative rho (up, down):  6.041E-02 0.000E+00

     total cpu time spent up to now is    60105.9 secs

     total energy              =  -11682.10831652 Ry
     estimated scf accuracy    <       0.00000236 Ry

     iteration #209     ecut=    80.00 Ry     beta= 0.10
     Davidson diagonalization with overlap
     ethr =  1.26E-10,  avg # of iterations =  1.0

     negative rho (up, down):  6.042E-02 0.000E+00

     total cpu time spent up to now is    60391.4 secs

     total energy              =  -11682.10831655 Ry
     estimated scf accuracy    <       0.00000386 Ry

     iteration #210     ecut=    80.00 Ry     beta= 0.10
     Davidson diagonalization with overlap
     ethr =  1.26E-10,  avg # of iterations =  1.0

     negative rho (up, down):  6.042E-02 0.000E+00

     total cpu time spent up to now is    60675.8 secs

     total energy              =  -11682.10831656 Ry
     estimated scf accuracy    <       0.00000195 Ry

     iteration #211     ecut=    80.00 Ry     beta= 0.10
     Davidson diagonalization with overlap
     ethr =  1.04E-10,  avg # of iterations =  1.0

     negative rho (up, down):  6.042E-02 0.000E+00

     total cpu time spent up to now is    60961.2 secs

     total energy              =  -11682.10831658 Ry
     estimated scf accuracy    <       0.00000251 Ry

     iteration #212     ecut=    80.00 Ry     beta= 0.10
     Davidson diagonalization with overlap
     ethr =  1.04E-10,  avg # of iterations =  1.0

     negative rho (up, down):  6.042E-02 0.000E+00

     total cpu time spent up to now is    61246.7 secs

     total energy              =  -11682.10831660 Ry
     estimated scf accuracy    <       0.00000163 Ry

     iteration #213     ecut=    80.00 Ry     beta= 0.10
     Davidson diagonalization with overlap
     ethr =  8.73E-11,  avg # of iterations =  1.0

     negative rho (up, down):  6.042E-02 0.000E+00

     total cpu time spent up to now is    61531.6 secs

     total energy              =  -11682.10831658 Ry
     estimated scf accuracy    <       0.00000139 Ry

     iteration #214     ecut=    80.00 Ry     beta= 0.10
     Davidson diagonalization with overlap
     ethr =  7.40E-11,  avg # of iterations =  1.0

     negative rho (up, down):  6.042E-02 0.000E+00

     total cpu time spent up to now is    61816.8 secs

     total energy              =  -11682.10831659 Ry
     estimated scf accuracy    <       0.00000658 Ry

     iteration #215     ecut=    80.00 Ry     beta= 0.10
     Davidson diagonalization with overlap
     ethr =  7.40E-11,  avg # of iterations =  1.0

     negative rho (up, down):  6.042E-02 0.000E+00

     total cpu time spent up to now is    62100.6 secs

     total energy              =  -11682.10831661 Ry
     estimated scf accuracy    <       0.00000191 Ry

     iteration #216     ecut=    80.00 Ry     beta= 0.10
     Davidson diagonalization with overlap
     ethr =  7.40E-11,  avg # of iterations =  1.0

     negative rho (up, down):  6.042E-02 0.000E+00

     total cpu time spent up to now is    62385.5 secs

     total energy              =  -11682.10831661 Ry
     estimated scf accuracy    <       0.00000230 Ry

     iteration #217     ecut=    80.00 Ry     beta= 0.10
     Davidson diagonalization with overlap
     ethr =  7.40E-11,  avg # of iterations =  1.0

     negative rho (up, down):  6.042E-02 0.000E+00

     total cpu time spent up to now is    62670.8 secs

     total energy              =  -11682.10831662 Ry
     estimated scf accuracy    <       0.00000346 Ry

     iteration #218     ecut=    80.00 Ry     beta= 0.10
     Davidson diagonalization with overlap
     ethr =  7.40E-11,  avg # of iterations =  1.0

     negative rho (up, down):  6.042E-02 0.000E+00

     total cpu time spent up to now is    62955.2 secs

     total energy              =  -11682.10831662 Ry
     estimated scf accuracy    <       0.00000129 Ry

     iteration #219     ecut=    80.00 Ry     beta= 0.10
     Davidson diagonalization with overlap
     ethr =  6.88E-11,  avg # of iterations =  1.0

     negative rho (up, down):  6.042E-02 0.000E+00

     total cpu time spent up to now is    63239.7 secs

     total energy              =  -11682.10831663 Ry
     estimated scf accuracy    <       0.00000315 Ry

     iteration #220     ecut=    80.00 Ry     beta= 0.10
     Davidson diagonalization with overlap
     ethr =  6.88E-11,  avg # of iterations =  1.0

     negative rho (up, down):  6.042E-02 0.000E+00

     total cpu time spent up to now is    63523.6 secs

     total energy              =  -11682.10831664 Ry
     estimated scf accuracy    <       0.00000133 Ry

     iteration #221     ecut=    80.00 Ry     beta= 0.10
     Davidson diagonalization with overlap
     ethr =  6.88E-11,  avg # of iterations =  1.0

     negative rho (up, down):  6.042E-02 0.000E+00

     total cpu time spent up to now is    63808.3 secs

     total energy              =  -11682.10831665 Ry
     estimated scf accuracy    <       0.00000163 Ry

     iteration #222     ecut=    80.00 Ry     beta= 0.10
     Davidson diagonalization with overlap
     ethr =  6.88E-11,  avg # of iterations =  1.0

     negative rho (up, down):  6.042E-02 0.000E+00

     total cpu time spent up to now is    64093.5 secs

     total energy              =  -11682.10831666 Ry
     estimated scf accuracy    <       0.00000076 Ry

     iteration #223     ecut=    80.00 Ry     beta= 0.10
     Davidson diagonalization with overlap
     ethr =  4.07E-11,  avg # of iterations =  1.0

     negative rho (up, down):  6.042E-02 0.000E+00

     total cpu time spent up to now is    64378.0 secs

     total energy              =  -11682.10831666 Ry
     estimated scf accuracy    <       0.00000053 Ry

     iteration #224     ecut=    80.00 Ry     beta= 0.10
     Davidson diagonalization with overlap
     ethr =  2.85E-11,  avg # of iterations =  1.0

     negative rho (up, down):  6.042E-02 0.000E+00

     total cpu time spent up to now is    64662.3 secs

     total energy              =  -11682.10831665 Ry
     estimated scf accuracy    <       0.00000280 Ry

     iteration #225     ecut=    80.00 Ry     beta= 0.10
     Davidson diagonalization with overlap
     ethr =  2.85E-11,  avg # of iterations =  1.0

     negative rho (up, down):  6.042E-02 0.000E+00

     total cpu time spent up to now is    64946.6 secs

     total energy              =  -11682.10831667 Ry
     estimated scf accuracy    <       0.00000071 Ry

     iteration #226     ecut=    80.00 Ry     beta= 0.10
     Davidson diagonalization with overlap
     ethr =  2.85E-11,  avg # of iterations =  1.0

     negative rho (up, down):  6.042E-02 0.000E+00

     total cpu time spent up to now is    65230.9 secs

     total energy              =  -11682.10831667 Ry
     estimated scf accuracy    <       0.00000089 Ry

     iteration #227     ecut=    80.00 Ry     beta= 0.10
     Davidson diagonalization with overlap
     ethr =  2.85E-11,  avg # of iterations =  1.0

     negative rho (up, down):  6.042E-02 0.000E+00

     total cpu time spent up to now is    65516.1 secs

     total energy              =  -11682.10831667 Ry
     estimated scf accuracy    <       0.00000162 Ry

     iteration #228     ecut=    80.00 Ry     beta= 0.10
     Davidson diagonalization with overlap
     ethr =  2.85E-11,  avg # of iterations =  1.0

     negative rho (up, down):  6.042E-02 0.000E+00

     total cpu time spent up to now is    65800.1 secs

     total energy              =  -11682.10831667 Ry
     estimated scf accuracy    <       0.00000057 Ry

     iteration #229     ecut=    80.00 Ry     beta= 0.10
     Davidson diagonalization with overlap
     ethr =  2.85E-11,  avg # of iterations =  1.0

     negative rho (up, down):  6.042E-02 0.000E+00

     total cpu time spent up to now is    66084.8 secs

     total energy              =  -11682.10831667 Ry
     estimated scf accuracy    <       0.00000230 Ry

     iteration #230     ecut=    80.00 Ry     beta= 0.10
     Davidson diagonalization with overlap
     ethr =  2.85E-11,  avg # of iterations =  1.0

     negative rho (up, down):  6.042E-02 0.000E+00

     total cpu time spent up to now is    66369.3 secs

     total energy              =  -11682.10831667 Ry
     estimated scf accuracy    <       0.00000099 Ry

     iteration #231     ecut=    80.00 Ry     beta= 0.10
     Davidson diagonalization with overlap
     ethr =  2.85E-11,  avg # of iterations =  1.0

     negative rho (up, down):  6.042E-02 0.000E+00

     total cpu time spent up to now is    66653.0 secs

     total energy              =  -11682.10831668 Ry
     estimated scf accuracy    <       0.00000143 Ry

     iteration #232     ecut=    80.00 Ry     beta= 0.10
     Davidson diagonalization with overlap
     ethr =  2.85E-11,  avg # of iterations =  1.0

     negative rho (up, down):  6.042E-02 0.000E+00

     total cpu time spent up to now is    66936.6 secs

     total energy              =  -11682.10831668 Ry
     estimated scf accuracy    <       0.00000051 Ry

     iteration #233     ecut=    80.00 Ry     beta= 0.10
     Davidson diagonalization with overlap
     ethr =  2.73E-11,  avg # of iterations =  1.0

     negative rho (up, down):  6.042E-02 0.000E+00

     total cpu time spent up to now is    67221.3 secs

     total energy              =  -11682.10831669 Ry
     estimated scf accuracy    <       0.00000029 Ry

     iteration #234     ecut=    80.00 Ry     beta= 0.10
     Davidson diagonalization with overlap
     ethr =  1.55E-11,  avg # of iterations =  1.0

     negative rho (up, down):  6.042E-02 0.000E+00

     total cpu time spent up to now is    67506.6 secs

     total energy              =  -11682.10831668 Ry
     estimated scf accuracy    <       0.00000123 Ry

     iteration #235     ecut=    80.00 Ry     beta= 0.10
     Davidson diagonalization with overlap
     ethr =  1.55E-11,  avg # of iterations =  1.0

     negative rho (up, down):  6.042E-02 0.000E+00

     total cpu time spent up to now is    67791.4 secs

     total energy              =  -11682.10831669 Ry
     estimated scf accuracy    <       0.00000030 Ry

     iteration #236     ecut=    80.00 Ry     beta= 0.10
     Davidson diagonalization with overlap
     ethr =  1.55E-11,  avg # of iterations =  1.0

     negative rho (up, down):  6.042E-02 0.000E+00

     total cpu time spent up to now is    68076.2 secs

     total energy              =  -11682.10831669 Ry
     estimated scf accuracy    <       0.00000032 Ry

     iteration #237     ecut=    80.00 Ry     beta= 0.10
     Davidson diagonalization with overlap
     ethr =  1.55E-11,  avg # of iterations =  1.0

     negative rho (up, down):  6.042E-02 0.000E+00

     total cpu time spent up to now is    68361.1 secs

     total energy              =  -11682.10831669 Ry
     estimated scf accuracy    <       0.00000062 Ry

     iteration #238     ecut=    80.00 Ry     beta= 0.10
     Davidson diagonalization with overlap
     ethr =  1.55E-11,  avg # of iterations =  1.0

     negative rho (up, down):  6.042E-02 0.000E+00

     total cpu time spent up to now is    68645.6 secs

     total energy              =  -11682.10831669 Ry
     estimated scf accuracy    <       0.00000024 Ry

     iteration #239     ecut=    80.00 Ry     beta= 0.10
     Davidson diagonalization with overlap
     ethr =  1.26E-11,  avg # of iterations =  1.0

     negative rho (up, down):  6.042E-02 0.000E+00

     total cpu time spent up to now is    68930.1 secs

     total energy              =  -11682.10831668 Ry
     estimated scf accuracy    <       0.00000123 Ry

     iteration #240     ecut=    80.00 Ry     beta= 0.10
     Davidson diagonalization with overlap
     ethr =  1.26E-11,  avg # of iterations =  1.0

     negative rho (up, down):  6.042E-02 0.000E+00

     total cpu time spent up to now is    69214.7 secs

     total energy              =  -11682.10831669 Ry
     estimated scf accuracy    <       0.00000062 Ry

     iteration #241     ecut=    80.00 Ry     beta= 0.10
     Davidson diagonalization with overlap
     ethr =  1.26E-11,  avg # of iterations =  1.0

     negative rho (up, down):  6.042E-02 0.000E+00

     total cpu time spent up to now is    69498.3 secs

     total energy              =  -11682.10831669 Ry
     estimated scf accuracy    <       0.00000110 Ry

     iteration #242     ecut=    80.00 Ry     beta= 0.10
     Davidson diagonalization with overlap
     ethr =  1.26E-11,  avg # of iterations =  1.0

     negative rho (up, down):  6.042E-02 0.000E+00

     total cpu time spent up to now is    69782.6 secs

     total energy              =  -11682.10831669 Ry
     estimated scf accuracy    <       0.00000035 Ry

     iteration #243     ecut=    80.00 Ry     beta= 0.10
     Davidson diagonalization with overlap
     ethr =  1.26E-11,  avg # of iterations =  1.0

     negative rho (up, down):  6.042E-02 0.000E+00

     total cpu time spent up to now is    70067.1 secs

     total energy              =  -11682.10831670 Ry
     estimated scf accuracy    <       0.00000021 Ry

     iteration #244     ecut=    80.00 Ry     beta= 0.10
     Davidson diagonalization with overlap
     ethr =  1.13E-11,  avg # of iterations =  1.0

     negative rho (up, down):  6.042E-02 0.000E+00

     total cpu time spent up to now is    70358.0 secs

     total energy              =  -11682.10831669 Ry
     estimated scf accuracy    <       0.00000068 Ry

     iteration #245     ecut=    80.00 Ry     beta= 0.10
     Davidson diagonalization with overlap
     ethr =  1.13E-11,  avg # of iterations =  1.0

     negative rho (up, down):  6.042E-02 0.000E+00

     total cpu time spent up to now is    70642.5 secs

     total energy              =  -11682.10831670 Ry
     estimated scf accuracy    <       0.00000020 Ry

     iteration #246     ecut=    80.00 Ry     beta= 0.10
     Davidson diagonalization with overlap
     ethr =  1.05E-11,  avg # of iterations =  1.0

     negative rho (up, down):  6.042E-02 0.000E+00

     total cpu time spent up to now is    70927.1 secs

     total energy              =  -11682.10831670 Ry
     estimated scf accuracy    <       0.00000016 Ry

     iteration #247     ecut=    80.00 Ry     beta= 0.10
     Davidson diagonalization with overlap
     ethr =  8.55E-12,  avg # of iterations =  1.0

     negative rho (up, down):  6.042E-02 0.000E+00

     total cpu time spent up to now is    71212.2 secs

     total energy              =  -11682.10831669 Ry
     estimated scf accuracy    <       0.00000027 Ry

     iteration #248     ecut=    80.00 Ry     beta= 0.10
     Davidson diagonalization with overlap
     ethr =  8.55E-12,  avg # of iterations =  1.0

     negative rho (up, down):  6.042E-02 0.000E+00

     total cpu time spent up to now is    71496.7 secs

     total energy              =  -11682.10831669 Ry
     estimated scf accuracy    <       0.00000010 Ry

     iteration #249     ecut=    80.00 Ry     beta= 0.10
     Davidson diagonalization with overlap
     ethr =  5.52E-12,  avg # of iterations =  1.0

     negative rho (up, down):  6.042E-02 0.000E+00

     total cpu time spent up to now is    71781.3 secs

     total energy              =  -11682.10831669 Ry
     estimated scf accuracy    <       0.00000047 Ry

     iteration #250     ecut=    80.00 Ry     beta= 0.10
     Davidson diagonalization with overlap
     ethr =  5.52E-12,  avg # of iterations =  1.0

     negative rho (up, down):  6.042E-02 0.000E+00

     total cpu time spent up to now is    72066.0 secs

     total energy              =  -11682.10831670 Ry
     estimated scf accuracy    <       0.00000030 Ry

     iteration #251     ecut=    80.00 Ry     beta= 0.10
     Davidson diagonalization with overlap
     ethr =  5.52E-12,  avg # of iterations =  1.0

     negative rho (up, down):  6.042E-02 0.000E+00

     total cpu time spent up to now is    72351.4 secs

     total energy              =  -11682.10831669 Ry
     estimated scf accuracy    <       0.00000061 Ry

     iteration #252     ecut=    80.00 Ry     beta= 0.10
     Davidson diagonalization with overlap
     ethr =  5.52E-12,  avg # of iterations =  1.0

     negative rho (up, down):  6.042E-02 0.000E+00

     total cpu time spent up to now is    72636.0 secs

     total energy              =  -11682.10831669 Ry
     estimated scf accuracy    <       0.00000020 Ry

     iteration #253     ecut=    80.00 Ry     beta= 0.10
     Davidson diagonalization with overlap
     ethr =  5.52E-12,  avg # of iterations =  1.0

     negative rho (up, down):  6.042E-02 0.000E+00

     total cpu time spent up to now is    72928.5 secs

     total energy              =  -11682.10831670 Ry
     estimated scf accuracy    <       0.00000017 Ry

     iteration #254     ecut=    80.00 Ry     beta= 0.10
     Davidson diagonalization with overlap
     ethr =  5.52E-12,  avg # of iterations =  1.0

     negative rho (up, down):  6.042E-02 0.000E+00

     total cpu time spent up to now is    73213.6 secs

     total energy              =  -11682.10831669 Ry
     estimated scf accuracy    <       0.00000037 Ry

     iteration #255     ecut=    80.00 Ry     beta= 0.10
     Davidson diagonalization with overlap
     ethr =  5.52E-12,  avg # of iterations =  1.0

     negative rho (up, down):  6.042E-02 0.000E+00

     total cpu time spent up to now is    73498.1 secs

     total energy              =  -11682.10831670 Ry
     estimated scf accuracy    <       0.00000019 Ry

     iteration #256     ecut=    80.00 Ry     beta= 0.10
     Davidson diagonalization with overlap
     ethr =  5.52E-12,  avg # of iterations =  1.0

     negative rho (up, down):  6.042E-02 0.000E+00

     total cpu time spent up to now is    73783.2 secs

     total energy              =  -11682.10831670 Ry
     estimated scf accuracy    <       0.00000012 Ry

     iteration #257     ecut=    80.00 Ry     beta= 0.10
     Davidson diagonalization with overlap
     ethr =  5.52E-12,  avg # of iterations =  1.0

     negative rho (up, down):  6.042E-02 0.000E+00

     total cpu time spent up to now is    74067.8 secs

     total energy              =  -11682.10831670 Ry
     estimated scf accuracy    <       0.00000018 Ry

     iteration #258     ecut=    80.00 Ry     beta= 0.10
     Davidson diagonalization with overlap
     ethr =  5.52E-12,  avg # of iterations =  1.0

     negative rho (up, down):  6.042E-02 0.000E+00

     total cpu time spent up to now is    74352.0 secs

     total energy              =  -11682.10831670 Ry
     estimated scf accuracy    <       0.00000006 Ry

     iteration #259     ecut=    80.00 Ry     beta= 0.10
     Davidson diagonalization with overlap
     ethr =  2.98E-12,  avg # of iterations =  1.0

     negative rho (up, down):  6.042E-02 0.000E+00

     total cpu time spent up to now is    74636.2 secs

     total energy              =  -11682.10831669 Ry
     estimated scf accuracy    <       0.00000016 Ry

     iteration #260     ecut=    80.00 Ry     beta= 0.10
     Davidson diagonalization with overlap
     ethr =  2.98E-12,  avg # of iterations =  1.0

     negative rho (up, down):  6.042E-02 0.000E+00

     total cpu time spent up to now is    74920.8 secs

     total energy              =  -11682.10831669 Ry
     estimated scf accuracy    <       0.00000013 Ry

     iteration #261     ecut=    80.00 Ry     beta= 0.10
     Davidson diagonalization with overlap
     ethr =  2.98E-12,  avg # of iterations =  1.0

     negative rho (up, down):  6.042E-02 0.000E+00

     total cpu time spent up to now is    75214.9 secs

     total energy              =  -11682.10831669 Ry
     estimated scf accuracy    <       0.00000025 Ry

     iteration #262     ecut=    80.00 Ry     beta= 0.10
     Davidson diagonalization with overlap
     ethr =  2.98E-12,  avg # of iterations =  1.0

     negative rho (up, down):  6.042E-02 0.000E+00

     total cpu time spent up to now is    75499.8 secs

     total energy              =  -11682.10831669 Ry
     estimated scf accuracy    <       0.00000009 Ry

     iteration #263     ecut=    80.00 Ry     beta= 0.10
     Davidson diagonalization with overlap
     ethr =  2.98E-12,  avg # of iterations =  1.0

     negative rho (up, down):  6.042E-02 0.000E+00

     total cpu time spent up to now is    75784.4 secs

     total energy              =  -11682.10831669 Ry
     estimated scf accuracy    <       0.00000011 Ry

     iteration #264     ecut=    80.00 Ry     beta= 0.10
     Davidson diagonalization with overlap
     ethr =  2.98E-12,  avg # of iterations =  1.0

     negative rho (up, down):  6.042E-02 0.000E+00

     total cpu time spent up to now is    76068.8 secs

     total energy              =  -11682.10831669 Ry
     estimated scf accuracy    <       0.00000016 Ry

     iteration #265     ecut=    80.00 Ry     beta= 0.10
     Davidson diagonalization with overlap
     ethr =  2.98E-12,  avg # of iterations =  1.0

     negative rho (up, down):  6.042E-02 0.000E+00

     total cpu time spent up to now is    76353.3 secs

     total energy              =  -11682.10831669 Ry
     estimated scf accuracy    <       0.00000017 Ry

     iteration #266     ecut=    80.00 Ry     beta= 0.10
     Davidson diagonalization with overlap
     ethr =  2.98E-12,  avg # of iterations =  1.0

     negative rho (up, down):  6.042E-02 0.000E+00

     total cpu time spent up to now is    76637.0 secs

     total energy              =  -11682.10831669 Ry
     estimated scf accuracy    <       0.00000009 Ry

     iteration #267     ecut=    80.00 Ry     beta= 0.10
     Davidson diagonalization with overlap
     ethr =  2.98E-12,  avg # of iterations =  1.0

     negative rho (up, down):  6.042E-02 0.000E+00

     total cpu time spent up to now is    76921.8 secs

     total energy              =  -11682.10831669 Ry
     estimated scf accuracy    <       0.00000013 Ry

     iteration #268     ecut=    80.00 Ry     beta= 0.10
     Davidson diagonalization with overlap
     ethr =  2.98E-12,  avg # of iterations =  1.0

     negative rho (up, down):  6.042E-02 0.000E+00

     total cpu time spent up to now is    77206.3 secs

     total energy              =  -11682.10831669 Ry
     estimated scf accuracy    <       0.00000004 Ry

     iteration #269     ecut=    80.00 Ry     beta= 0.10
     Davidson diagonalization with overlap
     ethr =  2.06E-12,  avg # of iterations =  1.0

     negative rho (up, down):  6.042E-02 0.000E+00

     total cpu time spent up to now is    77491.0 secs

     total energy              =  -11682.10831669 Ry
     estimated scf accuracy    <       0.00000007 Ry

     iteration #270     ecut=    80.00 Ry     beta= 0.10
     Davidson diagonalization with overlap
     ethr =  2.06E-12,  avg # of iterations =  1.0

     negative rho (up, down):  6.042E-02 0.000E+00

     total cpu time spent up to now is    77776.2 secs

     total energy              =  -11682.10831669 Ry
     estimated scf accuracy    <       0.00000006 Ry

     iteration #271     ecut=    80.00 Ry     beta= 0.10
     Davidson diagonalization with overlap
     ethr =  2.06E-12,  avg # of iterations =  1.0

     negative rho (up, down):  6.042E-02 0.000E+00

     total cpu time spent up to now is    78060.3 secs

     total energy              =  -11682.10831669 Ry
     estimated scf accuracy    <       0.00000010 Ry

     iteration #272     ecut=    80.00 Ry     beta= 0.10
     Davidson diagonalization with overlap
     ethr =  2.06E-12,  avg # of iterations =  1.0

     negative rho (up, down):  6.042E-02 0.000E+00

     total cpu time spent up to now is    78345.3 secs

     total energy              =  -11682.10831669 Ry
     estimated scf accuracy    <       0.00000004 Ry

     iteration #273     ecut=    80.00 Ry     beta= 0.10
     Davidson diagonalization with overlap
     ethr =  1.96E-12,  avg # of iterations =  1.0

     negative rho (up, down):  6.042E-02 0.000E+00

     total cpu time spent up to now is    78629.7 secs

     total energy              =  -11682.10831669 Ry
     estimated scf accuracy    <       0.00000006 Ry

     iteration #274     ecut=    80.00 Ry     beta= 0.10
     Davidson diagonalization with overlap
     ethr =  1.96E-12,  avg # of iterations =  1.0

     negative rho (up, down):  6.042E-02 0.000E+00

     total cpu time spent up to now is    78913.9 secs

     total energy              =  -11682.10831669 Ry
     estimated scf accuracy    <       0.00000006 Ry

     iteration #275     ecut=    80.00 Ry     beta= 0.10
     Davidson diagonalization with overlap
     ethr =  1.96E-12,  avg # of iterations =  1.0

     negative rho (up, down):  6.042E-02 0.000E+00

     total cpu time spent up to now is    79197.5 secs

     total energy              =  -11682.10831669 Ry
     estimated scf accuracy    <       0.00000010 Ry

     iteration #276     ecut=    80.00 Ry     beta= 0.10
     Davidson diagonalization with overlap
     ethr =  1.96E-12,  avg # of iterations =  1.0

     negative rho (up, down):  6.042E-02 0.000E+00

     total cpu time spent up to now is    79482.0 secs

     total energy              =  -11682.10831669 Ry
     estimated scf accuracy    <       0.00000006 Ry

     iteration #277     ecut=    80.00 Ry     beta= 0.10
     Davidson diagonalization with overlap
     ethr =  1.96E-12,  avg # of iterations =  1.0

     negative rho (up, down):  6.042E-02 0.000E+00

     total cpu time spent up to now is    79767.1 secs

     total energy              =  -11682.10831669 Ry
     estimated scf accuracy    <       0.00000008 Ry

     iteration #278     ecut=    80.00 Ry     beta= 0.10
     Davidson diagonalization with overlap
     ethr =  1.96E-12,  avg # of iterations =  1.0

     negative rho (up, down):  6.042E-02 0.000E+00

     total cpu time spent up to now is    80051.5 secs

     total energy              =  -11682.10831669 Ry
     estimated scf accuracy    <       0.00000003 Ry

     iteration #279     ecut=    80.00 Ry     beta= 0.10
     Davidson diagonalization with overlap
     ethr =  1.69E-12,  avg # of iterations =  1.0

     negative rho (up, down):  6.042E-02 0.000E+00

     total cpu time spent up to now is    80334.8 secs

     total energy              =  -11682.10831669 Ry
     estimated scf accuracy    <       0.00000004 Ry

     iteration #280     ecut=    80.00 Ry     beta= 0.10
     Davidson diagonalization with overlap
     ethr =  1.69E-12,  avg # of iterations =  1.0

     negative rho (up, down):  6.042E-02 0.000E+00

     total cpu time spent up to now is    80618.6 secs

     total energy              =  -11682.10831669 Ry
     estimated scf accuracy    <       0.00000003 Ry

     iteration #281     ecut=    80.00 Ry     beta= 0.10
     Davidson diagonalization with overlap
     ethr =  1.69E-12,  avg # of iterations =  1.0

     negative rho (up, down):  6.042E-02 0.000E+00

     total cpu time spent up to now is    80902.9 secs

     total energy              =  -11682.10831669 Ry
     estimated scf accuracy    <       0.00000005 Ry

     iteration #282     ecut=    80.00 Ry     beta= 0.10
     Davidson diagonalization with overlap
     ethr =  1.69E-12,  avg # of iterations =  1.0

     negative rho (up, down):  6.042E-02 0.000E+00

     total cpu time spent up to now is    81188.4 secs

     total energy              =  -11682.10831669 Ry
     estimated scf accuracy    <       0.00000002 Ry

     iteration #283     ecut=    80.00 Ry     beta= 0.10
     Davidson diagonalization with overlap
     ethr =  8.98E-13,  avg # of iterations =  1.0

     negative rho (up, down):  6.042E-02 0.000E+00

     total cpu time spent up to now is    81471.9 secs

     total energy              =  -11682.10831669 Ry
     estimated scf accuracy    <       0.00000002 Ry

     iteration #284     ecut=    80.00 Ry     beta= 0.10
     Davidson diagonalization with overlap
     ethr =  8.98E-13,  avg # of iterations =  1.0

     negative rho (up, down):  6.042E-02 0.000E+00

     total cpu time spent up to now is    81756.7 secs

     total energy              =  -11682.10831669 Ry
     estimated scf accuracy    <       0.00000002 Ry

     iteration #285     ecut=    80.00 Ry     beta= 0.10
     Davidson diagonalization with overlap
     ethr =  8.98E-13,  avg # of iterations =  1.0

     negative rho (up, down):  6.042E-02 0.000E+00

     total cpu time spent up to now is    82040.9 secs

     total energy              =  -11682.10831669 Ry
     estimated scf accuracy    <       0.00000004 Ry

     iteration #286     ecut=    80.00 Ry     beta= 0.10
     Davidson diagonalization with overlap
     ethr =  8.98E-13,  avg # of iterations =  1.0

     negative rho (up, down):  6.042E-02 0.000E+00

     total cpu time spent up to now is    82325.6 secs

     total energy              =  -11682.10831669 Ry
     estimated scf accuracy    <       0.00000003 Ry

     iteration #287     ecut=    80.00 Ry     beta= 0.10
     Davidson diagonalization with overlap
     ethr =  8.98E-13,  avg # of iterations =  1.0

     negative rho (up, down):  6.042E-02 0.000E+00

     total cpu time spent up to now is    82609.6 secs

     total energy              =  -11682.10831669 Ry
     estimated scf accuracy    <       0.00000003 Ry

     iteration #288     ecut=    80.00 Ry     beta= 0.10
     Davidson diagonalization with overlap
     ethr =  8.98E-13,  avg # of iterations =  1.0

     negative rho (up, down):  6.042E-02 0.000E+00

     total cpu time spent up to now is    82893.6 secs

     total energy              =  -11682.10831669 Ry
     estimated scf accuracy    <       0.00000002 Ry

     iteration #289     ecut=    80.00 Ry     beta= 0.10
     Davidson diagonalization with overlap
     ethr =  8.98E-13,  avg # of iterations =  1.0

     negative rho (up, down):  6.042E-02 0.000E+00

     total cpu time spent up to now is    83178.3 secs

     total energy              =  -11682.10831669 Ry
     estimated scf accuracy    <       0.00000003 Ry

     iteration #290     ecut=    80.00 Ry     beta= 0.10
     Davidson diagonalization with overlap
     ethr =  8.98E-13,  avg # of iterations =  1.0

     negative rho (up, down):  6.042E-02 0.000E+00

     total cpu time spent up to now is    83462.5 secs

     total energy              =  -11682.10831669 Ry
     estimated scf accuracy    <       0.00000002 Ry

     iteration #291     ecut=    80.00 Ry     beta= 0.10
     Davidson diagonalization with overlap
     ethr =  8.98E-13,  avg # of iterations =  1.0

     negative rho (up, down):  6.042E-02 0.000E+00

     total cpu time spent up to now is    83747.0 secs

     total energy              =  -11682.10831669 Ry
     estimated scf accuracy    <       0.00000003 Ry

     iteration #292     ecut=    80.00 Ry     beta= 0.10
     Davidson diagonalization with overlap
     ethr =  8.98E-13,  avg # of iterations =  1.0

     negative rho (up, down):  6.042E-02 0.000E+00

     total cpu time spent up to now is    84031.5 secs

     total energy              =  -11682.10831669 Ry
     estimated scf accuracy    <       0.00000001 Ry

     iteration #293     ecut=    80.00 Ry     beta= 0.10
     Davidson diagonalization with overlap
     ethr =  5.63E-13,  avg # of iterations =  1.0

     negative rho (up, down):  6.042E-02 0.000E+00

     total cpu time spent up to now is    84320.2 secs

     total energy              =  -11682.10831669 Ry
     estimated scf accuracy    <       0.00000001 Ry

     iteration #294     ecut=    80.00 Ry     beta= 0.10
     Davidson diagonalization with overlap
     ethr =  5.63E-13,  avg # of iterations =  1.0

     negative rho (up, down):  6.042E-02 0.000E+00

     total cpu time spent up to now is    84604.5 secs

     End of self-consistent calculation

          k = 0.0000 0.0000 0.0000 (****** PWs)   bands (ev):

   -57.9729 -56.2019 -55.8645 -55.8344 -55.6231 -55.5912 -55.0331 -55.0023
   -54.7614 -54.5073 -53.8728 -29.8995 -29.8822 -29.8444 -28.1527 -28.1100
   -28.0688 -27.7978 -27.7901 -27.7711 -27.7526 -27.7502 -27.7296 -27.5589
   -27.5563 -27.5285 -27.4932 -27.4911 -27.4646 -27.1337 -27.0039 -26.9552
   -26.9438 -26.9091 -26.8942 -26.8738 -26.7537 -26.7023 -26.6617 -26.4836
   -26.4449 -26.3898 -26.2598 -26.1274 -25.8780 -25.8237 -25.7956 -25.7776
   -25.7704 -25.7604 -25.6171 -25.5839 -25.5634 -25.5576 -25.4558 -25.3687
   -25.3003 -25.2407 -25.1917 -25.1342 -25.1116 -25.0586 -25.0345 -25.0168
   -25.0061 -24.9963 -24.9508 -24.9096 -24.8995 -24.8887 -24.8534 -24.8531
   -24.8039 -24.7890 -24.7608 -24.7374 -24.7109 -24.6715 -24.6488 -24.6292
   -24.6114 -24.6087 -24.5742 -24.5534 -24.5384 -24.5142 -24.4915 -24.4569
   -24.4435 -24.4089 -24.4054 -24.3818 -24.3668 -24.3389 -24.3298 -24.3071
   -24.2959 -24.2693 -24.2609 -24.2477 -24.2191 -24.2135 -24.1876 -24.1769
   -24.1541 -24.1278 -24.1082 -24.1005 -24.0841 -24.0645 -24.0517 -24.0235
   -23.9935 -23.9790 -23.9660 -23.9447 -23.9294 -23.9023 -23.8734 -23.8698
   -23.8161 -23.7953 -23.7918 -23.7762 -23.7593 -23.7438 -23.7349 -23.7230
   -23.7072 -23.7019 -23.6951 -23.6868 -23.6780 -23.6690 -23.6383 -23.6250
   -23.6108 -23.6048 -23.5904 -23.5656 -23.5589 -23.5463 -23.5272 -23.5166
   -23.5060 -23.4921 -23.4763 -23.4461 -23.4180 -23.4079 -23.3917 -23.3895
   -23.3621 -23.3483 -23.3447 -23.3111 -23.3042 -23.2922 -23.2814 -23.2631
   -23.2517 -23.2239 -23.2157 -23.1970 -23.1876 -23.1583 -23.1492 -23.1283
   -23.1267 -23.1031 -23.0923 -23.0840 -23.0640 -23.0545 -23.0528 -23.0389
   -23.0213 -23.0136 -22.9977 -22.9608 -22.9330 -22.9137 -22.9078 -22.8922
   -22.8827 -22.8615 -22.8474 -22.8351 -22.8311 -22.8032 -22.7951 -22.7779
   -22.7696 -22.7525 -22.7155 -22.7069 -22.7042 -22.6999 -22.6672 -22.6625
   -22.6419 -22.5660 -22.5292 -22.5215 -22.4768 -22.4553 -22.4014 -22.3967
   -22.3917 -22.3872 -22.3827 -22.3291 -22.2671 -22.2468 -22.2404 -22.2211
   -22.2101 -22.1757 -22.1144 -22.0320 -21.9873 -21.9790 -21.9375 -21.8399
   -21.6527 -21.5831 -21.5786 -21.5601 -21.5087 -21.4547 -21.4300 -21.3956
   -21.3282 -21.3090 -20.6519 -20.5987 -20.5653 -20.5567 -20.5560 -20.5274
   -20.5256 -20.4729 -20.4720 -20.3633 -20.3519 -20.1653 -20.0822 -20.0738
   -20.0159 -19.8304 -19.7370 -19.7347 -19.7325 -19.7204 -19.7148 -19.7132
   -19.7117 -19.6835 -19.6774 -19.6678 -19.6049 -18.8889 -18.5243 -17.6643
   -16.9091 -16.1133 -15.3483 -15.2128 -15.1494 -15.0781 -14.9706 -14.8912
   -14.8563 -14.7856 -14.7505 -14.7067 -14.6580 -14.5909 -14.5823 -14.5318
   -14.5069 -14.4209 -14.3419 -14.2878 -14.2108 -14.1820 -14.1291 -14.1005
   -14.0314 -14.0081 -13.9980 -13.9588 -13.9211 -13.9048 -13.8803 -13.8153
   -13.7967 -13.7516 -13.7442 -13.6891 -13.6606 -13.6061 -13.5370 -13.5235
   -13.4819 -13.4457 -13.4418 -13.4223 -13.3743 -13.3231 -13.2985 -13.2872
   -13.2242 -13.2187 -13.2119 -13.1538 -13.1304 -13.0891 -13.0819 -13.0526
   -13.0088 -12.9919 -12.9623 -12.9282 -12.9050 -12.8851 -12.8505 -12.8271
   -12.8023 -12.7733 -12.7348 -12.7247 -12.6679 -12.6485 -12.6281 -12.5509
   -12.5401 -12.5194 -12.4833 -12.4425 -12.4146 -12.3750 -12.3611 -12.3273
   -12.3177 -12.2997 -12.2915 -12.2291 -12.2114 -12.1671 -12.1464 -12.1260
   -12.0841 -12.0415 -12.0224 -11.9997 -11.9785 -11.9483 -11.9166 -11.8879
   -11.8664 -11.8532 -11.8274 -11.8085 -11.7842 -11.7496 -11.7409 -11.7042
   -11.7018 -11.6930 -11.6464 -11.6352 -11.6011 -11.5978 -11.5823 -11.5674
   -11.5445 -11.5365 -11.5178 -11.4954 -11.4818 -11.4652 -11.4613 -11.4447
   -11.4251 -11.4134 -11.3856 -11.3759 -11.3716 -11.3327 -11.3123 -11.2957
   -11.2741 -11.2661 -11.2489 -11.2150 -11.1966 -11.1722 -11.1660 -11.1567
   -11.1441 -11.1397 -11.1201 -11.0988 -11.0849 -11.0697 -11.0654 -11.0393
   -10.9910 -10.9875 -10.9618 -10.9505 -10.9277 -10.9015 -10.8931 -10.8809
   -10.8763 -10.8620 -10.8546 -10.8521 -10.8272 -10.8234 -10.8122 -10.7801
   -10.7777 -10.7410 -10.7196 -10.7097 -10.6927 -10.6909 -10.6616 -10.6535
   -10.6151 -10.5822 -10.5775 -10.5635 -10.5479 -10.5369 -10.5190 -10.4897
   -10.4747 -10.4613 -10.4305 -10.3902 -10.3794 -10.3332 -10.3104 -10.2962
   -10.2817 -10.2337 -10.2117 -10.2065 -10.1827 -10.1644 -10.1113 -10.0757
   -10.0730 -10.0478 -10.0301  -9.9915  -9.9627  -9.9120  -9.8979  -9.8759
    -9.8608  -9.8363  -9.8113  -9.7974  -9.7854  -9.7643  -9.7406  -9.7192
    -9.6675  -9.6485  -9.5914  -9.5869  -9.5695  -9.5423  -9.5295  -9.5135
    -9.4966  -9.4837  -9.4666  -9.4530  -9.4198  -9.3982  -9.3731  -9.3647
    -9.3391  -9.3373  -9.3349  -9.3250  -9.3122  -9.3085  -9.3032  -9.2906
    -9.2460  -9.2303  -9.2235  -9.1892  -9.1795  -9.1703  -9.1478  -9.1406
    -9.1219  -9.1079  -9.0786  -9.0589  -9.0432  -9.0183  -9.0164  -8.9762
    -8.9678  -8.9423  -8.9115  -8.9097  -8.8820  -8.8660  -8.8569  -8.8484
    -8.8392  -8.8244  -8.8060  -8.7846  -8.7722  -8.7633  -8.7391  -8.7343
    -8.7225  -8.7101  -8.7007  -8.6854  -8.6656  -8.6609  -8.6584  -8.6438
    -8.6393  -8.6223  -8.5940  -8.5877  -8.5713  -8.5708  -8.5631  -8.5521
    -8.5498  -8.5420  -8.5341  -8.5156  -8.5113  -8.5007  -8.4905  -8.4757
    -8.4646  -8.4569  -8.4446  -8.4334  -8.4176  -8.3961  -8.3917  -8.3853
    -8.3742  -8.3673  -8.3614  -8.3465  -8.3332  -8.3279  -8.3130  -8.3049
    -8.2978  -8.2858  -8.2699  -8.2639  -8.2513  -8.2487  -8.2361  -8.2230
    -8.2159  -8.2038  -8.1943  -8.1775  -8.1728  -8.1645  -8.1468  -8.1418
    -8.1411  -8.1293  -8.1091  -8.0906  -8.0831  -8.0724  -8.0637  -8.0497
    -8.0376  -8.0360  -8.0288  -8.0204  -8.0058  -8.0004  -7.9974  -7.9891
    -7.9808  -7.9600  -7.9501  -7.9439  -7.9403  -7.9174  -7.9128  -7.9094
    -7.8858  -7.8821  -7.8694  -7.8592  -7.8517  -7.8397  -7.8354  -7.8234
    -7.8221  -7.8067  -7.8015  -7.7923  -7.7778  -7.7739  -7.7635  -7.7503
    -7.7467  -7.7401  -7.7340  -7.7189  -7.7163  -7.7029  -7.6946  -7.6801
    -7.6744  -7.6726  -7.6538  -7.6465  -7.6411  -7.6270  -7.6225  -7.6142
    -7.5992  -7.5970  -7.5852  -7.5752  -7.5725  -7.5541  -7.5515  -7.5386
    -7.5356  -7.5134  -7.5064  -7.5022  -7.4935  -7.4828  -7.4682  -7.4666
    -7.4511  -7.4464  -7.4413  -7.4255  -7.4185  -7.4073  -7.4015  -7.3941
    -7.3861  -7.3778  -7.3731  -7.3646  -7.3584  -7.3282  -7.3145  -7.2998
    -7.2929  -7.2906  -7.2861  -7.2750  -7.2619  -7.2559  -7.2477  -7.2319
    -7.2250  -7.2118  -7.2038  -7.1888  -7.1856  -7.1834  -7.1752  -7.1638
    -7.1541  -7.1408  -7.1315  -7.1197  -7.1132  -7.0947  -7.0849  -7.0778
    -7.0644  -7.0615  -7.0492  -7.0394  -7.0287  -7.0210  -7.0092  -7.0048
    -6.9941  -6.9899  -6.9818  -6.9658  -6.9587  -6.9538  -6.9372  -6.9242
    -6.9070  -6.8985  -6.8882  -6.8756  -6.8653  -6.8546  -6.8447  -6.8419
    -6.8291  -6.8256  -6.8094  -6.7905  -6.7840  -6.7764  -6.7673  -6.7560
    -6.7445  -6.7344  -6.7243  -6.7172  -6.7083  -6.6972  -6.6864  -6.6816
    -6.6744  -6.6609  -6.6526  -6.6381  -6.6274  -6.6213  -6.6080  -6.6025
    -6.5984  -6.5903  -6.5889  -6.5841  -6.5565  -6.5541  -6.5339  -6.5154
    -6.5059  -6.4926  -6.4863  -6.4815  -6.4787  -6.4690  -6.4535  -6.4489
    -6.4485  -6.4359  -6.4326  -6.4207  -6.4073  -6.4025  -6.3889  -6.3798
    -6.3743  -6.3557  -6.3509  -6.3469  -6.3297  -6.3204  -6.3065  -6.2977
    -6.2832  -6.2802  -6.2669  -6.2546  -6.2469  -6.2398  -6.2258  -6.2203
    -6.2130  -6.1940  -6.1814  -6.1764  -6.1666  -6.1438  -6.1419  -6.1087
    -6.0983  -6.0844  -6.0770  -6.0630  -6.0578  -6.0367  -6.0336  -6.0118
    -5.9950  -5.9881  -5.9740  -5.9565  -5.9512  -5.9406  -5.9396  -5.9256
    -5.9173  -5.9082  -5.8862  -5.8794  -5.8675  -5.8477  -5.8432  -5.8393
    -5.8286  -5.8121  -5.7970  -5.7826  -5.7765  -5.7681  -5.7469  -5.7286
    -5.7261  -5.7208  -5.7174  -5.7017  -5.6871  -5.6836  -5.6770  -5.6542
    -5.6499  -5.6281  -5.6072  -5.6066  -5.6001  -5.5864  -5.5741  -5.5676
    -5.5440  -5.5177  -5.4972  -5.4802  -5.4673  -5.4567  -5.4476  -5.4382
    -5.4103  -5.3971  -5.3900  -5.3762  -5.3447  -5.3406  -5.3370  -5.3344
    -5.3269  -5.3146  -5.2787  -5.2682  -5.2522  -5.2321  -5.2203  -5.2110
    -5.1727  -5.1541  -5.1405  -5.1140  -5.0715  -5.0653  -5.0543  -5.0316
    -5.0062  -4.9704  -4.8746  -4.8557  -4.8415  -4.8392  -4.8286  -4.8144
    -4.7648  -4.7512  -4.7259  -4.7153  -4.6863  -4.6652  -4.6109  -4.6055
    -4.5870  -4.5091  -4.4827  -4.4603  -4.4553  -4.4486  -4.4418  -4.4285
    -4.3452  -4.2543  -4.2091  -4.2052  -4.1464  -4.1102  -4.0486  -4.0401
    -4.0320  -4.0196  -4.0123  -3.9761  -3.9591  -3.9371  -3.9229  -3.9138
    -3.9039  -3.8975  -3.8867  -3.8528  -3.8504  -3.8442  -3.8337  -3.8279
    -3.8247  -3.8198  -3.8134  -3.8050  -3.8012  -3.7990  -3.7905  -3.7874
    -3.7833  -3.7793  -3.7644  -3.7494  -3.7435  -3.7367  -3.7271  -3.7231
    -3.7135  -3.7125  -3.6806  -3.6688  -3.6514  -3.6326  -3.6322  -3.6188
    -3.5356  -3.4523  -3.3923  -3.3462  -3.3180  -3.2863  -3.1856  -3.1115
    -2.7402  -2.6277  -2.2178  -1.9889  -1.5611  -0.6277  -0.6171  -0.4721
    -0.4246  -0.4095  -0.2719  -0.2511  -0.1718  -0.1106  -0.0298  -0.0010
     0.0411   0.1525   0.2476   0.3338   0.3878   0.4663   0.5342   0.6261
     0.6775   0.7091   0.7380   0.7702   0.8274   0.8781   0.9378   0.9613
     0.9808   1.0231   1.0586   1.0959   1.1381   1.1478   1.2044   1.2123
     1.2440   1.2449   1.2794   1.3067   1.3407   1.3647   1.3744   1.3935
     1.4201   1.4414   1.4537   1.4866   1.4929   1.5277   1.5597   1.5845
     1.6149   1.6208   1.6216   1.6473   1.6496   1.6869   1.7029   1.7374
     1.7400   1.7453   1.7694   1.7970   1.8267   1.8389   1.8654   1.8750
     1.8942   1.9025   1.9185   1.9321   1.9402   1.9674   1.9792   1.9897
     2.0051   2.0387   2.0488   2.0647   2.0709   2.0758   2.0921   2.1051
     2.1090   2.1149   2.1300   2.1321   2.1553   2.1645   2.1724   2.1782
     2.1825   2.2033   2.2149   2.2238   2.2309   2.2452   2.2631   2.2723
     2.2861   2.3024   2.3171   2.3233   2.3316   2.3404   2.3510   2.3558
     2.3721   2.3890   2.3994   2.4131   2.4412   2.4517   2.4631   2.4682
     2.4826   2.4884   2.4980   2.5060   2.5078   2.5174   2.5262   2.5299
     2.5395   2.5490   2.5572   2.5714   2.5808   2.5967   2.6084   2.6249
     2.6294   2.6388   2.6454   2.6499   2.6611   2.6697   2.6770   2.6881
     2.6969   2.7093   2.7143   2.7147   2.7242   2.7321   2.7637   2.7694
     2.7775   2.7823   2.7927   2.7990   2.8070   2.8159   2.8280   2.8390
     2.8521   2.8590   2.8665   2.8738   2.8852   2.8922   2.9068   2.9107
     2.9212   2.9332   2.9450

     the Fermi energy is    -3.6874 ev

!    total energy              =  -11682.10831667 Ry
     estimated scf accuracy    <          6.8E-09 Ry
     smearing contrib. (-TS)   =      -0.11107978 Ry
     internal energy E=F+TS    =  -11681.99723689 Ry

     The total energy is F=E-TS. E is the sum of the following terms:
     one-electron contribution = -354890.88890424 Ry
     hartree contribution      =  177908.42660904 Ry
     xc contribution           =   -2470.90023753 Ry
     ewald contribution        =  170131.06956777 Ry
     one-center paw contrib.   =   -2359.70427193 Ry

     convergence has been achieved in 294 iterations

     negative rho (up, down):  6.042E-02 0.000E+00

     Forces acting on atoms (cartesian axes, Ry/au):

     atom    1 type  1   force =     0.01198348    0.01352703    0.05502922
     atom    2 type  1   force =     0.02840466    0.02471157   -0.00052188
     atom    3 type  1   force =     0.00761410    0.00107865   -0.00349911
     atom    4 type  1   force =    -0.01246521   -0.01523194   -0.01031508
     atom    5 type  1   force =     0.01477552   -0.02240200   -0.02714995
     atom    6 type  1   force =     0.00353807   -0.00144288    0.00441534
     atom    7 type  1   force =    -0.00855792    0.01201410    0.01160120
     atom    8 type  1   force =    -0.01212927   -0.03103810    0.00331363
     atom    9 type  1   force =    -0.00149466    0.00642096    0.01347159
     atom   10 type  1   force =     0.01827628   -0.00173390    0.01752709
     atom   11 type  1   force =    -0.01122177   -0.00524635   -0.01233504
     atom   12 type  2   force =     0.00698696    0.12279884   -0.04037807
     atom   13 type  2   force =     0.13700472    0.10111118   -0.00130923
     atom   14 type  2   force =     0.08061645    0.03199013   -0.06292519
     atom   15 type  2   force =     0.14642446   -0.03948944   -0.15268393
     atom   16 type  2   force =     0.02151454    0.03840520    0.04014621
     atom   17 type  2   force =     0.15429735    0.01488545    0.25423630
     atom   18 type  2   force =    -0.01245752   -0.04667948   -0.04951197
     atom   19 type  2   force =    -0.01078871    0.03868581   -0.10072592
     atom   20 type  2   force =    -0.02587438   -0.01331028   -0.04185736
     atom   21 type  2   force =    -0.05465508    0.13497550   -0.03943230
     atom   22 type  2   force =     0.03590025   -0.13328369    0.09279709
     atom   23 type  2   force =    -0.03935355   -0.06826647   -0.05873137
     atom   24 type  2   force =     0.03246415    0.02646573    0.01007425
     atom   25 type  2   force =     0.06547153    0.00667847    0.07195609
     atom   26 type  2   force =    -0.01660900   -0.00971577   -0.01115549
     atom   27 type  2   force =     0.04174962    0.11808282   -0.07355670
     atom   28 type  2   force =    -0.00195474   -0.05838223   -0.01145513
     atom   29 type  2   force =    -0.03142110   -0.05047208    0.08149572
     atom   30 type  2   force =     0.03235830   -0.03168491   -0.03950874
     atom   31 type  2   force =     0.03576194    0.02203818    0.00215252
     atom   32 type  2   force =    -0.00990904   -0.06578350    0.08799674
     atom   33 type  2   force =    -0.05571590    0.01799858   -0.05551979
     atom   34 type  2   force =     0.06103559   -0.02691675   -0.02233536
     atom   35 type  3   force =    -0.01333614   -0.07804324    0.00314956
     atom   36 type  3   force =    -0.16414297    0.08787903   -0.04850960
     atom   37 type  3   force =    -0.06764120    0.03585210   -0.01401108
     atom   38 type  3   force =    -0.05432692   -0.00011534   -0.00935907
     atom   39 type  3   force =     0.07412536    0.00716337    0.01035047
     atom   40 type  3   force =     0.08660680    0.02281996   -0.04332517
     atom   41 type  3   force =    -0.10887320   -0.09033538   -0.13250809
     atom   42 type  3   force =     0.01230680   -0.06063618    0.06454302
     atom   43 type  3   force =     0.01842216   -0.02238139   -0.04845053
     atom   44 type  3   force =     0.06109751    0.10569963    0.04114545
     atom   45 type  3   force =    -0.03200371   -0.00098706   -0.03161639
     atom   46 type  3   force =    -0.03607721    0.12400790    0.05994969
     atom   47 type  3   force =    -0.05598894    0.00760806   -0.14723006
     atom   48 type  3   force =    -0.02873470   -0.12200340   -0.13762254
     atom   49 type  3   force =     0.06192505    0.18244424    0.05225673
     atom   50 type  3   force =     0.04362959   -0.02224093   -0.09784556
     atom   51 type  3   force =    -0.01921274    0.04789234    0.07049289
     atom   52 type  3   force =    -0.12126100   -0.10602694    0.11967594
     atom   53 type  3   force =    -0.12312740   -0.10981419   -0.05500855
     atom   54 type  3   force =    -0.03661594   -0.02306393    0.10073169
     atom   55 type  3   force =    -0.15016984    0.03115478    0.03094269
     atom   56 type  3   force =    -0.02253129    0.01129318    0.12181171
     atom   57 type  3   force =     0.00706637   -0.09507406   -0.04895930
     atom   58 type  3   force =     0.06050977   -0.00825320    0.04787616
     atom   59 type  3   force =    -0.03555840   -0.01079048    0.03876457
     atom   60 type  3   force =     0.07905929   -0.07456056   -0.00360577
     atom   61 type  3   force =     0.01537695    0.19123900    0.03552410
     atom   62 type  3   force =    -0.01924630   -0.01655583   -0.00622030
     atom   63 type  3   force =     0.01628609    0.01194023   -0.00645770
     atom   64 type  3   force =     0.00305921    0.05907120    0.08268425
     atom   65 type  3   force =    -0.00850437    0.02325254    0.02052346
     atom   66 type  3   force =    -0.01586907    0.00339326   -0.01874865
     atom   67 type  3   force =     0.03114839    0.00050432    0.10238633
     atom   68 type  3   force =    -0.06506161   -0.03466264    0.07987177
     atom   69 type  3   force =     0.04501574    0.03719919    0.03189362
     atom   70 type  3   force =    -0.05032774   -0.06708880   -0.05576140
     atom   71 type  3   force =     0.04856404   -0.03740657    0.05234281
     atom   72 type  3   force =     0.01421823    0.11140414    0.19920455
     atom   73 type  3   force =    -0.07871375    0.05108388   -0.07639882
     atom   74 type  3   force =     0.00524509   -0.06456447   -0.04793964
     atom   75 type  3   force =    -0.06318665    0.00866070   -0.00233678
     atom   76 type  3   force =     0.04450697   -0.10611720   -0.06059872
     atom   77 type  3   force =    -0.03077049    0.07733908    0.03341878
     atom   78 type  3   force =    -0.09864987   -0.02066723   -0.06892924
     atom   79 type  3   force =    -0.00395967   -0.04283493    0.03501836
     atom   80 type  3   force =    -0.03222235    0.03947760   -0.00566459
     atom   81 type  3   force =     0.03040183    0.01868262   -0.03957451
     atom   82 type  3   force =    -0.04205160    0.01729178   -0.05458230
     atom   83 type  3   force =    -0.05136697    0.09468501    0.02421421
     atom   84 type  3   force =    -0.02494566    0.04022187   -0.04060966
     atom   85 type  3   force =    -0.01134260   -0.09866767    0.07699939
     atom   86 type  3   force =    -0.02819097   -0.07917316   -0.10461622
     atom   87 type  3   force =     0.02207997   -0.00716658   -0.06795481
     atom   88 type  3   force =    -0.00063236    0.05376424   -0.11884588
     atom   89 type  3   force =    -0.04837434   -0.02070158    0.06496276
     atom   90 type  3   force =     0.05357009   -0.04782149   -0.04637535
     atom   91 type  3   force =     0.06647979    0.04065608   -0.01539401
     atom   92 type  3   force =    -0.00909528   -0.00578416   -0.02090931
     atom   93 type  3   force =    -0.08709200   -0.10492019   -0.00533832
     atom   94 type  3   force =     0.07174890    0.08985390    0.05018279
     atom   95 type  3   force =    -0.01090932   -0.01083510   -0.06937298
     atom   96 type  3   force =    -0.09371112   -0.01180666    0.15325538
     atom   97 type  3   force =    -0.02817111   -0.04657072   -0.00176936
     atom   98 type  3   force =     0.10425199    0.01091378    0.09545150
     atom   99 type  3   force =    -0.05542027   -0.00676309    0.03646931
     atom  100 type  3   force =     0.02261018   -0.07810648    0.07966498
     atom  101 type  3   force =    -0.06017428    0.02729124   -0.01092565
     atom  102 type  3   force =     0.03048254    0.01737312    0.03134452
     atom  103 type  3   force =     0.04700382    0.03117310    0.09740245
     atom  104 type  3   force =    -0.08251568   -0.07724468   -0.00516548
     atom  105 type  3   force =     0.02907824    0.05418366   -0.00667819
     atom  106 type  3   force =     0.03808954    0.11415381   -0.01558053
     atom  107 type  3   force =    -0.02803628   -0.00315866    0.02799418
     atom  108 type  3   force =     0.04687882   -0.00965739    0.04589519
     atom  109 type  3   force =     0.10960583    0.02010968   -0.03973487
     atom  110 type  3   force =     0.13935021    0.00800678   -0.06096354
     atom  111 type  3   force =    -0.02031422   -0.01791573    0.01759565
     atom  112 type  3   force =    -0.06700609    0.09520628   -0.01074666
     atom  113 type  3   force =     0.02127426   -0.01983718   -0.05625835
     atom  114 type  3   force =    -0.03894235    0.02175985    0.08106640
     atom  115 type  3   force =     0.01339714   -0.02838557    0.07649553
     atom  116 type  3   force =     0.08472134    0.00791562   -0.04837690
     atom  117 type  3   force =    -0.06875360    0.00338569    0.03770953
     atom  118 type  3   force =    -0.11852073    0.11186029    0.02564472
     atom  119 type  3   force =     0.07046783   -0.00675215    0.03241651
     atom  120 type  3   force =     0.00917484    0.02808407    0.10528782
     atom  121 type  3   force =     0.12981891    0.07610424    0.01615513
     atom  122 type  4   force =     0.03950330    0.01291032    0.02868689
     atom  123 type  4   force =    -0.06148049   -0.03993690   -0.00967231
     atom  124 type  4   force =     0.00364761    0.02429951   -0.04619143
     atom  125 type  4   force =     0.01814089   -0.00575628   -0.00426769
     atom  126 type  4   force =    -0.13130723   -0.14924844   -0.01135477
     atom  127 type  4   force =    -0.09949768   -0.12885836   -0.07370990
     atom  128 type  4   force =     0.01054499   -0.04945986    0.05956397
     atom  129 type  4   force =     0.00890975   -0.06163481   -0.01139726
     atom  130 type  4   force =     0.00883724   -0.02168596    0.00922286
     atom  131 type  4   force =     0.00670296   -0.01823819   -0.01316600
     atom  132 type  4   force =     0.04933031   -0.03836720   -0.01676242
     atom  133 type  4   force =    -0.03659224   -0.05919398    0.03630733
     atom  134 type  4   force =    -0.09349841    0.00758211   -0.04008093
     atom  135 type  4   force =     0.02241912   -0.02687001    0.12458934
     atom  136 type  4   force =     0.01785491   -0.01012554   -0.01832164
     atom  137 type  4   force =     0.05389097    0.04127607   -0.03416191
     atom  138 type  4   force =     0.01582132    0.00196491   -0.01527795
     atom  139 type  4   force =    -0.00676478    0.02800981   -0.02071434
     atom  140 type  4   force =     0.02153851   -0.06866847    0.02201987
     atom  141 type  4   force =     0.05840396   -0.01205232    0.00217365
     atom  142 type  4   force =    -0.10496506   -0.05312303    0.04675959
     atom  143 type  4   force =    -0.15009207   -0.03706956   -0.09749659
     atom  144 type  4   force =    -0.00563760   -0.01755594    0.02994620
     atom  145 type  4   force =    -0.04004902    0.03675218    0.01613128
     atom  146 type  4   force =    -0.02198477    0.01692724   -0.02252570
     atom  147 type  4   force =    -0.13172400   -0.04976114    0.03206853
     atom  148 type  4   force =     0.01366880   -0.02073289   -0.01294085
     atom  149 type  4   force =     0.06869588    0.03543168    0.01729580
     atom  150 type  4   force =    -0.06343598   -0.05299065   -0.01996338
     atom  151 type  4   force =     0.05091449    0.03690559    0.02455789
     atom  152 type  4   force =    -0.05806813    0.02462025    0.01508892
     atom  153 type  4   force =     0.07628080    0.01868327    0.07642261
     atom  154 type  4   force =    -0.09650350    0.00591315    0.00660129
     atom  155 type  4   force =    -0.01257019   -0.01430885   -0.00922059
     atom  156 type  4   force =    -0.05023078    0.04124978   -0.02246785
     atom  157 type  4   force =     0.04244221   -0.01072831   -0.00373181
     atom  158 type  4   force =     0.01338445    0.01212153   -0.02431542
     atom  159 type  4   force =     0.06700607    0.00745933   -0.05894056
     atom  160 type  4   force =     0.03937950   -0.08927912    0.01391426
     atom  161 type  4   force =     0.00298443   -0.02879865    0.07144647
     atom  162 type  4   force =     0.05272909    0.09495979    0.01521036
     atom  163 type  4   force =    -0.01539100    0.05822754   -0.01557196
     atom  164 type  4   force =     0.02449810    0.02902038    0.06695961
     atom  165 type  4   force =    -0.07483896    0.00982529    0.04938482
     atom  166 type  4   force =    -0.00158896   -0.10198199    0.00497764
     atom  167 type  4   force =    -0.03908809   -0.03994973   -0.01511731
     atom  168 type  4   force =     0.01697192   -0.18441706    0.05852517
     atom  169 type  4   force =     0.05237157    0.04497233   -0.09519902
     atom  170 type  4   force =     0.02788745   -0.04779195   -0.03582381
     atom  171 type  4   force =     0.01258380   -0.01692235    0.00344708
     atom  172 type  4   force =    -0.07000181    0.01238349   -0.04382385
     atom  173 type  4   force =    -0.03893619    0.00695961   -0.02539232
     atom  174 type  4   force =     0.05688233    0.08600997    0.01831293
     atom  175 type  4   force =     0.01311685    0.04181404    0.00305007
     atom  176 type  4   force =     0.03788379   -0.00543705    0.02529262
     atom  177 type  4   force =     0.06408306   -0.00447671   -0.00822962
     atom  178 type  4   force =    -0.00366738    0.03662160    0.04552099
     atom  179 type  4   force =    -0.01193545    0.02843667    0.00307092
     atom  180 type  4   force =    -0.05735733    0.00564972   -0.00722133
     atom  181 type  4   force =     0.00000320   -0.00050457    0.09596392
     atom  182 type  4   force =    -0.02451410   -0.06136541    0.05016712
     atom  183 type  4   force =    -0.03320336    0.10697746   -0.05872559
     atom  184 type  4   force =     0.01827239   -0.01126112    0.05177280
     atom  185 type  4   force =     0.04930991   -0.03491174   -0.01729910
     atom  186 type  4   force =    -0.01141122   -0.01728375    0.00171887
     atom  187 type  4   force =    -0.02764785   -0.01187441    0.05041216
     atom  188 type  4   force =    -0.02036104   -0.01785962   -0.04714348
     atom  189 type  4   force =    -0.01980980    0.03518241   -0.00048093
     atom  190 type  4   force =     0.05861019   -0.03610479    0.00664427
     atom  191 type  4   force =    -0.01862261   -0.00332597   -0.00643948
     atom  192 type  4   force =    -0.03514289    0.02414373   -0.03098570
     atom  193 type  4   force =     0.03629267   -0.06467187    0.02190619
     atom  194 type  4   force =    -0.04962136    0.00127703   -0.00628526
     atom  195 type  4   force =    -0.01034783   -0.00594218    0.01822714
     atom  196 type  4   force =     0.00238560   -0.02552201   -0.06107425
     atom  197 type  4   force =     0.00924123    0.01572879   -0.00009251
     atom  198 type  4   force =    -0.03842163    0.04139461   -0.01356916
     atom  199 type  4   force =     0.00810929   -0.02590750    0.00623740
     atom  200 type  4   force =    -0.00958784   -0.03602929    0.05784510
     atom  201 type  4   force =    -0.01077346   -0.04755872   -0.02853152
     atom  202 type  4   force =     0.01616241    0.01501510    0.04157941
     atom  203 type  4   force =    -0.05688035   -0.05914929   -0.10307148
     atom  204 type  4   force =    -0.00238813    0.01816127    0.06244979
     atom  205 type  4   force =     0.01019160    0.07387322   -0.01370501
     atom  206 type  4   force =    -0.04070453   -0.03142835   -0.04466722
     atom  207 type  4   force =    -0.00475575   -0.03031847    0.03542249
     atom  208 type  4   force =    -0.00080621    0.01182001   -0.01008472
     atom  209 type  4   force =    -0.04448675    0.03165226   -0.05083079
     atom  210 type  4   force =    -0.01134580    0.01307339   -0.05117103
     atom  211 type  4   force =    -0.00054825   -0.03485979   -0.05654875
     atom  212 type  4   force =     0.04268591   -0.03963525   -0.03309523
     atom  213 type  4   force =     0.04284881   -0.14884373   -0.08359924
     atom  214 type  4   force =     0.05174638    0.06495277   -0.05766507
     atom  215 type  4   force =    -0.02670123   -0.02921397    0.00518576
     atom  216 type  4   force =    -0.02212658    0.07576889    0.04092077
     atom  217 type  4   force =    -0.02416410    0.03766000   -0.04189326
     atom  218 type  4   force =     0.01492399    0.02516267   -0.00786221
     atom  219 type  4   force =    -0.04400388   -0.04015863   -0.00917904
     atom  220 type  4   force =     0.01257741   -0.04150797    0.02298677
     atom  221 type  4   force =    -0.00425195    0.03039091    0.06496585
     atom  222 type  4   force =     0.10394050   -0.01658204    0.00584647
     atom  223 type  4   force =     0.02174712    0.08581589   -0.05088690
     atom  224 type  4   force =     0.03970301    0.02491964   -0.01336405
     atom  225 type  4   force =     0.06108641    0.04951471   -0.00337903
     atom  226 type  4   force =     0.02008450   -0.02509030    0.02085071
     atom  227 type  4   force =    -0.02258930    0.05201022    0.04183772
     atom  228 type  4   force =     0.00321052   -0.01707663   -0.02722497
     atom  229 type  4   force =     0.01366752    0.00007484    0.05421312
     atom  230 type  4   force =     0.05291201    0.04905086   -0.00149263
     atom  231 type  4   force =     0.04260895   -0.02084641    0.07114062
     atom  232 type  4   force =     0.04275527   -0.06427456   -0.00877782
     atom  233 type  4   force =     0.03887858    0.05820857    0.02899314
     atom  234 type  4   force =    -0.03301272   -0.05979506   -0.11439898
     atom  235 type  4   force =    -0.01906207    0.15893401   -0.01445947
     atom  236 type  4   force =     0.08810567   -0.01638187   -0.04577932
     atom  237 type  4   force =     0.00622015    0.00679020    0.01215359
     atom  238 type  4   force =    -0.01092742   -0.01290613    0.04264544
     atom  239 type  4   force =     0.01918822   -0.03609856    0.00733646
     atom  240 type  4   force =     0.07764043    0.03085179    0.02821855
     atom  241 type  4   force =     0.03122954   -0.01970301   -0.00491265
     atom  242 type  4   force =    -0.20382585   -0.02968487    0.07895679
     atom  243 type  4   force =     0.02977466    0.00103912    0.02047966
     atom  244 type  4   force =    -0.05116836   -0.00159917   -0.04531177
     atom  245 type  4   force =    -0.01910657   -0.02916587   -0.09477027
     atom  246 type  4   force =     0.02444067   -0.00899182   -0.03123203
     atom  247 type  4   force =    -0.00637705   -0.01713317   -0.06720197
     atom  248 type  4   force =    -0.01646548    0.03024955    0.05882412
     atom  249 type  4   force =     0.03809536    0.02612084   -0.06221493
     atom  250 type  4   force =    -0.08196833   -0.01669090    0.00423047
     atom  251 type  4   force =    -0.00779433   -0.00392122   -0.01947578
     atom  252 type  4   force =    -0.07119864    0.01911620   -0.05252981
     atom  253 type  4   force =     0.00126558   -0.04522710   -0.11031276
     atom  254 type  4   force =    -0.09100049    0.01338303   -0.01473783
     atom  255 type  4   force =     0.01625332   -0.01882783    0.02041235
     atom  256 type  4   force =     0.03192113   -0.00804801    0.03526225
     atom  257 type  4   force =     0.02693030   -0.02500581    0.03379579
     atom  258 type  4   force =     0.00067135    0.01268752   -0.02908224
     atom  259 type  4   force =     0.04800322    0.01503316   -0.00891376
     atom  260 type  4   force =    -0.04569554   -0.01157433   -0.06090005
     atom  261 type  4   force =     0.04149998    0.02793557   -0.03942111
     atom  262 type  4   force =    -0.05539843   -0.01090300    0.04589613
     atom  263 type  4   force =     0.09665072   -0.02641946    0.01775182
     atom  264 type  4   force =    -0.04573281    0.04260997   -0.02251280
     atom  265 type  4   force =     0.02488302    0.01511690   -0.03966565
     atom  266 type  4   force =     0.02701192    0.02036552   -0.04800044
     atom  267 type  4   force =     0.07752435   -0.00409645   -0.04289509
     atom  268 type  4   force =     0.02718548   -0.04396384   -0.03137196
     atom  269 type  4   force =    -0.01663189   -0.06669661    0.00511290
     atom  270 type  4   force =    -0.07175165   -0.01325148   -0.02962879
     atom  271 type  4   force =     0.06966282    0.01181602    0.00873361
     atom  272 type  4   force =     0.02761676    0.05489425   -0.01275750
     atom  273 type  4   force =     0.00244900   -0.00629163    0.04773771
     atom  274 type  4   force =    -0.02439439    0.00274423    0.02712520
     atom  275 type  4   force =    -0.01182467   -0.02057553    0.01821531
     atom  276 type  4   force =     0.04365385    0.07912696    0.06967342
     atom  277 type  4   force =     0.02662768   -0.01173881   -0.07655411
     atom  278 type  4   force =    -0.02158655    0.06310080    0.04437388
     atom  279 type  4   force =    -0.01201797   -0.02157640    0.00405856
     atom  280 type  4   force =    -0.02691864    0.05673332    0.00960903
     atom  281 type  4   force =     0.04153456    0.03155003    0.04330473
     atom  282 type  4   force =     0.03673797   -0.05136019    0.01537164
     atom  283 type  4   force =     0.00388937   -0.06522801   -0.03210573
     atom  284 type  4   force =     0.07186018   -0.05371603   -0.03048060
     atom  285 type  4   force =     0.01850881   -0.01658663    0.01461459
     atom  286 type  4   force =    -0.11847789   -0.02982256   -0.06913392
     atom  287 type  4   force =    -0.01621389   -0.00172219    0.04448596
     atom  288 type  4   force =     0.06712471   -0.00381292   -0.05576912
     atom  289 type  4   force =     0.02104716    0.09130250   -0.02689565
     atom  290 type  4   force =     0.10190129   -0.05825955   -0.11028332
     atom  291 type  4   force =    -0.03017439    0.01410416   -0.01573396
     atom  292 type  4   force =    -0.01947685   -0.01130670    0.01437444
     atom  293 type  4   force =    -0.00654562   -0.02629519   -0.04963812
     atom  294 type  4   force =     0.08009326   -0.02996575    0.16784127
     atom  295 type  4   force =    -0.05386122    0.06400939    0.06798783
     atom  296 type  4   force =    -0.05992132    0.01919325    0.03734763
     atom  297 type  4   force =    -0.01779392    0.01402139   -0.02422184
     atom  298 type  4   force =     0.01307864    0.01330484    0.01797621
     atom  299 type  4   force =    -0.06684239   -0.14499446   -0.02687267
     atom  300 type  4   force =    -0.01170343   -0.05288829   -0.03407968
     atom  301 type  4   force =    -0.07376310    0.03966503    0.02584984
     atom  302 type  4   force =     0.00575152    0.12646256    0.11051608
     atom  303 type  4   force =    -0.01420964   -0.02292433   -0.03985698
     atom  304 type  4   force =    -0.03902455   -0.00157035    0.01112102
     atom  305 type  4   force =    -0.03631564   -0.01652283    0.00702521
     atom  306 type  4   force =     0.00811340    0.01576971   -0.05868568
     atom  307 type  4   force =     0.02343087    0.02016457    0.04236948
     atom  308 type  4   force =     0.00972984    0.00088126   -0.05118996
     atom  309 type  4   force =     0.00197364   -0.02058139    0.01392745
     atom  310 type  4   force =     0.09236206   -0.00427126    0.11082223
     atom  311 type  4   force =    -0.03272872   -0.01337264    0.01155291
     atom  312 type  4   force =    -0.02337506    0.02161173    0.01459818
     atom  313 type  4   force =     0.01430785   -0.08720563    0.01946652
     atom  314 type  4   force =    -0.04566810    0.01305240   -0.02393030
     atom  315 type  4   force =    -0.01722506   -0.00382628   -0.02788010
     atom  316 type  4   force =    -0.00559040   -0.00388727    0.01814369
     atom  317 type  4   force =    -0.00176880    0.06900263    0.03999764
     atom  318 type  4   force =     0.04035264    0.00254032   -0.01755002
     atom  319 type  4   force =    -0.02971392   -0.01473300   -0.06110408
     atom  320 type  4   force =     0.04263204   -0.01854074   -0.02674462
     atom  321 type  4   force =    -0.02605314    0.12867473    0.03795602
     atom  322 type  4   force =     0.02389115    0.01092264   -0.06530673
     atom  323 type  4   force =     0.03551476   -0.03558284    0.04989721
     atom  324 type  4   force =     0.05215653    0.00487825   -0.02324208
     atom  325 type  4   force =     0.03440877   -0.02324345   -0.02832688
     atom  326 type  4   force =    -0.00823626    0.11664774    0.05599898
     atom  327 type  4   force =     0.04742920    0.04959600   -0.03978309
     atom  328 type  4   force =     0.02052076    0.00100031   -0.01994724
     atom  329 type  4   force =     0.10558332    0.01069567    0.01855298
     atom  330 type  4   force =     0.02369813   -0.03657269   -0.05447525
     atom  331 type  4   force =     0.03238042    0.04218339   -0.00806995
     atom  332 type  4   force =     0.02197590    0.05072614   -0.01244962
     atom  333 type  4   force =    -0.05389576   -0.05589431    0.02741990
     atom  334 type  4   force =     0.02377542    0.04554186   -0.02794258
     atom  335 type  4   force =     0.06794336    0.02175751   -0.02189565
     atom  336 type  4   force =    -0.03942756   -0.03108344   -0.04391794
     atom  337 type  4   force =    -0.00474334   -0.00473822   -0.02315238
     atom  338 type  4   force =    -0.05726834    0.04317533   -0.01899037
     atom  339 type  5   force =    -0.02046896    0.02373460    0.03466653
     atom  340 type  5   force =     0.00642854   -0.02889957    0.02820434
     atom  341 type  6   force =     0.02468321    0.00338418   -0.00071491
     atom  342 type  6   force =    -0.02451800   -0.00334029    0.00052160
     atom  343 type  6   force =     0.00398665   -0.04095404   -0.00244660
     atom  344 type  6   force =     0.00710396   -0.04061705   -0.00222817
     atom  345 type  6   force =    -0.00686139    0.04071657    0.00277592
     atom  346 type  6   force =    -0.00423331    0.04095700    0.00256116
     atom  347 type  6   force =     0.02809170    0.02147292    0.00063332
     atom  348 type  6   force =    -0.03275620    0.01321901    0.00196496
     atom  349 type  6   force =     0.03284515   -0.01324881   -0.00141714
     atom  350 type  6   force =    -0.02836978   -0.02148519   -0.00040266
     atom  351 type  7   force =     0.00292919    0.00575193    0.00007776
     atom  352 type  7   force =    -0.00420144    0.00478070    0.00021923
     atom  353 type  7   force =     0.00421128   -0.00479062   -0.00055983
     atom  354 type  7   force =    -0.00267508   -0.00570353   -0.00040738
     atom  355 type  7   force =     0.00389668   -0.00324734   -0.00049349
     atom  356 type  7   force =    -0.00286248   -0.00406527   -0.00032837
     atom  357 type  7   force =     0.00291605    0.00420658   -0.00000739
     atom  358 type  7   force =    -0.00386645    0.00318155    0.00011361

     Total force =     1.686410     Total SCF correction =     0.000195


     Computing stress (Cartesian axis) and pressure


     negative rho (up, down):  6.042E-02 0.000E+00
          total   stress  (Ry/bohr**3)                   (kbar)     P=        7.98
   0.00005261   0.00000155  -0.00000302            7.74        0.23       -0.44
   0.00000155   0.00006102   0.00000346            0.23        8.98        0.51
  -0.00000302   0.00000346   0.00004917           -0.44        0.51        7.23


     Writing all to output data dir ./outputs/pwscf.save/ :
     XML data file, charge density, pseudopotentials, collected wavefunctions
 
     init_run     :    145.65s CPU    148.78s WALL (       1 calls)
     electrons    :  83053.85s CPU  84457.82s WALL (       1 calls)
     forces       :     92.86s CPU     95.71s WALL (       1 calls)
     stress       :    350.32s CPU    355.18s WALL (       1 calls)

     Called by init_run:
     wfcinit      :    129.79s CPU    131.62s WALL (       1 calls)
     potinit      :      1.19s CPU      1.29s WALL (       1 calls)
     hinit0       :      1.39s CPU      1.46s WALL (       1 calls)

     Called by electrons:
     c_bands      :  69462.04s CPU  70251.95s WALL (     294 calls)
     sum_band     :  12201.68s CPU  12545.59s WALL (     294 calls)
     v_of_rho     :    135.35s CPU    140.53s WALL (     295 calls)
     newd         :    995.70s CPU   1255.18s WALL (     295 calls)
     PAW_pot      :    166.96s CPU    168.02s WALL (     295 calls)
     mix_rho      :     74.11s CPU     77.01s WALL (     294 calls)

     Called by c_bands:
     init_us_2    :    647.54s CPU    656.42s WALL (     590 calls)
     cegterg      :  68586.09s CPU  69362.41s WALL (     294 calls)

     Called by *egterg:
     cdiaghg      :    973.60s CPU    981.03s WALL (     634 calls)
     h_psi        :  38153.29s CPU  38535.45s WALL (     635 calls)
     s_psi        :  11346.76s CPU  11442.02s WALL (     635 calls)
     g_psi        :     44.85s CPU     45.48s WALL (     340 calls)

     Called by h_psi:
     h_psi:calbec :  11395.98s CPU  11469.85s WALL (     635 calls)
     vloc_psi     :  15342.66s CPU  15496.64s WALL (     635 calls)
                                        0.00s GPU  (     635 calls)
     add_vuspsi   :  11342.44s CPU  11428.25s WALL (     635 calls)

     General routines
     calbec       :  17377.91s CPU  17489.13s WALL (     946 calls)
     fft          :    131.32s CPU    137.23s WALL (    3858 calls)
     ffts         :     12.06s CPU     12.50s WALL (     589 calls)
     fftw         :  14916.70s CPU  15054.10s WALL ( 1658846 calls)
     interpolate  :     16.56s CPU     17.14s WALL (     295 calls)
 
     Parallel routines
 
     PWSCF        :     23h14m CPU     23h39m WALL

 
   This run was terminated on:   1:36: 0  16Mar2026            

=------------------------------------------------------------------------------=
   JOB DONE.
=------------------------------------------------------------------------------=
