Si
 1.0000000000000000
    10.0000000000000000    0.0000000000000000    0.0000000000000000
     0.0000000000000000   10.0000000000000000    0.0000000000000000
     0.0000000000000000    0.0000000000000000   10.0000000000000000
 Si 
  12
Cartesian
  0.0459000000000000  8.1008999999999993  2.0710000000000002
  5.0458999999999996  3.1008999999999998  2.0710000000000002
  9.9541000000000004  1.8991000000000000  7.9290000000000003
  4.9541000000000004  6.8991000000000007  7.9290000000000003
  6.9920999999999998  0.9857000000000000  3.2068000000000003
  1.9921000000000000  5.9857000000000005  3.2068000000000003
  3.0079000000000002  9.0142999999999986  6.7932000000000006
  8.0078999999999994  4.0143000000000004  6.7932000000000006
  6.7376000000000005  8.6174999999999997  3.5289999999999999
  1.7376000000000000  3.6175000000000002  3.5289999999999999
  3.2623999999999995  1.3825000000000001  6.4710000000000001
  8.2623999999999995  6.3825000000000003  6.4710000000000001
