Na B  Si O 
1.0
       10.0000000000         0.0000000000         0.0000000000
        0.0000000000        10.0000000000         0.0000000000
        0.0000000000         0.0000000000        10.0000000000
Si    
12   
Direct
     0.004590000         0.810090000         0.207100000
     0.504590000         0.310090000         0.207100000
     0.995410000         0.189910000         0.792900000
     0.495410000         0.689910000         0.792900000
     0.699210000         0.098570000         0.320680000
     0.199210000         0.598570000         0.320680000
     0.300790000         0.901430000         0.679320000
     0.800790000         0.401430000         0.679320000
     0.673760000         0.861750000         0.352900000
     0.173760000         0.361750000         0.352900000
     0.326240000         0.138250000         0.647100000
     0.826240000         0.638250000         0.647100000