Si
 1.0000000000000000
    10.0000000000000000    0.0000000000000000    0.0000000000000000
     0.0000000000000000   10.0000000000000000    0.0000000000000000
     0.0000000000000000    0.0000000000000000   10.0000000000000000
 Si 
  12
Cartesian
  6.1215333333333319  4.0046333333333326  4.0503666666666653
  6.1215333333333319 -0.9953666666666667 -0.9496333333333333
 10.5451333333333306 -7.3379666666666665 -0.7170333333333340
 10.5451333333333324 -2.3379666666666665  4.2829666666666659
  6.3874666666666648 -3.8114333333333326 -2.1949666666666658
  6.3874666666666657  1.1885666666666668  2.8050333333333333
 10.2791999999999977  0.4780999999999991  5.5282999999999980
 10.2791999999999977 -4.5218999999999978  0.5283000000000004
 11.4130666666666656  1.1464666666666674  0.7334333333333323
  4.7463999999999986 -0.5201999999999998  2.4000999999999997
  5.2535999999999978 -4.4797999999999982  2.5998999999999999
 11.9202666666666648 -2.8131333333333322  0.9332333333333329
