Si
 1.0000000000000000
    10.0000000000000000    0.0000000000000000    0.0000000000000000
     0.0000000000000000   10.0000000000000000    0.0000000000000000
     0.0000000000000000    0.0000000000000000   10.0000000000000000
 Si 
  12
Cartesian
 -5.4919181438373394  2.5630818561626603  5.7606575249705649
 -0.4919181438373397 -2.4369181438373397  5.7606575249705649
 -1.5791496680281343 -9.6341496680281367  8.3814780987603843
 -6.5791496680281352 -4.6341496680281349  8.3814780987603861
  0.7356499740909794 -5.2707500259090203  5.6411564789500384
 -4.2643500259090210 -0.2707500259090203  5.6411564789500392
 -7.8067177859564545 -1.8003177859564552  8.5009791447809100
 -2.8067177859564554 -6.8003177859564543  8.5009791447809100
 -3.4353298308073255 -1.5554298308073262 10.8576953357975547
 -3.4353298308073259 -1.5554298308073258  3.7866275239320801
 -3.6357379810581492 -5.5156379810581484  3.2844402879333940
 -3.6357379810581487 -5.5156379810581484 10.3555080997988682
