Na B  Si O 
1.0
       10.0000000000         0.0000000000         0.0000000000
        0.0000000000        10.0000000000         0.0000000000
        0.0000000000         0.0000000000        10.0000000000
Si    
36   
Cartesian
 -5.4919181438373394  2.5630818561626603  5.7606575249705649
 -0.4919181438373397 -2.4369181438373397  5.7606575249705649
 -1.5791496680281343 -9.6341496680281367  8.3814780987603843
 -6.5791496680281352 -4.6341496680281349  8.3814780987603861
  0.7356499740909794 -5.2707500259090203  5.6411564789500384
 -4.2643500259090210 -0.2707500259090203  5.6411564789500392
 -7.8067177859564545 -1.8003177859564552  8.5009791447809100
 -2.8067177859564554 -6.8003177859564543  8.5009791447809100
 -3.4353298308073255 -1.5554298308073262 10.8576953357975547
 -3.4353298308073259 -1.5554298308073258  3.7866275239320801
 -3.6357379810581492 -5.5156379810581484  3.2844402879333940
 -3.6357379810581487 -5.5156379810581484 10.3555080997988682
  6.1215333333333319  4.0046333333333326  6.0503666666666653
  6.1215333333333319 -0.9953666666666667 -0.9496333333333333
 10.5451333333333306 -7.3379666666666665 -0.7170333333333340
 10.5451333333333324 -2.3379666666666665  4.2829666666666659
  6.3874666666666648 -3.8114333333333326 -2.1949666666666658
  2.3874666666666657  1.1885666666666668  2.8050333333333333
 10.2791999999999977  0.4780999999999991  5.5282999999999980
 10.2791999999999977 -4.5218999999999978  0.5283000000000004
 11.4130666666666656  1.1464666666666674  0.7334333333333323
  4.7463999999999986 -0.5201999999999998  2.4000999999999997
  5.2535999999999978 -4.4797999999999982  2.5998999999999999
 11.9202666666666648 -2.8131333333333322  0.9332333333333329
  0.0459000000000000  8.1008999999999993  2.0710000000000002
  5.0458999999999996  3.1008999999999998  2.0710000000000002
  9.9541000000000004  1.8991000000000000  7.9290000000000003
  4.9541000000000004  6.8991000000000007  7.9290000000000003
  6.9920999999999998  0.9857000000000000  3.2068000000000003
  1.9921000000000000  5.9857000000000005  3.2068000000000003
  3.0079000000000002  9.0142999999999986  6.7932000000000006
  8.0078999999999994  4.0143000000000004  6.7932000000000006
  8.3276000000000005  8.6174999999999997  3.0289999999999999
  1.7376000000000000  3.6175000000000002  3.5289999999999999
  3.2623999999999995  1.3825000000000001  6.4710000000000001
  8.2623999999999995  6.3825000000000003  6.4710000000000001
