Na B  Si O 
1.0
       10.0000000000         0.0000000000         0.0000000000
        0.0000000000        10.0000000000         0.0000000000
        0.0000000000         0.0000000000        10.0000000000
   Si
   36
Direct
     0.450808186         0.256308186         0.576065752
     0.950808186         0.756308186         0.576065752
     0.842085033         0.036585033         0.838147810
     0.342085033         0.536585033         0.838147810
     0.073564997         0.472924997         0.564115648
     0.573564997         0.972924997         0.564115648
     0.219328221         0.819968221         0.850097914
     0.719328221         0.319968221         0.850097914
     0.656467017         0.844457017         0.085769534
     0.656467017         0.844457017         0.378662752
     0.636426202         0.448436202         0.328444029
     0.636426202         0.448436202         0.035550810
     0.612153333         0.400463333         0.605036667
     0.612153333         0.900463333         0.905036667
     0.054513333         0.266203333         0.928296667
     0.054513333         0.766203333         0.428296667
     0.638746667         0.618856667         0.780503333
     0.238746667         0.118856667         0.280503333
     0.027920000         0.047810000         0.552830000
     0.027920000         0.547810000         0.052830000
     0.141306667         0.114646667         0.073343333
     0.474640000         0.947980000         0.240010000
     0.525360000         0.552020000         0.259990000
     0.192026667         0.718686667         0.093323333
     0.004590000         0.810090000         0.207100000
     0.504590000         0.310090000         0.207100000
     0.995410000         0.189910000         0.792900000
     0.495410000         0.689910000         0.792900000
     0.699210000         0.098570000         0.320680000
     0.199210000         0.598570000         0.320680000
     0.300790000         0.901430000         0.679320000
     0.800790000         0.401430000         0.679320000
     0.832760000         0.861750000         0.302900000
     0.173760000         0.361750000         0.352900000
     0.326240000         0.138250000         0.647100000
     0.826240000         0.638250000         0.647100000
