Na B  Si O  Al
 1.0000000000000000
    18.7797262657589350    0.0000000000000000    0.0000000000000000
     0.0000000000000000   18.7797262657589350    0.0000000000000000
     0.0000000000000000    0.0000000000000000   13.1458083860312538
 Na  B   Si  O   Al 
  11  23  87 217   2
Cartesian
  4.6504743517007245 21.1971679634501804 -8.5890305177117714
  4.4077339676353784  7.4457834744449878 11.9844543016762213
  4.8466077936416321  8.3705672885661340  8.5936853099619928
 19.6904377818654979  0.5218745286884772  8.0797522744631269
 23.1973064235919892  1.5269087446135214  1.6670439763635754
  1.4033010363984584  4.4535424308865830  0.0131564447508090
 20.9080443848389343 14.4584389510684890 12.4621638988609860
 16.9714460774381095  3.6699511353955252  1.3621177855766273
  9.7313561850932029 20.6840885203723133  5.5686896853683621
  7.1431023643482972  0.2633883978419896 -14.4093651791430943
  6.6577499201362240  9.3696228045050969 16.5199204725616937
 -0.8153030207880584 12.3194803013782828 -8.1011742674369493
  7.0969313308658890  5.9911318202237975 25.4104090286020785
 11.9390852387810220 14.5686923933326344  2.6296902292685922
 18.7015309118240793 20.3344571468003892 -0.9374855741016812
 13.1217315252864744 10.4921929959758202  3.6951038440338846
  1.6963335328675884 11.2632071489722119  0.4217448525621204
 17.7672078309068979 28.2031598559549650  5.2192841879593450
  0.0607476964442289  0.9899305336509248 14.7683200804423596
 21.1103127847736296 11.1554718183459176 -5.5562185543053610
  7.8400276672722136 -1.5059993457736816  6.6968657166882055
 -10.0692620656001726 17.1032256852775788 13.7979606104552861
 -9.2094773584855343 13.3203608513306389 -7.4656630454095607
 26.3580510939421870 17.5922193739271364  9.2486462455863681
 13.3949659645363699 -2.7038724673438712  1.0943497688670456
  4.8447428013183051  7.9208776531715923  1.6881487438036200
  3.4982741917900060  4.3922252732612961  3.0067665517195366
  4.0093201352757770  6.8825095964362051  5.8173743834522265
  6.6597644693000149 19.6484946092742554  6.2319143723913699
 15.1781609706883529 -0.9305675028429172 -5.1776226978873261
  9.2303155963485786 28.9361013250314230 14.9065195043589966
 23.4211096460738588 17.7479767894464580  3.9883000084516973
 32.0931353802841599  2.9410749449569717  8.8153746330652396
 27.9046231581554878 22.0580902157019523 16.0064679788887823
 10.7809928541219673  6.9228466532686470  5.6454244280021646
 -0.7504075231704067 -6.5324478380274380 14.5322698562672485
 -22.4799589546191534 17.3474996560496706  3.9721701066389405
 12.3740114424716463  0.2093298237950579  4.3723699972390220
 -5.3559204881880609 15.9978740160152455  8.7950080047390600
 -11.1498158218009351  8.2079976382800837  9.4368343415452198
 -2.5309464981619740 19.1444276119037617  1.6738246616941754
 16.5120030567589779  8.8722149285631069  2.5135895099311325
 18.3309104840553232 15.3830848306356103 15.0782851780171256
  1.7419698526130212 11.2685217041778909  4.8012152652938571
 15.9478156360547896 12.7734690197203857 12.1212408166184638
 14.3639331595250326 18.3283399365254276 12.7815520299155594
 15.5548135982627773 16.9120904340766813 -2.7110903966587281
  4.5087708529536821  4.9119581875078149 20.7212183681696374
  1.4688747796446009 -2.6695086974709281  9.6498236762955223
  3.3690514756779990 10.1816098907347143 -10.7909652614155629
 -13.0601942484891360  5.9244277609010370  3.5330704033290536
 22.2884217012166630 -0.9453394351734483 11.5850089822441262
 10.5119188820359426 -0.1088963346622309 -0.7735876724724229
 24.9458715944771185 -2.5260324568176289 11.2749497903796136
  7.4072922579687193 21.3005035049938449 14.2402252059668033
 10.4342333078994063  7.5682198790313704 10.7283044767591047
 35.4691773636373213 19.7546027076148043  6.6489828041124346
 -1.5439308028132539 15.5241442507837739 -0.7013265902302032
  9.6557681686175592 14.1103194587474281 -3.1373666604330595
 30.4244336450635657 13.7019054769048871  7.5122061435210492
  8.5105410837351343 23.7635935416520567 17.9828967795708472
 17.8972523539397557  3.5888033746484322  7.9393392168873955
 18.4159963710002650 23.6519696246703042 -8.0385172624119754
  3.3995458870908188 10.6266360991743252 10.0348530204084696
  4.2752742734495124 12.4402704156145969 13.7723361304326044
 13.3074374957382684  5.7634188223728113 18.1214787588675748
 14.2230447260936863  9.4061565423448226 13.3847151222690108
  1.1845766702574920  9.4879342520573129 11.4434873116419293
 17.9004210092451537  7.9042760728590640 -16.2310216553239250
 -2.9493186824397073 -6.8714228526456180  3.5481262248555461
 15.5027963527540358  4.7206920450030232  9.6105727256839124
  8.7521116979755416  5.9468679396864639  7.5577012177108323
  6.0434801531637268 21.9657841708186652 22.7606606500043682
 11.3708818047073397 -17.1566605493678495  1.7922356662990189
  8.2679800625391078 -17.2362855419139471 -4.5380025282171434
 -11.6987716412840292 19.3767477115243381  3.6925957817363981
  9.5023769490796628 15.1598882348098254 -10.7644704989677535
 11.3981325375378155  9.4738108345529248  8.7034462227363640
 11.9633418011918771  7.9711179854934029  3.3163160249099808
 12.8747683152401606 13.2928612323060840 -26.9116272811834740
 20.2166187486077362 -1.3167575802483231  0.6369339543933061
 18.5237290247306490  7.6140187938308594 26.7793961584354641
 -9.4825776863590256  4.8553010403741839 10.4658174674159383
 10.7409340253071655 20.9592611484735691 -3.0389446195554815
  6.6976795576529522 13.8772324505411326  9.4867186219800299
 11.0568001004258551 12.1657604371233976 10.3427526383285677
  7.0957369872176690 27.6094025028843824 13.1562093190671394
 14.4711798084964993 14.5464216772693682 16.0962310262569730
 11.9308651902447842  7.3228899217393053  0.4118953332958326
  6.0081916815374612 11.3195648898775669 11.3815230130530249
 12.9603517115718123 10.8683575423634995 19.7587292203754146
  2.0823246794528294 -0.2684699324513259  4.7114325613569914
 18.9435261169490694 33.9933229250735067  4.9221064746588183
 27.5362190591616276 10.9713376918379009  4.5301646041212029
  2.8124573536238757  2.1603167059608137 11.6740741795544700
 17.1267649512653364 17.0402968951779172  6.2135052313790329
  9.5434377849651089 -1.2255263391785969  4.5412882820761178
 18.2795429640066160 17.8045914833014223 -28.2551159638647640
  4.6008629023159253 14.5288879987590924  7.4804460786877200
  4.8231929993401099 14.7249135268277840 15.6985284958042168
  3.0057755080807946 14.2280709757436963  4.8495800461757979
 -1.5198620988608806  5.5866646439728713 11.8544503178777774
 15.9613971320941719 25.8139625366908021  7.7542368535246045
 15.8585227236163995 10.0829362887931833 -2.4450257738084642
 21.0392779088301509 22.0337953822845947 -4.4666737078104575
 11.8719533606448859 11.2783647868407719  1.3265462483576302
 30.4902456781902913 15.9078006123106412 -1.7407639245084012
 14.0869202383627581 21.0383947564609066 13.7722798834378501
  5.1578212361068143  3.8440221551336009 12.5737702215472016
  4.2691182139943633 19.9946855199146363  7.9649668277950942
  1.3695570427030628  7.5910646191275353  4.8895883423002537
 12.4710479540845949 21.7872611993525638  5.9848509958286096
  2.3039292233060364 -5.5739398392286628  9.2250245369801949
 15.7868007978924894  9.9092844144276686  7.3234615952600111
 15.7552518094511242  5.9143279915075491 -9.5282175742427082
  3.2352338380307128 -1.4814754662424874  7.4707682671015414
  1.4338391399865376  2.5831904228648743  3.6707216667386540
  6.1150715618564009 -1.6608068194723569  1.0761047659978404
  7.4289757644074008 13.5682487582621771  3.8683097077019459
  8.7371131248910601 29.1078456778916781  7.4508324470740881
  2.2772626974589376  6.8572525630672008  2.0085592555186405
  0.5543183617174605  8.4154223950485108 -0.6478414903338232
 16.2112331496533457 14.3866419997723654 11.9736314849770569
 14.7709659496774623  9.7629728058983787 -1.2833280258539299
 14.4360492393231734 33.9265562237418763  1.3835936768930348
 23.6874621968583696  4.6238031085355820 16.2477205348544231
  8.2327327600979103  5.1100589168235118  6.4016216173055964
  7.6542487049653580 16.9798894073729372  8.0175342306474793
  5.4304060322340897 18.4438614545560000  0.5463162668630378
 24.4205279592335422  3.3742041720575524 -2.0143371464494746
 -7.5620720690434773  7.9347404684076439  1.8293761726118771
 10.0179091726219944  9.4276859950484191 -5.3135272000834100
 23.9547722812044555 20.7679710408039568  9.0340863011586130
 21.6823111860046005 20.7988858642137870  7.8401571388880500
 21.0299910434553503 10.7481358540286198  6.2270600298391905
 10.9422107732274796 13.5426545805727745  9.0720041857974802
  8.2345725651338650 -4.4686934226216675  9.3793897060174469
  7.1615384110456626 24.3713368071233951 30.4285079729769983
 17.8756166498775890  4.5626411145639540  6.6289025223845730
 12.5237621657175158 -9.0561883184133887  7.6164380546438677
  2.8559649625096251  3.1839360981374538  3.0892738114380918
 13.0049769907076573 14.1026662327765901  3.3396442466543044
  2.6940802603367011 12.3587403658222588  0.3074334978103021
  8.9419406802221939 -1.8246169100901046  5.9410061580458509
  1.1856690127723997 10.8585526977267648 12.2396628631700750
 11.0355905118650188  7.7866076102980912 -0.8870458510996024
 20.7922011343191002 16.7187765609739607  8.2375430367504823
  0.6225219120377855 22.4751135247461775  4.5676862582829072
 -1.0442633271022224 18.4234520040910184  6.7855005520369147
 -8.4777421987732424 10.8447548524830832 14.3669719669535016
 11.4377707427373636 17.3247561037237823 -1.0410114575347211
 24.7598488087299877 14.8879765740710521 23.6061866237698297
 24.3495443209020195 23.2100363472075983  8.6456964568978556
  6.3850090785760720  7.7918548540841961 -2.8620790548647830
 12.3628798760102274 24.5578398818236572  0.7197439327647402
 10.5559450923332836 -4.8021136064358858 -6.7419682641795262
 10.4358487561749005  5.9632625846205150 10.7286965629737452
 25.4014060539954407 12.4547499567768476 10.3206556769650533
 -0.7128566532380215  6.4728423616394011 10.7457088830463849
 28.7579065571269474  3.4708157815770617 10.7684618270893129
 -1.0710202047743353  0.3441806767085355  2.3737713518005163
 27.9029271467576088 -0.8766743725936309 12.7334486716074569
  6.8678839131771099 10.0069296078398082 -1.1833265318166659
  8.2744997768869606 -9.2644476502176030  0.9556177527425248
 -12.8922295712409998  5.3233427875302430 25.7567721831978318
 14.8508413056102118 15.7003409387166162  9.6603956012428789
 13.6890868535790347 17.3427637945259150  0.6848141282754782
  2.7318710929651293  5.4192463958210135  2.4263199144112932
 -11.4274808368037437 -1.7535548798411629 23.6633177970107518
 13.2958119134206836  4.1746118172747124  5.1309359991684387
 -0.4813287919548001 -2.7884909223770267  6.1859195952122574
  2.4979015401655809 10.0680737055767562 14.0756859226003108
 29.7240532939523696 19.5703414125125974  0.5244466008202056
 16.1560298451128865 -7.0986088701920176 24.1066119608144653
 -8.9157076418743895 12.0534714660624775 -8.0582554258681238
 12.3122501294061983 12.5659538815773644 -1.9620067195165993
 17.8012033255606070  8.5545439735243338  1.5764231978864718
 18.2155413391413319  1.4403420332744055  0.3993818675251668
 10.2922771282203609 -3.5902205520318411 11.0063646514651747
  5.9202653023671115 13.9867456262900536  3.5778255909162722
 21.5553527149837194 12.1325174816129948 -2.8636987193414032
 26.7167427830026121  0.1570265784094567  9.3412432118298128
  9.3986024532478538 15.8907245198790701  0.8873762613677251
 14.7701046227365413 15.8186185645302171 17.0172677548096800
 -1.7914538641793003 11.5238770932091708 15.6080775859762948
  2.4579886287209805 -8.3294640082328506  3.6378762043805999
 19.1200020754415085 17.6320402839007286 -0.6431798785968563
  9.8345060701227016  5.9583210182687223 17.8293836620988273
 12.7174477678674460 21.3407083943942624  1.4161588595242682
 29.4251359694251278 14.1237174686787128 -10.4481278696011959
  8.2446456779541126 20.7608964716067739 -0.1039243504161596
 24.0401668473447110 19.8244775598428653  6.6901137093411513
 17.8742292842234036 22.9864130496213441 -0.8360813975646668
  7.6598490089228326  9.6416744069304485 -4.6152279930630327
 12.6484571789414861 -3.8666025471375916 25.4882866737687195
 14.8292489497286191 -13.7578205387951726 15.8076016245773250
 -1.6216297988937214  9.7922792402123200 19.5621933973250428
 11.0453442624436491 26.9490822979101772  4.6664113726309635
 -4.2334098935587070 -7.8081274772320564 16.6564807018215397
  3.8214790596961841 18.5214938632838226  8.3390487478350828
  2.3159552489268345 12.7958578101931462  4.7986268731209094
 -3.8727041198964476 24.9256293052009426  5.0038378419073837
  8.4012297031411389 -8.6450800898557016  5.8768087375380729
 12.2871965208899425  6.3926157391148903 19.1690670778934340
 -3.3154253424415576 13.3585959762459261  3.0930996137210398
 15.2631981523396902  8.3227445598792009 -5.9181989068577447
 -9.1380154580044319 -6.0756478358222958 10.8596656170687282
  3.4490023306247442 -4.1626354571961075 16.5000700556709390
 15.2205289202186691  5.8322131216759310  8.4477528867390728
  5.7166102726133685 18.4981714095821310 16.6535179284732209
  2.4441886786355629 16.8363602449200407 10.7831726813793001
  6.0041424102350209  3.1049724067124913 13.7526352485635126
 -9.9546947495940401  3.6323754112663957 -8.9750097827628377
  5.2762720928645450 16.1735616525816077 -11.0393020869574308
  8.0079813727997955  5.3047157249156545 11.4102458263074720
 12.3940167322419494 12.2804681887764993 -5.9822091898475405
 -4.9772999749427251 -1.3312739968383769  8.2426625766608534
 18.9674511107093728  8.6614575254688475  5.3061184327477831
 11.0650615445081950  3.7158285526239778 19.3710108964620993
  0.9123968273018700 16.2386330945081383 -11.6628793666648249
 18.2782101953512282 15.6298706214470329  3.5116931191918948
  7.5215191636119050  2.7562036831925272  9.4395496654652682
 -2.7020928752725197  7.2882849826128231  2.9594881173963157
  3.5844917063690351 13.7477838143144666 21.6297854081988810
  9.9843566153906167  6.8065257984235119 20.1792277399485123
 12.0334357250756216  0.6412159562815559 16.0155149020752852
  4.7087534145608343 -12.2185540825865377  4.6735599484740957
  9.6508893410068541 -2.4243479453841097 16.6372954088971703
 17.0506765157330236  9.4147143375886486  3.9679704289099180
  8.2546362252407626 22.4176484985275657  1.8604968425573309
  4.3362368310162722 11.4615690429015711 -11.2399562016207337
  6.9203539142554149 -19.3425294485917973  6.1653467485076581
 15.9909087594040500 17.8307823825302165  9.2053800648171009
  0.3521171209254080 27.8390870555166430 10.1199704047321486
 23.3131923278455062  6.4247777556875452 -19.2216088980331321
 11.4518210878495843  8.2888345000995969 -3.4034569568610960
  8.9921348418925096  8.1742909594313886 10.3230584038211859
  2.6205280961016486 -0.6938651143906163  6.1640157222434455
  7.1125545724699322 20.2527204148977482  2.3064872714735398
 -7.8129441881221631 18.1898396869941976 17.9834598346688033
 17.1094704841112737 12.3153463927135522  0.0526344858652901
 20.0689047761957013  1.9601148448690418 12.1346516093869408
 21.5233984432581273  7.5115931186739608 18.9402620322162818
 -10.9557831943043702  7.1028118622990934 21.3767050752913441
 18.9223260398649167 -1.7195589275025618  9.9336683897177114
 15.9298285072783834 18.5699303527259225  0.1862844385326888
 12.7461523087057991  6.5270454277529373 16.7729143070760252
  5.2470085351795319 11.8664584035828415 -0.5160274330494588
 22.0731919547175757 18.1457495635871808  3.7231002393588311
 18.9293709235659193 11.3421886381743828  4.7803589178941710
 31.5493807541653517 -3.9123999979869306  7.8163032676803095
 15.4537321628389392  9.3210831513915959 14.5372843006644921
 21.8839807160357225 10.4285497537303922  8.4809163687222338
 12.2587285365658651 15.6750401960775765 14.9485014605678455
  0.6725323225056745  3.4005137869860342  8.3511097718433511
 10.5894405349824616  0.9107481937769737 -2.0335285512430730
 13.7369733271528780 18.1612770213428760 -8.6694569219495037
  4.8067611373860206 16.7128817829706975  4.8084722811915759
 14.6002009918482827 10.8426790757080269 -6.3415253869110142
 20.4110037752872628 12.2366306945719217  8.1006655537780183
 23.6903002020554219 -1.4795263687214169 11.1110212424927788
 22.4508452618310841  3.2594262735400918 12.5616216077535139
 -0.1752452203680663 14.9262627323752906 25.2769588189538226
  8.5920391909834883 -0.0840438163925775 17.0437964929349057
 -4.2519975277308673  3.7778451438915304  0.2688169297044820
 16.5526198908409015 -1.3494529266873416  4.7404204798690550
  7.6472381989357920 -1.3966637743667558  1.4948068566633517
 15.7745273287386691 16.7852706808196217  7.0914667779640217
 18.4087814899198072 -5.1223015715983076  5.1906575883705566
  7.5681807000089112 11.9324353189105814  3.9469445390869384
  9.8335739715176036 20.5464513280357437  8.7555698814338356
 41.8621551315173193 16.0873522214410904 -5.5278891095747120
  2.5720664596215284  2.8729265198860130 -2.9383569258526330
 -1.9590227190261413  8.7970926468269077 10.8033169391717738
 19.3519710161717420  6.1905141533641803 18.2032188748621984
 -1.3868201883676048  2.1158554523179709 20.5873263583760497
  6.0022064970077951 -4.7448208857492222 -5.0814441659453635
  4.4068738777037639  8.9300506164870956  2.6413051754938661
  0.5808955398574417 18.0635734267107573  4.3650051039804820
  1.9272509162284879  7.6006026824096766 29.6619342619132169
  1.8722419261929830 20.1325352447884107  4.5892561600252701
 18.3974060086917142 -5.0019759044490302  1.8326945222557705
  9.0116147926215486 -13.6682630782993630  8.9098205767441918
  2.7182936191353528 28.2490450061672895 10.9226165069142365
 12.3649613539070469  1.5973623141083171 18.3455526420518495
 15.8638015885581147 24.1444841563063122 -15.2257903294612191
 17.3458115643693809 25.4145408010352156 -0.0782433793361891
 -5.3874456353289197  8.0011805269482430 13.3598606705512015
  3.4092234292712500 19.4391162495418861 -1.6354343024814904
 19.3994097927996805 30.2305054125436996  1.3256301932052217
 16.8985139552534349 -1.9698132567089217 -1.7465779225132285
 24.4444495352193911  8.6261688705732684 13.8264142388202238
 23.7212944960984728 10.5792346939137865 -2.7887741011241816
 -5.5906424457831037  2.8910574508031361 -5.7565973170337319
 10.2365430930403711 21.3136187806969772  2.4947714685169506
 21.8457417666526013  4.5885285437673708  8.2706901860811950
 22.3791240943472722 26.0943459839646117  1.1764188876922721
  1.1566404187989883  0.0824953332773574 14.5408382968556431
 -11.3295483491499631  7.2787518899708337 -0.3995650986637282
  9.1010065355497360 10.1610876021420609 16.3218947256085087
 15.3738799394454766 19.0954366514133902 -5.9243223142597721
 -7.5601536865345507 -7.9580914467657236  9.5043388244441989
  8.1195564287599140 14.3996323851289603  2.6496680111434188
 14.4977296677301588 -1.1751683483097162 -1.7777078703473694
 -4.3715776497651024  3.5684835078486974 22.5376257959810857
 16.8911966782027463  1.2214120837893137 18.2110965000697469
  8.3797410845619940 13.9460810714188490 18.3220704604673834
 17.2993684865333819  7.4397405917182402  8.5595657406661445
  4.5450737461903117  4.1317360629408419 19.2981919047301034
 16.6068416754033024 12.0883855581729183  4.9094179023496558
 12.1748799447285219 12.7436918603524258 13.8128698279823823
  9.0762089838979350 11.8782083826087419  7.6323544820043931
 -4.9553151931353190 19.8534555581455372 12.6899673242958073
 -6.2913498474964067 16.1329672678453697 10.0683909037781643
 -1.6332805269362767  5.1100782109235405  4.1023869160119215
 12.2274960835581421 11.2484860461282246  2.8759936836410644
 -3.5094797981191665 20.4674450837456767  1.5972218940283751
 12.2530101797627200  2.5107572839834185  9.6405395139824321
 12.7405622429743115 10.6965610738058370 18.2442592449160905
 -1.8424418318885896  4.1006435831645280  9.1251725948158633
 -0.6044639721091301 19.4525201981808102 11.2013331818202531
 15.7152170322814193 -8.6552834818785236  9.0153496831116513
 14.4017356372997636 12.8766207645707791 12.6229203644867489
  2.8764361922481778 17.4685179626783835 -13.2017971538442538
  4.0909787062481948 14.1638528197851699  6.0139643103504117
  6.7876017832732405  1.4696651875843094 18.0746551880341713
 26.3918405600260293  1.4392515644534642  7.1700734947595315
  6.2362571488036265 -2.6955472691045768 12.8695168699873950
  1.7170386540741844 15.2605954346333448  5.0818279160875415
  4.5378142240715675 13.9815966270481837 14.2979385086358999
 15.4605654813812166 18.0621314287710000 15.7713953035004586
 19.2007178326824430 -16.7065924637616163  2.5475064650792483
 -17.2261528204556740 14.5424347575107316 -3.4125215679846872
  5.7435393460068660  6.9440037937071226 15.4772864575892406
 13.0345269848921639  9.0965573240106625 -9.7878861806488171
 19.7290783362574196  6.7036862675405757 27.4427056118511885
 13.0640085702218141 10.4342036322724052 13.6711366905058949
 -1.4912648397618262 15.8581950780033711 14.0231352947168837
 17.7922237270688086 -0.0282030511331910 17.2702717783733277
 13.7413822319700571  4.9791132265400382  1.2861273930781723
Cartesian
 -0.0045003781334321  0.0010280771034252 -0.0011860743578322
 -0.0066162928141695  0.0019768367921663  0.0039473682002390
 -0.0004110069628208 -0.0007631956064677 -0.0000032143157984
  0.0023546332121718  0.0023690603301960 -0.0020951967003523
  0.0030779626957240  0.0055920580791603  0.0013294396590194
  0.0020512573231051  0.0025570736877943 -0.0010951996874087
  0.0003288141522580  0.0037279134556310  0.0047887474039277
 -0.0009259505787297  0.0024524604574164  0.0025250441496134
  0.0002815014339872  0.0018955960366471  0.0054004559003274
 -0.0029218253827264  0.0028251036839092  0.0067750942515641
 -0.0041459921574179 -0.0008701270376762  0.0032472528456329
 -0.0110534183172279  0.0020049573875214 -0.0008909560962431
  0.0080610613268440 -0.0029583851359535 -0.0037506757285181
 -0.0013499758907325  0.0025369102888253  0.0032089328653110
  0.0055694460475209  0.0055574198910808  0.0037587040570905
  0.0057835056530613  0.0015385569804281 -0.0085976127533084
 -0.0060599252719169 -0.0114367494647978 -0.0029217147516548
  0.0017136006108680  0.0000184646606586 -0.0057320900552236
 -0.0077718664775967  0.0105133339919027  0.0042392978819921
 -0.0022600097636619  0.0064175665972398  0.0037860450451783
 -0.0050774567648536  0.0067754094475120  0.0048805305107632
  0.0023161292784727  0.0020451146607487  0.0025680063874054
 -0.0015748347561933 -0.0043227036597979  0.0016709386240128
  0.0018255482705568 -0.0014492469869882 -0.0064680683943920
  0.0015332558905185 -0.0014196669761673  0.0010324606225889
  0.0021498189774831  0.0017848830756351 -0.0017369489081332
  0.0004072950060641  0.0061088645747855 -0.0053273938904467
  0.0042839470416902  0.0011727678819191 -0.0134012865906600
  0.0030887886991891  0.0025175171934913  0.0034533876254557
 -0.0057080139314045  0.0002100424167532 -0.0016809681152505
  0.0045688084023027 -0.0009067826306021 -0.0016811952231133
 -0.0028886597667119 -0.0027067235482884  0.0001651235558045
  0.0008747441692021 -0.0016198990929531 -0.0020921133953133
 -0.0037972427017316 -0.0081569344276455 -0.0040080013629323
  0.0023582019347462  0.0030605401606099  0.0039855150934703
  0.0036232351867594 -0.0056581531681394  0.0005519744617839
 -0.0005010401753071  0.0023919127188144  0.0019424142585412
  0.0029176657495645 -0.0043211401766079  0.0034362854748617
 -0.0011370654564684 -0.0014512010243784  0.0070882556490761
  0.0002545586948811 -0.0004726139474769 -0.0017023438056441
  0.0016965295721132 -0.0007753891279361 -0.0029693764965844
 -0.0012077973397290  0.0047311283747274  0.0026045905212145
 -0.0018654731947028 -0.0020835180275174  0.0006692811312521
 -0.0001761026915377  0.0005145851687670 -0.0007088106609630
  0.0058107911505200 -0.0008963635892845  0.0023525679081184
  0.0002301991469061  0.0010938807773076 -0.0001360767632964
  0.0019644307156082 -0.0043205133327504  0.0057261112786151
 -0.0025827614592997  0.0062987146698378 -0.0018436245458532
 -0.0030850161494455  0.0008214639818513  0.0005771227491582
  0.0016712084311459  0.0017146998952110  0.0026472764838927
  0.0038118408924210 -0.0019773435406733  0.0025240420601051
  0.0019792948373115 -0.0011610999507092  0.0058603968259725
  0.0013171558954370 -0.0021108932234793  0.0013371853691748
  0.0006305303175594 -0.0006464163524928  0.0002112136202030
  0.0011924548527233 -0.0004821811389354 -0.0004494331795203
  0.0032426508544737  0.0004681224448580  0.0014592323280420
 -0.0028318027129544 -0.0006104137840668 -0.0025996925717567
  0.0032575889747195  0.0002948918981352 -0.0022404582442953
 -0.0003215317671597 -0.0010587272934331 -0.0018442259957161
 -0.0012459562228392  0.0011831585715079 -0.0027672064058128
  0.0080052806551242 -0.0005726575682383  0.0004672111007914
  0.0013483087890277  0.0050163816245706 -0.0000525651761057
 -0.0073284127684649 -0.0006379077573153 -0.0014794175152858
 -0.0010598450075625 -0.0038718942791316 -0.0008797755449708
  0.0025421925143344  0.0005882337119681 -0.0011126519856720
 -0.0032244120794926  0.0042198650590739 -0.0027484218564584
 -0.0034446576308585 -0.0031845107342990  0.0042447444978941
  0.0021526173564626 -0.0021633990677474  0.0000606442066408
  0.0044081469202550 -0.0049020074995716  0.0072622830235393
 -0.0016971715275132  0.0021426017364131  0.0021206425818404
  0.0026134207347513 -0.0032410004366491  0.0015818935317967
 -0.0009437132086113  0.0022264431845326 -0.0049981667189172
 -0.0013827508622483 -0.0034973862073729 -0.0059124271637481
 -0.0057170429020788  0.0033768188886697  0.0032629495697765
  0.0062089802314691  0.0024771587681953  0.0007175472273721
  0.0020265709346861  0.0018355361333148  0.0001548854783718
  0.0043944121031625  0.0003698340612884  0.0046035416921958
 -0.0011980288597016 -0.0000724144486694 -0.0003851502843016
  0.0004953179725858 -0.0025184941259003 -0.0007703722124647
  0.0010242839055998  0.0017681879873156  0.0009649937217666
  0.0026251455271484 -0.0043345810963091  0.0037113730773118
  0.0017801269892633 -0.0094483326970958 -0.0003664232918716
 -0.0037514303236862 -0.0031804921528519  0.0059489859532254
 -0.0000277659077696  0.0016933862173763 -0.0058334359066745
  0.0039452900811459  0.0015117033165062 -0.0052947084068490
 -0.0019479030314313  0.0025938406337299  0.0004791816712403
  0.0009476405616045 -0.0018861770603601  0.0000875598649502
  0.0047981798892411 -0.0002974729344053 -0.0036760652076057
 -0.0016232961135874 -0.0014852441896768 -0.0019451004393418
 -0.0024356552662724 -0.0029931307711679  0.0021525234270774
 -0.0007460617933555  0.0003324672654918 -0.0015483249143703
 -0.0008932246406283  0.0020972246549476 -0.0002596270742427
 -0.0019586900054555  0.0046647142532176 -0.0016842505703746
 -0.0006414904486019 -0.0055252533988615  0.0050014015854448
 -0.0003235998720227  0.0033535156568345  0.0053141483722435
  0.0003377609405639  0.0027730084828989 -0.0025839338813481
 -0.0002874861083362 -0.0019644863214513 -0.0019072245557720
 -0.0061619252234707 -0.0043871622946321 -0.0008169792378183
 -0.0021700785252536  0.0037440462172155 -0.0020962613853049
  0.0077477407984418 -0.0003529249752521 -0.0006831480743607
  0.0051750082739113 -0.0016298258947375  0.0014145423952956
  0.0065791107127347 -0.0020383108154151 -0.0060596632987850
 -0.0029879307214136 -0.0009596244768109  0.0025800584353423
 -0.0047087230122566 -0.0014381274911234 -0.0002678595040884
  0.0053734105599863 -0.0017019861516980  0.0063264240944173
  0.0027592017539281  0.0008267912487411 -0.0067031232389532
  0.0004846852808258  0.0006129760706350 -0.0012829434743702
 -0.0047639445437812 -0.0033020976753115 -0.0023742803924593
  0.0044206568846071  0.0009085998923491  0.0028088462318529
  0.0033809971295030  0.0043608691024361  0.0005061312031178
 -0.0017477180850047 -0.0013652186183167 -0.0006349267388217
  0.0007657226253910  0.0026732350257948 -0.0001233360905307
 -0.0062824969849474 -0.0028056333834774 -0.0041317685903315
  0.0008942308699349  0.0027514073077884 -0.0022260640371400
 -0.0019938607608957 -0.0041668198598954 -0.0014946765158656
  0.0002024201552750  0.0001551154219242  0.0009856436854727
  0.0017739315139957 -0.0030798832803991 -0.0028973930003679
  0.0030948497968277  0.0037696813775896 -0.0041955147277101
 -0.0017974239817344  0.0026397058237625  0.0035427604264010
 -0.0012747813320147  0.0001209192599311  0.0005223998561422
  0.0048415514035946 -0.0008152783588667 -0.0009934923951552
 -0.0007776659849994 -0.0044997308519276  0.0007009077575368
 -0.0000080830075731 -0.0007683392356709  0.0025667191920461
  0.0001611884577626  0.0056847671198523 -0.0005641113046774
  0.0026224096876648  0.0005215307459728  0.0033403346144373
  0.0014885145753635 -0.0004893958503508  0.0044119019935324
  0.0018862679493710  0.0017683927576545 -0.0012396402107252
 -0.0051479570878325  0.0000712927325873 -0.0030847326834761
 -0.0006334112185374  0.0023377637896147 -0.0024044478510278
  0.0011211959497789  0.0013218731886718 -0.0020098823062323
  0.0004056296160331  0.0045654901619189 -0.0025737370905891
  0.0033067588138562  0.0042229055042176 -0.0014032080089994
  0.0012538787169941  0.0036098688721662 -0.0038407850009760
 -0.0051508928301197 -0.0012218369778781 -0.0035884239841262
  0.0014212038376823  0.0092081674917489  0.0012961292912607
  0.0046014851435612 -0.0032469135068783  0.0047192444031256
 -0.0051729138160687  0.0005233598122534  0.0025226234609077
 -0.0013609626018738  0.0110611064985113 -0.0000664990262110
  0.0052618815458966  0.0019599780732286  0.0055872941731713
  0.0020128125863422  0.0059267839818292  0.0028987819492841
  0.0009293234616774  0.0045809371391111 -0.0026087532532839
  0.0033675312397277  0.0025357291966866  0.0032706170588167
  0.0006987787858097  0.0083214890486648 -0.0034534678805322
 -0.0001060364005665  0.0028196840314021 -0.0068885493450670
 -0.0047159171131218  0.0043363233747874 -0.0030942103196363
 -0.0010735012789378  0.0024038317795981 -0.0016113741444890
  0.0007749421421966  0.0002615720541460 -0.0048117543391166
  0.0007045180248312 -0.0007546803302301 -0.0002836986382051
  0.0023356667196322 -0.0076774312259693 -0.0064401169236853
  0.0032462441816088 -0.0082510090099528  0.0006239331379465
  0.0016625851031677  0.0048408038408721 -0.0013751704777687
 -0.0013234789399716  0.0070988533165422 -0.0024877072589933
 -0.0026406451780295 -0.0058141287045441 -0.0031871643072669
 -0.0006485335894697  0.0004639485338518 -0.0063831588312872
 -0.0030492706095205  0.0034379750384789  0.0020180022737628
 -0.0001717620079462  0.0019731049879989  0.0013291651499811
 -0.0045517413026636 -0.0027225298864826 -0.0007610090524354
  0.0023409992079881  0.0004959936566613  0.0019217958171547
  0.0062625434461789  0.0018469540156516 -0.0009416094899012
  0.0028106391528078 -0.0000245169963605 -0.0003826877304230
  0.0033025135690562 -0.0007456482333619  0.0046855964364979
 -0.0010781827830499  0.0078481219492008  0.0056439365752801
 -0.0004855121576822  0.0031295456825849 -0.0050105709631736
  0.0059173884417311  0.0006743132799231 -0.0023179970269684
 -0.0067119305055601 -0.0003000182775892  0.0016714732647118
 -0.0018810044431765 -0.0010305439826096 -0.0012284840929611
  0.0066517063540115 -0.0039023948766724  0.0015860242998489
 -0.0007449040640128  0.0032519750008327 -0.0071384867869605
 -0.0051836259556021  0.0051626751955898  0.0070442569185184
  0.0056078461837898  0.0015432460401951  0.0015974646695121
  0.0013954978059256 -0.0010874099329951  0.0008446647519028
 -0.0004456009725488  0.0000364064190726 -0.0007439949503263
 -0.0014144658005229  0.0031045623297762  0.0076126344462407
  0.0050234125855781 -0.0032221910937716 -0.0032513996294720
 -0.0011720318495996 -0.0030593793395091 -0.0049924985061565
 -0.0011349838889755  0.0032113347572231 -0.0028867729365939
  0.0039772208386913  0.0011471887541002  0.0006642071636540
  0.0006934153161556  0.0002343668746827  0.0023409370869742
  0.0025479341636070  0.0015899442786640 -0.0048029452764509
  0.0062790217366203  0.0022217690310093  0.0005533405198117
 -0.0040191038290315 -0.0053664421434484  0.0006370142293599
 -0.0033640189055381  0.0011600970729644  0.0005851035158650
 -0.0022001324412456 -0.0017151428347837  0.0024036907546430
  0.0018377476345869 -0.0106641138196221 -0.0074048234074360
  0.0031541333603934 -0.0047975603243170  0.0038314284222523
  0.0015535663710134  0.0019534520049335 -0.0017758742048960
 -0.0017316595420974  0.0045015746579390  0.0047218933896076
 -0.0010329771106718 -0.0080467428714241 -0.0068670881095079
 -0.0063645405325592  0.0027478176551777 -0.0009795654161862
 -0.0052296642605650  0.0019951313261947 -0.0054428247073615
 -0.0054765669215825 -0.0010665053755287 -0.0019143649132347
  0.0034760702661461 -0.0012428253908240  0.0015975001140516
 -0.0017103724871626 -0.0083454627844155 -0.0023853874104210
  0.0057785316990097 -0.0038906118427510 -0.0033633869717809
 -0.0027480080096969  0.0038012303548317 -0.0024961584630852
  0.0002166151472428 -0.0017993523533318  0.0001222947600947
  0.0032156717395088  0.0074591536693447 -0.0062444362991197
  0.0081183635252421 -0.0010600781971432 -0.0034871545213278
 -0.0054553931605293 -0.0022913934966977 -0.0003775094703218
 -0.0085153777187743 -0.0044443579523269 -0.0110041190543218
  0.0008397919390443 -0.0020441415773451  0.0032345005255790
 -0.0041605992586499 -0.0033209752085230  0.0005408362003758
  0.0015554004620071  0.0072451091825702  0.0001813249954693
 -0.0042948924678038 -0.0034404920245540 -0.0014215594096970
 -0.0049403833895886  0.0036386660484905 -0.0041096395588660
 -0.0028571370811155 -0.0006256933061439 -0.0045905702744515
  0.0003601296857134  0.0060304705486685 -0.0067620702580905
 -0.0010467399475831 -0.0051030834032577  0.0065406998643723
 -0.0019237767561076  0.0016674498712079  0.0030069840309385
 -0.0028777464915004 -0.0018489322023443 -0.0009277971606664
  0.0013639159159309 -0.0007110433420109  0.0025013669244682
 -0.0064717353236584  0.0031125564173750  0.0035426000953633
  0.0019652662100728 -0.0026461309062028  0.0037583522150480
  0.0048844455599495  0.0064681269074218 -0.0029395799261248
 -0.0044250758704602  0.0023836117487992 -0.0004897341648569
 -0.0038275922764403  0.0013863268775378 -0.0000677710074181
 -0.0010853399295545 -0.0007482779719271  0.0016819086952555
 -0.0045268530223071 -0.0001548292801572 -0.0010547757779900
 -0.0025563284289312  0.0028708249770402 -0.0038014288091601
  0.0053610079486565 -0.0005638147332027  0.0005020682828224
  0.0037753111372698  0.0032904525045781 -0.0027588205730984
  0.0050871689868232 -0.0012374984878479 -0.0025760135344809
 -0.0043380373135405  0.0023328389852792 -0.0024623735599864
  0.0004361599632570 -0.0007585796269009  0.0025111334871163
  0.0023123927929892 -0.0022600141094446  0.0037799350012795
 -0.0005523542410501 -0.0010827719066915 -0.0026906568447640
 -0.0051611677770755  0.0010457777904058 -0.0004820520116039
 -0.0060653657679294  0.0026433761592271 -0.0002839043101687
 -0.0045142084278151 -0.0019160943556068 -0.0032874801639369
  0.0021112663234552 -0.0024416199924086 -0.0007791807145884
 -0.0011587525543850 -0.0082428531564598  0.0020776655398771
  0.0041162215676169 -0.0078403698366497 -0.0007712498238735
  0.0027121519589947  0.0059049859970471 -0.0057355574848123
 -0.0007313590588660  0.0004930934578735 -0.0005720460082999
  0.0009712813170037  0.0009733900476430  0.0029420997443170
  0.0015306560922713  0.0084880407646177 -0.0023110012898374
 -0.0008329246866358  0.0028237133048684  0.0024417851357257
 -0.0003860748593179  0.0006371625195530  0.0029616619879197
 -0.0016216209014400 -0.0045271836952897  0.0009415393966401
 -0.0029914111575984 -0.0058491900416699 -0.0043603298012401
  0.0040133628375112 -0.0016221478240291 -0.0055295285596384
 -0.0011065744410682  0.0013647937331790  0.0024121390126743
  0.0008062527261636 -0.0009835948314965 -0.0041556725700127
 -0.0000882714650349 -0.0040093493602938 -0.0068519079765361
 -0.0032274625918397  0.0006885350199829  0.0011305963403739
 -0.0111034305538669 -0.0029826711155227  0.0088444082788372
  0.0026884779870221  0.0003124527018274  0.0009500623488496
 -0.0056575343819119  0.0018968221727898  0.0034274907210173
  0.0000512047979861  0.0034819415932374 -0.0031865909385017
  0.0022757109989857 -0.0038503728262137 -0.0060139072095896
  0.0036170875602618  0.0001380004004879 -0.0014407933695585
 -0.0001616533832686 -0.0006344356730060  0.0000599023769142
  0.0028469626883245  0.0025844078588123  0.0036301138691069
  0.0005083193748133  0.0050390947833059  0.0017593132544382
 -0.0003601499958472 -0.0041951385713938 -0.0035403183332286
  0.0071280385407296  0.0048134152072057  0.0026740467271327
 -0.0047838185379101 -0.0068995136600658  0.0022674239068371
 -0.0069352137264930  0.0023315969595881  0.0002620675583213
 -0.0022808730812322  0.0013194353897715 -0.0029707481475205
  0.0017703628883390  0.0048157481260296 -0.0014558332513330
 -0.0043132357968280 -0.0013775711917844  0.0021725722280337
 -0.0010588596048653  0.0003967178816831  0.0030601133694033
 -0.0090381735487071 -0.0025691996723468 -0.0021974002790697
 -0.0010632409169086  0.0058749679589473 -0.0116599186459461
  0.0091283447652927  0.0007623847074535 -0.0007147587008976
  0.0007197553480000  0.0017883470996227 -0.0006056190621556
 -0.0097391497982911 -0.0099959439870699 -0.0012863728424160
 -0.0033741535053627 -0.0053349808931657  0.0031298031455043
 -0.0033473721520909 -0.0026221588147537  0.0001244135327633
 -0.0021914576855232 -0.0016430759918472  0.0014064074550837
 -0.0005447093775032 -0.0039281688220693  0.0019805555879609
  0.0035899577370497 -0.0028905599374122 -0.0019844932831143
  0.0053738973412607  0.0023597496147136 -0.0012118714587506
 -0.0029274678155011 -0.0005416319672620 -0.0011416258280956
  0.0014241167530527  0.0019062051189302 -0.0001732614051433
 -0.0004585950459950 -0.0004297244910420  0.0025764857340137
  0.0013191652528797 -0.0061893222614711  0.0034714150060030
 -0.0014577914492416  0.0030631506268613 -0.0022360329979117
 -0.0026085698086780 -0.0003189047996011 -0.0039526376201860
 -0.0009571958425808  0.0064803122625420  0.0002568067381454
 -0.0014186792399971  0.0001601805917542  0.0000352909000121
  0.0042351115930027  0.0014618251873766  0.0000758689509032
  0.0016694554279662 -0.0054045396421308 -0.0004535908749404
 -0.0034497121288611 -0.0020439814985530 -0.0030070082594128
 -0.0006942866608671 -0.0008818310630180 -0.0018883213430441
  0.0071666086059683 -0.0044730495454021  0.0031255698753356
  0.0008589451696640 -0.0022819170554600 -0.0027768424653736
 -0.0063220000552981  0.0002176670457700  0.0056015532821395
  0.0004796156216437  0.0014024783091390  0.0027338139415690
  0.0015439221421272 -0.0004246840285888  0.0032776554144670
  0.0007367233133124 -0.0104387763221492 -0.0006883167516754
 -0.0009639036686158 -0.0056256284604486  0.0048621390056330
  0.0021101650289000 -0.0061487188249620  0.0028888542568011
  0.0012237981459949  0.0032343885859924  0.0014217535120444
 -0.0015932403754156 -0.0017900935202617  0.0003444101156734
  0.0025144993551077 -0.0084413991600609 -0.0019367386091437
  0.0032737561173916 -0.0003204393492047 -0.0036550757103616
 -0.0017231498410094 -0.0017621143002374 -0.0024359592806045
  0.0027266654415848  0.0033515952648666 -0.0011177503583941
  0.0014079286412068 -0.0021834310679631  0.0062509753410529
 -0.0059011550405251  0.0001023065314712 -0.0005452808705896
 -0.0011986922294654 -0.0018864060148950  0.0009233178421913
 -0.0043791340206484  0.0011892598455494  0.0020952953259669
 -0.0003542198642153 -0.0009651332462304  0.0050765250778215
 -0.0036637095551148 -0.0095861172976241 -0.0009990335470586
  0.0031652731943386  0.0002006309761939  0.0014357083791973
 -0.0055685060228379 -0.0014340999927191 -0.0072939644802804
 -0.0065843582605656  0.0015352863680755  0.0061388462787408
 -0.0015623348161041 -0.0041403690940770 -0.0013427515739682
 -0.0006219027982910 -0.0044785939012899 -0.0042536599361188
 -0.0020874489644088 -0.0022978460541632  0.0033663309149863
 -0.0032527323907413  0.0042121228187381  0.0033145246699733
  0.0017368322905876  0.0005888992839748 -0.0004518820348860
  0.0099323599131703  0.0013246678893291 -0.0014485536194369
  0.0021945703755496 -0.0005041630740473  0.0024551260397342
 -0.0016510491173588 -0.0007212604884631  0.0066377471890127
  0.0016974495154157 -0.0003746455627119 -0.0031694239640443
 -0.0022148311383561 -0.0014045881638100  0.0029398821675457
  0.0046763168260078  0.0016262829170308 -0.0007433258306005
 -0.0044413180894112 -0.0036248564271787 -0.0006783734985345
  0.0021767595272930  0.0021220108911413  0.0072842780234158
 -0.0016372759677005  0.0001781492055898  0.0030058042048781
  0.0002130833745320 -0.0005026419192809  0.0002012857651475
  0.0013791919215095  0.0015117177099334 -0.0023848541318527
 -0.0054235539741741 -0.0009770975374160  0.0001752358364348
 -0.0013579203929944 -0.0040104384027888  0.0059850391725356
  0.0057727913413087  0.0058816697729209  0.0059886474039074
  0.0012574442732236  0.0057665856942402 -0.0026006314918037
  0.0047224768389694  0.0034611304655286  0.0040430870048823
 -0.0068859913941240 -0.0051559398738092  0.0023195930998593
  0.0014300157712274  0.0065851520256018  0.0061264379299292
 -0.0005272436959103 -0.0012745106262394 -0.0021284490532929
 -0.0038635743706950  0.0017484772757974 -0.0078409227042440
  0.0042463878775934 -0.0027288120207301  0.0000765953448323
  0.0037624923693355 -0.0050530469617449 -0.0028869612059700
  0.0006473366306844  0.0028807104588816  0.0013380788068913
 -0.0096683876165242 -0.0078095930310447  0.0053099781230350
  0.0061278896564381  0.0028528003705402  0.0024712796569524
  0.0010770775996497  0.0022830216431998  0.0084570214713217
 -0.0022168451158366  0.0041473825684946 -0.0042024772518265
