C  H 
 1.0000000000000000
    16.7466000000000008    0.0000000000000000    0.0000000000000000
     0.0000000000000000   14.9642999999999997    0.0000000000000000
     0.0000000000000000    0.0000000000000000    5.0002000000000004
 C   H  
  10   8
Cartesian
  8.3733000000000004  8.1898000000000000  2.5002000000000004
  8.3733000000000004  6.7745999999999995  2.5001000000000002
  9.5983000000000001  8.8765999999999998  2.5001000000000002
  9.5983000000000001  6.0877999999999997  2.5002000000000004
  7.1483000000000008  8.8765000000000001  2.5001000000000002
  7.1483000000000008  6.0878999999999994  2.5001000000000002
 10.8060000000000009  8.1781000000000006  2.5000000000000000
 10.8060000000000009  6.7863999999999995  2.5001000000000002
  5.9405999999999999  8.1779999999999990  2.5001000000000002
  5.9405999999999999  6.7863999999999995  2.5000000000000000
  9.6221999999999994  9.9642999999999997  2.5000000000000000
  9.6221999999999994  5.0000000000000000  2.5002000000000004
  7.1242999999999999  9.9642999999999997  2.5002000000000004
  7.1244000000000005  5.0000000000000000  2.5000000000000000
 11.7465000000000011  8.7212999999999994  2.5000000000000000
 11.7466000000000008  6.2431999999999999  2.5000000000000000
  5.0000999999999998  8.7211999999999996  2.5001000000000002
  5.0000000000000000  6.2431999999999999  2.5000000000000000
