Si3 O6
1.0
       14.7448987961         0.0000000000         0.0000000000
       -7.3724493980        12.7694569336         0.0000000000
        0.0000000000         0.0000000000         5.4313011169
   Si    O
   27   54
Cartesian
     1.305141252         2.260570959         0.000000000
    -1.152341878         6.517056600         0.000000000
    -3.609825016        10.773542253         0.000000000
     6.220107512         2.260570959         0.000000000
     3.762624382         6.517056600         0.000000000
     1.305141245        10.773542253         0.000000000
    11.135073788         2.260570959         0.000000000
     8.677590657         6.517056600         0.000000000
     6.220107520        10.773542253         0.000000000
    -1.152341878         1.995914681         3.620867429
    -3.609825016         6.252400334         3.620867429
    -6.067308146        10.508885974         3.620867429
     3.762624382         1.995914681         3.620867429
     1.305141245         6.252400334         3.620867429
    -1.152341886        10.508885974         3.620867429
     8.677590657         1.995914681         3.620867429
     6.220107520         6.252400334         3.620867429
     3.762624389        10.508885974         3.620867429
     2.304683757         0.000000000         1.810433688
    -0.152799374         4.256485640         1.810433688
    -2.610282511         8.512971293         1.810433688
     7.219650032         0.000000000         1.810433688
     4.762166902         4.256485640         1.810433688
     2.304683764         8.512971293         1.810433688
    12.134616292         0.000000000         1.810433688
     9.677133162         4.256485640         1.810433688
     7.219650024         8.512971293         1.810433688
     0.307313011         1.759606865         4.262979256
    -2.150170119         6.016092505         4.262979256
    -4.607653249        10.272578146         4.262979256
     5.222279272         1.759606865         4.262979256
     2.764796141         6.016092505         4.262979256
     0.307313011        10.272578146         4.262979256
    10.137245532         1.759606865         4.262979256
     7.679762402         6.016092505         4.262979256
     5.222279272        10.272578146         4.262979256
     0.779962393         3.642823082         0.642111827
    -1.677520744         7.899308735         0.642111827
    -4.135003874        12.155794376         0.642111827
     5.694928654         3.642823082         0.642111827
     3.237445516         7.899308735         0.642111827
     0.779962386        12.155794376         0.642111827
    10.609894914         3.642823082         0.642111827
     8.152411777         7.899308735         0.642111827
     5.694928647        12.155794376         0.642111827
    -1.087275397         3.110541346         2.452545569
    -3.544758527         7.367026986         2.452545569
    -6.002241658        11.623512626         2.452545569
     3.827690863         3.110541346         2.452545569
     1.370207733         7.367026986         2.452545569
    -1.087275397        11.623512626         2.452545569
     8.742657138         3.110541346         2.452545569
     6.285174008         7.367026986         2.452545569
     3.827690878        11.623512626         2.452545569
     1.370207740         1.145944307         1.168321861
    -1.087275390         5.402429947         1.168321861
    -3.544758520         9.658915588         1.168321861
     6.285174001         1.145944307         1.168321861
     3.827690871         5.402429947         1.168321861
     1.370207740         9.658915588         1.168321861
    11.200140261         1.145944307         1.168321861
     8.742657131         5.402429947         1.168321861
     6.285174001         9.658915588         1.168321861
     3.237445524         0.613662558         2.978755548
     0.779962393         4.870148198         2.978755548
    -1.677520744         9.126633851         2.978755548
     8.152411784         0.613662558         2.978755548
     5.694928654         4.870148198         2.978755548
     3.237445516         9.126633851         2.978755548
    13.067378045         0.613662558         2.978755548
    10.609894914         4.870148198         2.978755548
     8.152411777         9.126633851         2.978755548
     2.764796134         2.496878788         4.789189290
     0.307313004         6.753364428         4.789189290
    -2.150170126        11.009850068         4.789189290
     7.679762409         2.496878788         4.789189290
     5.222279279         6.753364428         4.789189290
     2.764796149        11.009850068         4.789189290
    12.594728670         2.496878788         4.789189290
    10.137245539         6.753364428         4.789189290
     7.679762409        11.009850068         4.789189290
