Si O  C  H 
 1.0000000000000000
    14.7448987999999996    0.0000000000000000    0.0000000000000000
    -7.3724493999999998   12.7694568999999998    0.0000000000000000
     0.0000000000000000    0.0000000000000000   16.9140282742222183
 Si  O   C   H  
  27  54  10   8
Selective dynamics
Cartesian
  1.3051412520000001  2.2605709589999998  5.0000000000000000   F   F   F
 -1.1523418780000005  6.5170565999999992  5.0000000000000000   F   F   F
 -3.6098250159999998 10.7735422529999987  5.0000000000000000   F   F   F
  6.2201075119999993  2.2605709589999998  5.0000000000000000   F   F   F
  3.7626243820000003  6.5170565999999992  5.0000000000000000   F   F   F
  1.3051412449999991 10.7735422529999987  5.0000000000000000   F   F   F
 11.1350737879999997  2.2605709589999998  5.0000000000000000   F   F   F
  8.6775906569999979  6.5170565999999992  5.0000000000000000   F   F   F
  6.2201075199999973 10.7735422529999987  5.0000000000000000   F   F   F
 -1.1523418780000001  1.9959146809999999  8.6208674290000005   T   T   T
 -3.6098250159999998  6.2524003339999998  8.6208674290000005   T   T   T
 -6.0673081460000002 10.5088859740000000  8.6208674290000005   T   T   T
  3.7626243819999994  1.9959146809999999  8.6208674290000005   T   T   T
  1.3051412450000004  6.2524003339999998  8.6208674290000005   T   T   T
 -1.1523418860000008 10.5088859740000000  8.6208674290000005   T   T   T
  8.6775906569999979  1.9959146809999999  8.6208674290000005   T   T   T
  6.2201075199999982  6.2524003339999998  8.6208674290000005   T   T   T
  3.7626243889999995 10.5088859740000000  8.6208674290000005   T   T   T
  2.3046837569999994  0.0000000000000000  6.8104336879999998   T   T   T
 -0.1527993739999995  4.2564856400000002  6.8104336879999998   T   T   T
 -2.6102825110000003  8.5129712929999997  6.8104336879999998   T   T   T
  7.2196500319999997  0.0000000000000000  6.8104336879999998   T   T   T
  4.7621669019999988  4.2564856400000002  6.8104336879999998   T   T   T
  2.3046837640000000  8.5129712929999997  6.8104336879999998   T   T   T
 12.1346162919999987  0.0000000000000000  6.8104336879999998   T   T   T
  9.6771331620000005  4.2564856400000002  6.8104336879999998   T   T   T
  7.2196500239999990  8.5129712929999997  6.8104336879999998   T   T   T
  0.3073130110000000  1.7596068649999999  9.2629792560000013   T   T   T
 -2.1501701190000002  6.0160925049999987  9.2629792560000013   T   T   T
 -4.6076532490000002 10.2725781460000007  9.2629792560000013   T   T   T
  5.2222792719999989  1.7596068649999999  9.2629792560000013   T   T   T
  2.7647961410000002  6.0160925049999987  9.2629792560000013   T   T   T
  0.3073130110000002 10.2725781460000007  9.2629792560000013   T   T   T
 10.1372455319999979  1.7596068649999999  9.2629792560000013   T   T   T
  7.6797624019999979  6.0160925049999987  9.2629792560000013   T   T   T
  5.2222792719999998 10.2725781460000007  9.2629792560000013   T   T   T
  0.7799623929999997  3.6428230820000000  5.6421118269999999   T   T   T
 -1.6775207440000002  7.8993087350000000  5.6421118269999999   T   T   T
 -4.1350038739999997 12.1557943759999993  5.6421118269999999   T   T   T
  5.6949286539999999  3.6428230820000000  5.6421118269999999   T   T   T
  3.2374455159999997  7.8993087350000000  5.6421118269999999   T   T   T
  0.7799623859999995 12.1557943759999993  5.6421118269999999   T   T   T
 10.6098949139999981  3.6428230820000000  5.6421118269999999   T   T   T
  8.1524117769999975  7.8993087350000000  5.6421118269999999   T   T   T
  5.6949286469999993 12.1557943759999993  5.6421118269999999   T   T   T
 -1.0872753970000000  3.1105413460000002  7.4525455689999998   T   T   T
 -3.5447585270000004  7.3670269859999999  7.4525455689999998   T   T   T
 -6.0022416580000000 11.6235126259999983  7.4525455689999998   T   T   T
  3.8276908629999991  3.1105413460000002  7.4525455689999998   T   T   T
  1.3702077329999987  7.3670269859999999  7.4525455689999998   T   T   T
 -1.0872753969999998 11.6235126259999983  7.4525455689999998   T   T   T
  8.7426571379999984  3.1105413460000002  7.4525455689999998   T   T   T
  6.2851740080000011  7.3670269859999999  7.4525455689999998   T   T   T
  3.8276908779999981 11.6235126259999983  7.4525455689999998   T   T   T
  1.3702077399999992  1.1459443069999999  6.1683218609999999   T   T   T
 -1.0872753899999996  5.4024299469999990  6.1683218609999999   T   T   T
 -3.5447585199999998  9.6589155879999993  6.1683218609999999   T   T   T
  6.2851740009999997  1.1459443069999999  6.1683218609999999   T   T   T
  3.8276908710000002  5.4024299469999990  6.1683218609999999   T   T   T
  1.3702077399999986  9.6589155879999993  6.1683218609999999   T   T   T
 11.2001402609999996  1.1459443069999999  6.1683218609999999   T   T   T
  8.7426571309999996  5.4024299469999990  6.1683218609999999   T   T   T
  6.2851740009999988  9.6589155879999993  6.1683218609999999   T   T   T
  3.2374455240000000  0.6136625580000000  7.9787555480000005   T   T   T
  0.7799623929999997  4.8701481979999999  7.9787555480000005   T   T   T
 -1.6775207440000006  9.1266338509999994  7.9787555480000005   T   T   T
  8.1524117839999981  0.6136625580000000  7.9787555480000005   T   T   T
  5.6949286539999990  4.8701481979999999  7.9787555480000005   T   T   T
  3.2374455160000006  9.1266338509999994  7.9787555480000005   T   T   T
 13.0673780449999981  0.6136625580000000  7.9787555480000005   T   T   T
 10.6098949139999998  4.8701481979999999  7.9787555480000005   T   T   T
  8.1524117769999975  9.1266338509999994  7.9787555480000005   T   T   T
  2.7647961339999996  2.4968787880000001  9.7891892899999995   T   T   T
  0.3073130039999992  6.7533644279999994  9.7891892899999995   T   T   T
 -2.1501701260000008 11.0098500680000004  9.7891892899999995   T   T   T
  7.6797624089999994  2.4968787880000001  9.7891892899999995   T   T   T
  5.2222792790000003  6.7533644279999994  9.7891892899999995   T   T   T
  2.7647961489999986 11.0098500680000004  9.7891892899999995   T   T   T
 12.5947286699999985  2.4968787880000001  9.7891892899999995   T   T   T
 10.1372455390000002  6.7533644279999994  9.7891892899999995   T   T   T
  7.6797624089999985 11.0098500680000004  9.7891892899999995   T   T   T
  3.6423378262255466  6.9182140867878505 10.6188331288420486   T   T   T
  3.6423378262255466  5.5030140867878501 10.6187331288420470   T   T   T
  4.8673378262255405  7.6050140867878504 10.6187331288420470   T   T   T
  4.8673378262255405  4.8162140867878502 10.6188331288420486   T   T   T
  2.4173378262255469  7.6049140867878506 10.6187331288420470   T   T   T
  2.4173378262255469  4.8163140867878500 10.6187331288420470   T   T   T
  6.0750378262255413  6.9065140867878512 10.6186331288420472   T   T   T
  6.0750378262255413  5.5148140867878501 10.6187331288420470   T   T   T
  1.2096378262255432  6.9064140867878496 10.6187331288420470   T   T   T
  1.2096378262255432  5.5148140867878501 10.6186331288420472   T   T   T
  4.8912378262255398  8.6927140867878503 10.6186331288420472   T   T   T
  4.8912378262255398  3.7284140867878506 10.6188331288420486   T   T   T
  2.3933378262255460  8.6927140867878503 10.6188331288420486   T   T   T
  2.3934378262255467  3.7284140867878506 10.6186331288420472   T   T   T
  7.0155378262255415  7.4497140867878500 10.6186331288420472   T   T   T
  7.0156378262255412  4.9716140867878504 10.6186331288420472   T   T   T
  0.2691378262255438  7.4496140867878502 10.6187331288420470   T   T   T
  0.2690378262255440  4.9716140867878504 10.6186331288420472   T   T   T
