SiO2 doi 10.17188/1272685
1.0
   2.4574830883638521   -4.2564855677874682    0.0000000000000000
   2.4574830883638521    4.2564855677874682    0.0000000000000000
   0.0000000000000000    0.0000000000000000    5.4313011400000004
Si O
3 6
direct
   0.5310885900000000    0.5310885900000000    0.0000000000000000 
   0.0000000000000000    0.4689114100000000    0.6666666666666661 
   0.4689114100000000    0.0000000000000000    0.3333333333333330 
   0.2692231100000000    0.4133942900000000    0.7848909800000000 
   0.5866057100000001    0.8558288199999990    0.1182243133333330 
   0.1441711800000000    0.7307768900000000    0.4515576466666660 
   0.4133942900000000    0.2692231100000000    0.2151090199999990 
   0.7307768900000000    0.1441711800000000    0.5484423533333330 
   0.8558288199999990    0.5866057100000001    0.8817756866666661 
