B6 O9
1.0
       13.0122509003         0.0000000000         0.0000000000
       -6.5061254501        11.2689398400         0.0000000000
        0.0000000000         0.0000000000         8.3090238571
    B    O
   54   81
Cartesian
     2.016413513         2.268944275         6.439390374
    -0.152294975         6.025257563         6.439390374
    -2.321003456         9.781570839         6.439390374
     6.353830475         2.268944275         6.439390374
     4.185121988         6.025257563         6.439390374
     2.016413507         9.781570839         6.439390374
    10.691247451         2.268944275         6.439390374
     8.522538963         6.025257563         6.439390374
     6.353830482         9.781570839         6.439390374
     3.125465120         0.875575812         3.669715783
     0.956756632         4.631889099         3.669715783
    -1.211951849         8.388202376         3.669715783
     7.462882082         0.875575812         3.669715783
     5.294173594         4.631889099         3.669715783
     3.125465113         8.388202376         3.669715783
    11.800299045         0.875575812         3.669715783
     9.631590557         4.631889099         3.669715783
     7.462882076         8.388202376         3.669715783
     1.364246824         0.611793189         0.900041109
    -0.804461657         4.368106466         0.900041109
    -2.973170139         8.124419742         0.900041109
     5.701663786         0.611793189         0.900041109
     3.532955305         4.368106466         0.900041109
     1.364246824         8.124419742         0.900041109
    10.039080762         0.611793189         0.900041109
     7.870372280         4.368106466         0.900041109
     5.701663799         8.124419742         0.900041109
    -0.804461664         3.144520098         4.639308074
    -2.973170145         6.900833375         4.639308074
    -5.141878626        10.657146651         4.639308074
     3.532955312         3.144520098         4.639308074
     1.364246830         6.900833375         4.639308074
    -0.804461651        10.657146651         4.639308074
     7.870372274         3.144520098         4.639308074
     5.701663793         6.900833375         4.639308074
     3.532955312        10.657146651         4.639308074
     0.956756626         2.880737464         1.869633483
    -1.211951856         6.637050741         1.869633483
    -3.380660343        10.393364028         1.869633483
     5.294173601         2.880737464         1.869633483
     3.125465120         6.637050741         1.869633483
     0.956756632        10.393364028         1.869633483
     9.631590563         2.880737464         1.869633483
     7.462882082         6.637050741         1.869633483
     5.294173594        10.393364028         1.869633483
    -0.152294968         1.487369001         7.408982749
    -2.321003449         5.243682277         7.408982749
    -4.489711937         8.999995565         7.408982749
     4.185121994         1.487369001         7.408982749
     2.016413513         5.243682277         7.408982749
    -0.152294975         8.999995565         7.408982749
     8.522538957         1.487369001         7.408982749
     6.353830475         5.243682277         7.408982749
     4.185121988         8.999995565         7.408982749
    -0.546481792         2.066635297         3.832915813
    -2.715190274         5.822948573         3.832915813
    -4.883898755         9.579261850         3.832915813
     3.790935170         2.066635297         3.832915813
     1.622226689         5.822948573         3.832915813
    -0.546481792         9.579261850         3.832915813
     8.128352145         2.066635297         3.832915813
     5.959643664         5.822948573         3.832915813
     3.790935183         9.579261850         3.832915813
     0.652190716         2.249728524         6.602590405
    -1.516517765         6.006041800         6.602590405
    -3.685226246         9.762355077         6.602590405
     4.989607679         2.249728524         6.602590405
     2.820899198         6.006041800         6.602590405
     0.652190716         9.762355077         6.602590405
     9.327024641         2.249728524         6.602590405
     7.158316160         6.006041800         6.602590405
     4.989607679         9.762355077         6.602590405
    -0.105708917         3.196262743         1.063241222
    -2.274417405         6.952576030         1.063241222
    -4.443125886        10.708889307         1.063241222
     4.231708045         3.196262743         1.063241222
     2.062999557         6.952576030         1.063241222
    -0.105708924        10.708889307         1.063241222
     8.569125007         3.196262743         1.063241222
     6.400416520         6.952576030         1.063241222
     4.231708039        10.708889307         1.063241222
    -1.830969719         3.171332580         5.539349266
    -3.999678206         6.927645867         5.539349266
    -6.168386688        10.683959144         5.539349266
     2.506447244         3.171332580         5.539349266
     0.337738756         6.927645867         5.539349266
    -1.830969725        10.683959144         5.539349266
     6.843864219         3.171332580         5.539349266
     4.675155731         6.927645867         5.539349266
     2.506447250        10.683959144         5.539349266
     3.661939437         0.000000000         2.769674591
     1.493230956         3.756313276         2.769674591
    -0.675477532         7.512626564         2.769674591
     7.999356413         0.000000000         2.769674591
     5.830647932         3.756313276         2.769674591
     3.661939444         7.512626564         2.769674591
    12.336773375         0.000000000         2.769674591
    10.168064894         3.756313276         2.769674591
     7.999356406         7.512626564         2.769674591
     0.337738763         0.584980696         0.000000000
    -1.830969719         4.341293973         0.000000000
    -3.999678206         8.097607260         0.000000000
     4.675155725         0.584980696         0.000000000
     2.506447244         4.341293973         0.000000000
     0.337738756         8.097607260         0.000000000
     9.012572700         0.584980696         0.000000000
     6.843864219         4.341293973         0.000000000
     4.675155731         8.097607260         0.000000000
     2.062999564         0.560050534         4.476108044
    -0.105708917         4.316363810         4.476108044
    -2.274417405         8.072677097         4.476108044
     6.400416526         0.560050534         4.476108044
     4.231708045         4.316363810         4.476108044
     2.062999557         8.072677097         4.476108044
    10.737833489         0.560050534         4.476108044
     8.569125007         4.316363810         4.476108044
     6.400416520         8.072677097         4.476108044
     1.622226695         1.689677990         1.706433453
    -0.546481786         5.445991267         1.706433453
    -2.715190267         9.202304543         1.706433453
     5.959643658         1.689677990         1.706433453
     3.790935176         5.445991267         1.706433453
     1.622226695         9.202304543         1.706433453
    10.297060620         1.689677990         1.706433453
     8.128352139         5.445991267         1.706433453
     5.959643658         9.202304543         1.706433453
     2.820899191         1.506584764         7.245782635
     0.652190710         5.262898040         7.245782635
    -1.516517771         9.019211316         7.245782635
     7.158316166         1.506584764         7.245782635
     4.989607685         5.262898040         7.245782635
     2.820899204         9.019211316         7.245782635
    11.495733129         1.506584764         7.245782635
     9.327024648         5.262898040         7.245782635
     7.158316166         9.019211316         7.245782635
