(written by ASE)

162 atoms
5 atom types

0.0                      12  xlo xhi
0.0                      12  ylo yhi
0.0      15.023781012607149  zlo zhi

Atoms # charge

     1   2   1.0      9.7219263632512529      3.7792754936847124      4.8818618895245196
     2   2   1.0      3.8066957180189154      8.7031667194364246      3.8972860933738374
     3   2   1.0      1.8473226150341844      6.7517873190006998      10.845111732874113
     4   2   1.0      4.6613080317125242      10.881813787883601     0.86500412295657525
     5   2   1.0      11.604055169950698      7.2059935253654706      0.1615803068602657
     6   2   1.0      6.9029871741858484      11.461005967928134       14.66272375269482
     7   2   1.0      7.4742714784984461      3.9379791572327778       2.114074635881988
     8   2   1.0      1.5869084826093747       11.71075814514364       1.760242289164913
     9   5   3.0      5.9657372470153494      11.507453945387303      3.6165779782036598
    10   5   3.0      2.1866764623286969      0.7977541541137616      14.715501015242207
    11   5   3.0      2.6066721368674526      1.9956296153529447      4.3582343053390042
    12   5   3.0      11.128844680782498     0.61373735408389674      3.4676967253309541
    13   5   3.0      6.4239695936126919      8.6319433791708562      14.583997705264963
    14   5   3.0      11.326030634136222      5.9350847335307559      12.588346840017573
    15   5   3.0      0.0100817911793238      11.202335896917596      5.8511726142397666
    16   5   3.0      10.335046404554339       6.459258511901532      10.066261722159441
    17   5   3.0       7.905103324636201      1.3527398327642048      8.6165526362284837
    18   5   3.0      7.2441957763979774     0.89220222794474668      13.704772981213244
    19   5   3.0      7.2834963915876809      9.7194635658144772      1.9233920345890816
    20   3   4.0      3.7320673676649161      9.6466404098949461      7.6548994185504924
    21   3   4.0      3.0929783414726741      2.5185603242815149       9.694563652422767
    22   3   4.0      8.2056679887403661      10.892970780168941      5.6121756259352393
    23   3   4.0      8.7445546896247954      11.212979363869648      8.4798602038638613
    24   3   4.0      2.9765305233618067      7.8200167180532718      13.973555072134191
    25   3   4.0      6.6830018165418243      8.2132092291104577      11.889720419012569
    26   3   4.0      2.3335144496021423      1.4385368823660434      12.204013042942977
    27   3   4.0      3.3536025582939737      7.3649403308436989     0.97328138741658121
    28   3   4.0      9.3779953839978276      5.7480918035531587      7.7233146015156606
    29   3   4.0       10.34511396614209       4.797680446259859      1.8850069428069345
    30   3   4.0      6.6100216226348687      4.9883845873939023       12.00938132522527
    31   3   4.0      10.528291035875249       7.095845680579834      3.7477784814372952
    32   3   4.0      11.417605815485675      8.7204549159815929       14.53692136217796
    33   3   4.0      2.3618638589085355       1.952504241446225      1.5714669295180481
    34   3   4.0      10.813212759294263      1.8720041005677104      8.5808104571805313
    35   3   4.0      6.2959751423931332      6.9151935861391154      1.5589522617732892
    36   3   4.0      6.1237689559968267      3.5442537816029112      9.3240773025799548
    37   3   4.0      9.4559504439623332      4.1751406902626513      13.274364510996893
    38   3   4.0      3.3532999425213359      4.8185917391054591      4.9897513413417727
    39   3   4.0      2.0381880545620348      4.7238863511301705      7.6745724509228443
    40   3   4.0      10.201548139182664       9.569310613199244      1.8735644320222093
    41   3   4.0      3.8768415161498142      11.574674176057863      5.2769000635641063
    42   3   4.0      6.0125080418813122      10.383165041141559      9.7452857306986278
    43   3   4.0      1.3258608210376184      5.2514714553445749       13.47834755811086
    44   3   4.0      4.2518740322670983       5.117959243772253      13.842310295002651
    45   3   4.0      6.3895504350929517      5.7658628360790827      4.3658479383841708
    46   3   4.0      11.923268642984837      1.6663362128342529      5.7958287154112034
    47   3   4.0      1.3880591350987665      6.7141676729872799        3.25249451407793
    48   3   4.0      9.4456164263543894      9.3741200447099384      12.338095861032363
    49   3   4.0      10.653794294939988      9.3030257165492021      9.6073421198314115
    50   3   4.0      1.7204459135636694      7.5612054501520456      8.0192911793536243
    51   3   4.0      11.498247465034662      2.6440036760819332      11.464186564218325
    52   3   4.0      2.1120344748285387      11.457872309948213      9.6686179661638949
    53   3   4.0      11.002209121160167      11.603563324879115      4.0728802345251829
    54   3   4.0      2.5907172120581952      10.688512008644292      12.756362302824112
    55   3   4.0      8.2273650162812437      7.7608208631397009      5.8063038907709883
    56   3   4.0      7.2361574262616131      1.5120382345000813      4.8106502082446942
    57   3   4.0      4.8982769274498779       1.502210874251934      2.9341698264290317
    58   3   4.0      9.0822150414475509      1.7978290081143764      2.3013800190238238
    59   3   4.0      0.1162264532192617       4.108687059226245      2.0637800834607081
    60   4  -2.0      6.6334485073009928      4.4280680026650217      10.524439476170333
    61   4  -2.0      10.615105656227357      7.7221374510980141       9.623359266402348
    62   4  -2.0      8.8237971218351223      4.3590891742519542      7.2336762115160846
    63   4  -2.0      8.1205067424546939      1.6229105538227062      1.0925623267507509
    64   4  -2.0      10.890001802826959      9.5805570206328738     0.42087617923336812
    65   4  -2.0      7.4959533321555263      10.828610991279312      9.3525223767999535
    66   4  -2.0      8.0647507612104299      9.3474591895995012      5.9355588264998493
    67   4  -2.0      9.8077599777560867      3.2643035651134467      2.1095149023433528
    68   4  -2.0      11.742825850458068      1.1115988182843197      11.979245811454392
    69   4  -2.0     0.61655332355846415      4.3148305958348168      7.0742646311120518
    70   4  -2.0      2.7933335701159279      4.7589355588923494      13.175567151178392
    71   4  -2.0      2.2105581094600053      7.5635811498216565      2.1211803213876301
    72   4  -2.0      2.0949750325038545      1.8951593165301588      13.717877037768988
    73   4  -2.0     0.68273956655924684      7.5699003360895185      6.7486972743859148
    74   4  -2.0      2.9223004902876881      6.1941259397251498    0.030666856052195695
    75   4  -2.0      4.8150641769454632      5.3438915197287171        4.55089291176927
    76   4  -2.0      6.9529702823676587      2.1530168741388458      9.2375466234616752
    77   4  -2.0       10.53337199667056        8.61841208376803      13.198706282407445
    78   4  -2.0      2.6313454618502128      10.515078677492429      8.5287257177528826
    79   4  -2.0     0.46911975733352768      7.6566820536704023      4.1894347928686244
    80   4  -2.0       4.186018163022335       6.764720840262747      13.811490882454439
    81   4  -2.0      10.962109315932787      10.562493197641794      2.8830942852716848
    82   4  -2.0     0.23273812603428909      9.8135557807095637      5.7553721608997046
    83   4  -2.0      5.8672939201064818     0.79830068151724531      13.796668792995481
    84   4  -2.0      3.2770230004473269      1.0355058371127996      5.1609008193083596
    85   4  -2.0      3.7604803435684038      10.286123886110927      6.1978151072832084
    86   4  -2.0      8.1578899016138759      11.714325547977058      7.0134949592217488
    87   4  -2.0      4.6149820807816671      3.0262183674626733      9.7325558804177525
    88   4  -2.0      5.4467040000151243      4.6211312216735578      12.971234897861319
    89   4  -2.0      11.224757563036782      11.877098643351669      12.928208791049665
    90   4  -2.0      7.2489365597664239      4.5796554233944917      4.9885823855015072
    91   4  -2.0      6.9261191191291704      11.388641413422825      4.7764904757083109
    92   4  -2.0       3.309805370529102      2.1692771156061754     0.34508887217961748
    93   4  -2.0      8.8014585781686687      10.525636103526192      13.177860543290596
    94   4  -2.0       5.116212201906384      10.059352736849437      8.3860990098005193
    95   4  -2.0      6.4593566320371245      6.6117893990466028      11.850416273222693
    96   4  -2.0      8.4324716321654378      6.8764868784537958       7.184907987459149
    97   4  -2.0      3.9504329043909805      11.670880892491565      12.947274150419334
    98   4  -2.0      2.4723078346626739      3.4889313716066725      8.5493959223117759
    99   4  -2.0     0.28893372912125398      5.0010365454787555      12.329622702975948
   100   4  -2.0     0.58708801962695811      11.772458689535746      9.4322037662111313
   101   4  -2.0      1.3149770549526323      3.1265566931978763      1.6169330626830642
   102   4  -2.0      1.3722682107096202     0.18726115151320216      11.781693710278587
   103   4  -2.0      11.589171759012736     0.43098428701285024      8.6944709272660017
   104   4  -2.0     0.61921973575668376      5.5627213131685336      2.3721205672761703
   105   4  -2.0       5.148919784587882      11.429989228439194      10.612976950891779
   106   4  -2.0      1.6488691078542561      6.8815994323331307      13.596787539895137
   107   4  -2.0      2.3276705582852815      10.950931334513124      11.141058121850673
   108   4  -2.0      3.8359524700735612     0.78123353265121831      12.096898137562542
   109   4  -2.0      0.3189399695331408     0.23859335182896568      8.2238365438259518
   110   4  -2.0      10.291635244324439      8.1446110492681161      2.5502735364153839
   111   4  -2.0      3.2580109562934507      1.7963462941095132      2.9008776420800388
   112   4  -2.0      4.6086292149973582      11.110147901610825      3.9658927873532392
   113   4  -2.0      8.3688727886454224      2.0311116531539493      3.7625607115451709
   114   4  -2.0       3.131031326589766       8.186950084957207      7.6357467283200249
   115   4  -2.0      11.310057700763666      2.6890934857542952      9.9042156112083894
   116   4  -2.0      2.7396872219680053     0.99104194457228123       9.369645447784011
   117   4  -2.0      10.235373807969992     0.72409933581408203      2.4114038094238359
   118   4  -2.0      1.4387297365497154      11.366433856107422      13.567478131739545
   119   4  -2.0      10.850262822141627      6.0935653635931297      7.0638926944752622
   120   4  -2.0      9.4659625607130131      5.7146527328199008       9.271670794957652
   121   4  -2.0      3.0852847124834213        5.07576441065443      6.5087816832790351
   122   4  -2.0      6.1355250495176099      4.2367693518867586      7.8520796329201259
   123   4  -2.0      5.5760536621732193      2.3331826262384285      1.8461366451487846
   124   4  -2.0      9.5734850126835109      5.6125986979997151     0.73586827589826598
   125   4  -2.0      10.189652009464609      3.1410100957107545      12.303077786410858
   126   4  -2.0      6.1684522797420422      8.8594442989684978      13.239239292850161
   127   4  -2.0      7.4033719652675511    0.095937049008309475      8.2025718795036315
   128   4  -2.0      5.8114472911874557      1.9356803883888327      4.2485997756163707
   129   4  -2.0      10.895217913376685      1.2310382164613327      4.6695095557410413
   130   4  -2.0      1.0096388401146577      8.3461663414242082      9.2104613279314052
   131   4  -2.0      9.7022202990280206      9.9178060057225252      8.4755214464532909
   132   4  -2.0      6.0651512505252052      9.0243720416673181      10.660057988421327
   133   4  -2.0      1.1524118188705521      1.6799698924978839      4.1441131191670699
   134   4  -2.0      6.7519881957837766      6.0841501637060924      2.8155487021076016
   135   4  -2.0      2.9676774738776714      9.1690981763642654       13.10027710991066
   136   4  -2.0       7.437273102633287      2.0936289814642448      6.2837791001723478
   137   4  -2.0      6.4521105907059315      10.660149622360411      2.5176135270982525
   138   4  -2.0       8.079526319867437      4.6145276785012861      12.681670370760161
   139   4  -2.0      9.5434143449288413       11.35764585581078      4.8719433971752224
   140   4  -2.0      2.8196666792773168      3.3705397278443368      4.5849385615538214
   141   4  -2.0       2.287488729542984      2.6375859712207887      11.125537788168351
   142   4  -2.0      9.5042162400590637      7.4997945705249984      4.8699410821307936
   143   4  -2.0      1.8338219093045516     0.39598049888311704      1.2234140784398098
   144   4  -2.0       11.23413388412653      2.3471694312277007      7.1000505377998993
   145   4  -2.0      8.6553814749189968      9.9441960942812955      1.7678225159737453
   146   4  -2.0      6.8734444095933664      8.4341414849268155       1.615315204829102
   147   4  -2.0      5.0503157016212468       0.249306001881266      6.8980986299077438
   148   4  -2.0      9.2469976162114165       1.559130880464932       8.708806096139595
   149   4  -2.0      1.8999154528673616      6.0712193723080938      8.4955399506524216
   150   4  -2.0      10.212409030623004      5.5405234677181543      3.2993159825111813
   151   4  -2.0      10.476142722377482      5.4375719907179558      13.526094707505749
   152   4  -2.0      10.862219835128545      5.9436891899725346      11.260200193624074
   153   4  -2.0      4.6930855394568551      7.2205510362796419      1.7763219015469038
   154   4  -2.0      7.8129013121894744     0.35819118398836219      12.556853429807481
   155   4  -2.0      11.909899220211589      4.6367189826486346      1.5638639829928032
   156   4  -2.0      6.3745745939654732      6.0991202658792485     0.19707447625967306
   157   4  -2.0      6.8345019305715766      7.1824326912907521      5.0598924807915155
   158   4  -2.0      8.2688795693645751       8.429712364961631      11.769457563977957
   159   4  -2.0      3.5422415246900694      8.6870000887257994   0.0056788889646127005
   160   4  -2.0      10.121180500810722      9.9849645329089469      11.048453888253722
   161   4  -2.0      2.3806719983535971      5.8723859857812988       4.156012597500867
   162   1   3.0      7.2863262541981078       3.769112893283455      6.6511395761061154
