(written by ASE)

399 atoms
5 atom types

0.0                      12  xlo xhi
0.0                      12  ylo yhi
0.0       37.55945253151787  zlo zhi

Atom Type Labels

1 B
2 Be
3 H
4 He
5 Li

Masses

1      10.809999997219188 # B
2      9.0121830976816675 # Be
3      1.0079999997406976 # H
4      4.0026019989703538 # He
5      6.9399999982147245 # Li

Atoms # charge

     1   2   1.0      3.0817047628356824      6.8678856493504892      30.664496940078969
     2   2   1.0      9.2730702390730961      4.0168368910134795      18.915018421860726
     3   2   1.0      9.7219263632512529      3.7792754936847124      4.8818618895245187
     4   2   1.0      2.9853131982922183       10.02395017872778       24.29748333819408
     5   2   1.0      3.8066957180189158      8.7031667194364246      3.8972860933738374
     6   2   1.0      1.8473226150341848      6.7517873190007007      10.845111732874111
     7   2   1.0      4.9617618057072805      5.1433034487392826      24.240054318650639
     8   2   1.0      4.6613080317125251      10.881813787883601     0.86500412295657536
     9   2   1.0      11.604055169950698      7.2059935253654714      0.1615803068602657
    10   2   1.0      2.4320775431144788      3.3833001647154699      23.441407232041662
    11   2   1.0      9.4993701071311687      8.6111781225334134      33.962048202892078
    12   2   1.0      6.9029871741858484      11.461005967928136       14.66272375269482
    13   2   1.0      7.4742714784984461      3.9379791572327778       2.114074635881988
    14   2   1.0      1.5869084826093749       11.71075814514364       1.760242289164913
    15   5   3.0      5.9657372470153494      11.507453945387303      3.6165779782036598
    16   5   3.0      7.6658265338974658       5.665839383726718      30.778676326078561
    17   5   3.0       7.694355797608031      6.6370812834906605      15.713731356609594
    18   5   3.0      2.1866764623286969      0.7977541541137616      14.715501015242205
    19   5   3.0       2.532230383642744      7.0184045026926443      25.254546693001391
    20   5   3.0      4.0203113652618114      3.5504532202082224      30.281491880971874
    21   5   3.0      10.792453298520725      4.3478331900596849      28.993759723244789
    22   5   3.0      3.6129590964722946    0.099697340030500667      21.551788942578082
    23   5   3.0      10.008541241451413       2.213396108058447      35.134080485807878
    24   5   3.0      5.2354825794514586     0.51530374938039014      31.771415212165707
    25   5   3.0      2.6066721368674526      1.9956296153529449      4.3582343053390051
    26   5   3.0      6.7948743079774774      4.4048146967915534      20.876325458562121
    27   5   3.0      11.128844680782498     0.61373735408389674      3.4676967253309545
    28   5   3.0       10.95828699470484      8.6418443190778866      28.122005696703464
    29   5   3.0      6.4239695936126928      8.6319433791708562      14.583997705264963
    30   5   3.0      9.2928971935673559      10.520440317655739      30.977699194532185
    31   5   3.0     0.84518498821082511      6.9652616083962853      33.216860574263926
    32   5   3.0      3.1404565149347707      6.6239240460685531      33.829270063607467
    33   5   3.0      11.326030634136222      5.9350847335307559      12.588346840017573
    34   5   3.0     0.01008179117932383      11.202335896917596      5.8511726142397675
    35   5   3.0      8.0725738719792854      1.3429660563089691      19.553248276028629
    36   5   3.0      10.335046404554339      6.4592585119015338      10.066261722159441
    37   5   3.0      8.3954108896904263      11.739664128035296      20.134571053621265
    38   5   3.0      7.9051033246362019      1.3527398327642051      8.6165526362284837
    39   5   3.0     0.72460325697808181      6.8090848259440806      17.775421440069817
    40   5   3.0      9.0129152293100638       2.215167701718852      15.338257827057394
    41   5   3.0      7.2441957763979783      0.8922022279447468      13.704772981213244
    42   5   3.0      2.0160262216126279      11.681336869845302      20.439140534618808
    43   5   3.0      4.2837616133278651      6.0470108969824636      18.970984855366218
    44   5   3.0      2.4348840333298756      4.8848776811151087      20.710412158432508
    45   5   3.0      10.169986157838842      8.0474786852253928      22.686993319624108
    46   5   3.0      7.2834963915876818      9.7194635658144772      1.9233920345890818
    47   3   4.0      4.6597282835230489      9.9228049899303166      31.628099445345462
    48   3   4.0      3.7320673676649161      9.6466404098949479      7.6548994185504933
    49   3   4.0      1.0533771403311938      2.9225060793887598      30.332743025705959
    50   3   4.0     0.41853371418678037      11.014343782865179      22.425237381598659
    51   3   4.0      3.0929783414726746      2.5185603242815149       9.694563652422767
    52   3   4.0      8.2056679887403661      10.892970780168943      5.6121756259352393
    53   3   4.0      8.7445546896247954      11.212979363869648      8.4798602038638613
    54   3   4.0      1.1062829792392068      8.2937752295500733      29.121064675951832
    55   3   4.0       8.271944386449853      9.9278896715104796      23.253371599428746
    56   3   4.0     0.37077582164533718      5.4570991662407504       28.68751398534193
    57   3   4.0      2.9765305233618067      7.8200167180532736      13.973555072134189
    58   3   4.0      1.2099527231377889      1.8584320629199322      33.044312128104075
    59   3   4.0       10.01962753433313     0.73637576367038293       17.58767621436396
    60   3   4.0     0.27680421131250926      8.5838399122683029      26.142224107128914
    61   3   4.0      6.6830018165418252      8.2132092291104595      11.889720419012569
    62   3   4.0      3.1958398333138742      2.3894520546856164      19.724858243650715
    63   3   4.0      2.3335144496021423      1.4385368823660434      12.204013042942977
    64   3   4.0      5.6763466193041499      8.7057442722947656      34.382329435262598
    65   3   4.0     0.23548986804051047     0.56452503090199035      28.407391906368719
    66   3   4.0      3.3536025582939741      7.3649403308436998     0.97328138741658121
    67   3   4.0      5.2022830567466949      7.7598099011824644      21.035986857927224
    68   3   4.0      9.3779953839978276      5.7480918035531587      7.7233146015156606
    69   3   4.0       10.34511396614209       4.797680446259859      1.8850069428069347
    70   3   4.0      6.6100216226348696      4.9883845873939023      12.009381325225268
    71   3   4.0      8.0957723439099887     0.35050400706821411      31.123629341243557
    72   3   4.0      5.5358594821725404       9.478465724262394      17.134349227211636
    73   3   4.0      2.6095378407182532      7.0270751745421629      22.392928288388394
    74   3   4.0      10.528291035875249      7.0958456805798358      3.7477784814372956
    75   3   4.0      4.1389775684454841       2.233312269100471      33.897775102728794
    76   3   4.0        11.3973920044513      8.5297927130811715      31.000377208241805
    77   3   4.0      1.2750058417112522      1.6749722075624991      17.325561344062443
    78   3   4.0      11.417605815485675      8.7204549159815929      14.536921362177958
    79   3   4.0      2.3618638589085355       1.952504241446225      1.5714669295180481
    80   3   4.0      7.3005821429047044       6.056120752798174      34.035923687931081
    81   3   4.0      10.151292029394702      4.7255713488186011      33.878230584567753
    82   3   4.0      10.813212759294265      1.8720041005677104      8.5808104571805313
    83   3   4.0      6.2959751423931332      6.9151935861391172      1.5589522617732892
    84   3   4.0      8.3732686093562574      4.0168869187371126      24.542223783097437
    85   3   4.0      11.092846497084391      11.942747699688868      21.230033307442557
    86   3   4.0      1.5908980101799877      10.500224009332081      31.230816145770902
    87   3   4.0      6.1237689559968267       3.544253781602912      9.3240773025799548
    88   3   4.0      9.4559504439623332      4.1751406902626513      13.274364510996893
    89   3   4.0      3.3532999425213363      4.8185917391054591      4.9897513413417727
    90   3   4.0      2.0381880545620348      4.7238863511301714      7.6745724509228443
    91   3   4.0      10.201548139182664       9.569310613199244      1.8735644320222093
    92   3   4.0      3.8768415161498142      11.574674176057863      5.2769000635641063
    93   3   4.0      6.0125080418813139      10.383165041141559      9.7452857306986278
    94   3   4.0      1.3258608210376184      5.2514714553445749       13.47834755811086
    95   3   4.0      4.2518740322670983       5.117959243772253      13.842310295002651
    96   3   4.0      6.3895504350929517      5.7658628360790827      4.3658479383841708
    97   3   4.0      1.4625381926410437     0.40306176546483735      23.262140306338708
    98   3   4.0      11.923268642984837      1.6663362128342531      5.7958287154112034
    99   3   4.0      1.3880591350987665      6.7141676729872808        3.25249451407793
   100   3   4.0      7.5933762538942622      10.793059622385314      35.699602436071039
   101   3   4.0      4.2325712049848967      2.5315454541829454      27.723101788852592
   102   3   4.0      5.3346166145271745      5.0113356908235867      16.530811191938707
   103   3   4.0     0.32266952593149612      4.4089444078693312       16.40329407489611
   104   3   4.0      9.3222984589286071      5.6331329697795178       21.63981601844247
   105   3   4.0      6.0870833289420645      3.0411400642084598      18.493704340114164
   106   3   4.0      11.749052721332415      3.8675103170789868      22.146003927513085
   107   3   4.0      9.4456164263543894      9.3741200447099384      12.338095861032363
   108   3   4.0      8.8518444652497958     0.11752365804915992      25.314810902621474
   109   3   4.0       10.65379429493999      9.3030257165492021      9.6073421198314115
   110   3   4.0      1.7204459135636696      7.5612054501520465      8.0192911793536243
   111   3   4.0      2.2099517738791721      11.860974616803125      17.493926481676226
   112   3   4.0      10.292756266965428      7.5296054482230428      19.470213749904136
   113   3   4.0      3.9259373400664699      8.1072684791608047      27.743677263313039
   114   3   4.0      3.2561314739675935      9.1009908809218469      36.046676588985775
   115   3   4.0       8.088674028381396      9.4234423754137815      18.490730845772706
   116   3   4.0       10.85758762086385     0.88865527652792953      22.789710694998465
   117   3   4.0      2.6777043149162205      8.8820894337086287      16.919469488903584
   118   3   4.0      11.498247465034662      2.6440036760819332      11.464186564218323
   119   3   4.0     0.83644451910713913      11.375520470913472      26.927158105967532
   120   3   4.0      5.6382325257104116      10.659180417801585      27.026563898060921
   121   3   4.0      2.1120344748285387      11.457872309948213      9.6686179661638949
   122   3   4.0      5.0386200470443301      11.849598370468197      24.177857980175251
   123   3   4.0     0.32956321646875408      2.1214013524306776      25.725929426073783
   124   3   4.0      8.2104421593798129      9.5019025213588684      28.447181647757294
   125   3   4.0      11.002209121160167      11.603563324879115      4.0728802345251829
   126   3   4.0      6.0231274270806612      7.7345578652841747      29.695891384045908
   127   3   4.0      2.5907172120581952      10.688512008644292       12.75636230282411
   128   3   4.0      8.2273650162812437      7.7608208631397009      5.8063038907709892
   129   3   4.0     0.15115605336833976      8.7141736105988148      35.436356168116127
   130   3   4.0      7.2333892313839279      2.2727720428248905      22.121966976340811
   131   3   4.0      2.1255116378871759       4.525584558139597      26.547070979748394
   132   3   4.0      10.312607592819971      5.9342979029431753      31.249663451861306
   133   3   4.0      10.498412595762909      6.4529309744683658       16.48394715436303
   134   3   4.0      7.2361574262616131      1.5120382345000813      4.8106502082446934
   135   3   4.0      5.1915484305976394      4.8173172012952916       32.78566435681924
   136   3   4.0      2.1204475485059597      5.4740212107426762      36.407863804991827
   137   3   4.0      4.8982769274498787       1.502210874251934      2.9341698264290317
   138   3   4.0      5.8825017165237687      10.704744692361755      21.652072040261384
   139   3   4.0      8.4283168748839294      3.0192779440059643      29.723236497079348
   140   3   4.0      9.0822150414475527      1.7978290081143764      2.3013800190238238
   141   3   4.0     0.11622645321926173       4.108687059226245      2.0637800834607081
   142   3   4.0      7.0894619391869176      2.3547914833336039      26.863412907133331
   143   4  -2.0      7.1889677949703135        10.3062094004879      27.455447909387978
   144   4  -2.0      6.6334485073009928      4.4280680026650217      10.524439476170333
   145   4  -2.0      11.912762894044015       8.500441405270692      27.092743842039816
   146   4  -2.0      10.615105656227357      7.7221374510980141       9.623359266402348
   147   4  -2.0      11.351511634254187      8.2754105594275735      29.382194549977477
   148   4  -2.0      8.8237971218351223      4.3590891742519542      7.2336762115160838
   149   4  -2.0      6.9962735471567594      1.7899840189412495      18.718295328346553
   150   4  -2.0      8.4080435244523741       10.89924567535591      32.048965568129354
   151   4  -2.0      3.0528601872966972     0.40685554351095676      22.786681514105943
   152   4  -2.0      9.6587889103611513     0.83583212422673825      23.967487822469845
   153   4  -2.0      8.1205067424546939      1.6229105538227062      1.0925623267507512
   154   4  -2.0      10.890001802826959      9.5805570206328756     0.42087617923336812
   155   4  -2.0      7.4959533321555263      10.828610991279314      9.3525223767999517
   156   4  -2.0      3.6640242675095354      7.8758670875110548      21.469473328874102
   157   4  -2.0      1.3206644789161406     0.34477859370984765      32.483430039672754
   158   4  -2.0      7.8619096658922203      4.3851478632704506       30.27375797295695
   159   4  -2.0      8.0647507612104299      9.3474591895995029      5.9355588264998485
   160   4  -2.0      9.8077599777560867      3.2643035651134467      2.1095149023433528
   161   4  -2.0      9.2223313724853728      3.3963413570259955      14.604661011585277
   162   4  -2.0      10.341632355820973      4.6392255930836086      22.234672450172791
   163   4  -2.0      11.742825850458068      1.1115988182843199      11.979245811454392
   164   4  -2.0     0.61655332355846415      4.3148305958348168      7.0742646311120527
   165   4  -2.0      2.7933335701159279      4.7589355588923494       13.17556715117839
   166   4  -2.0      4.3786643582676756      4.6159852594840576       15.32864237196514
   167   4  -2.0      2.2105581094600053      7.5635811498216565      2.1211803213876301
   168   4  -2.0      2.0949750325038545      1.8951593165301592      13.717877037768986
   169   4  -2.0     0.68273956655924695      7.5699003360895185      6.7486972743859157
   170   4  -2.0      4.7088040431251095      3.3492311864228634      29.081517739706797
   171   4  -2.0      5.0985406725301594      8.6341049040477671      30.705239378670221
   172   4  -2.0      3.3218021886538818      3.6051800919267909      26.980173207614058
   173   4  -2.0      2.9223004902876881      6.1941259397251516    0.030666856052195653
   174   4  -2.0      4.8150641769454632      5.3438915197287171      4.5508929117692691
   175   4  -2.0      6.9529702823676596      2.1530168741388458      9.2375466234616752
   176   4  -2.0       10.53337199667056        8.61841208376803      13.198706282407445
   177   4  -2.0      2.1378571960706387      10.395726739609929      16.813056032137272
   178   4  -2.0      2.6313454618502132      10.515078677492431      8.5287257177528826
   179   4  -2.0      5.6487611462246408      9.3174087396314871      20.871121743889997
   180   4  -2.0      9.9864037617632135      9.2683125617180053      31.274828588126855
   181   4  -2.0     0.46911975733352779      7.6566820536704023      4.1894347928686244
   182   4  -2.0      8.9899481144852977      8.4194399595423519       19.33258047243557
   183   4  -2.0      1.1973364083389124       7.521715383545585      25.519248228248223
   184   4  -2.0      8.0618142385791742      1.1308968826128616      26.349865807639585
   185   4  -2.0       4.186018163022335       6.764720840262747      13.811490882454438
   186   4  -2.0      10.962109315932787      10.562493197641794      2.8830942852716848
   187   4  -2.0     0.23273812603428909      9.8135557807095637      5.7553721608997046
   188   4  -2.0      5.8672939201064818     0.79830068151724531      13.796668792995481
   189   4  -2.0      3.2770230004473273      1.0355058371127996      5.1609008193083588
   190   4  -2.0      11.706315133508761      10.149864846666647      18.355471757939199
   191   4  -2.0      9.5653494560766443      9.2738630106377631      22.517014491782078
   192   4  -2.0       5.169770121162875      6.8184972738198617      19.725435472863463
   193   4  -2.0     0.74485022336189211      1.1421188327174272      22.010927633199572
   194   4  -2.0      3.7604803435684047      10.286123886110927      6.1978151072832084
   195   4  -2.0      8.1578899016138759      11.714325547977058      7.0134949592217479
   196   4  -2.0      4.6934769636496041       9.458245544586708      27.503695877842635
   197   4  -2.0      1.2062060377049031      1.4612114601045585      24.515735823139078
   198   4  -2.0      1.3110783407615829      11.695718941243587      23.534857269981746
   199   4  -2.0      4.6149820807816679      3.0262183674626733      9.7325558804177525
   200   4  -2.0      5.4467040000151243      4.6211312216735578      12.971234897861319
   201   4  -2.0      4.2489942320096796      6.0228359574110906      33.223152974899641
   202   4  -2.0      11.224757563036782      11.877098643351669      12.928208791049665
   203   4  -2.0      8.0849596419190455      3.0417709849426058      23.288635688132377
   204   4  -2.0      7.2489365597664239      4.5796554233944917      4.9885823855015072
   205   4  -2.0      6.9261191191291713      11.388641413422825      4.7764904757083109
   206   4  -2.0      2.8427248168574804      5.5394898523245555      21.980823085314391
   207   4  -2.0       3.309805370529102      2.1692771156061754     0.34508887217961753
   208   4  -2.0      7.4749051327208642      7.7674572431125375      14.869549144686665
   209   4  -2.0      1.6281075737716983      7.9320555038998846      17.630033417003087
   210   4  -2.0      8.8014585781686687      10.525636103526192      13.177860543290596
   211   4  -2.0      5.5228858950804467       2.053842646809926       26.89736980229603
   212   4  -2.0       5.116212201906384      10.059352736849439      8.3860990098005193
   213   4  -2.0      2.9506305876647536      7.3691198156780473      23.876861504408843
   214   4  -2.0      3.4640200899258993      7.4277391033344315      26.352650933314319
   215   4  -2.0      6.7578374831056935      8.7531047223453147      17.873373188262882
   216   4  -2.0      7.4279243995694291      10.729212790610624      22.105346055049651
   217   4  -2.0      6.5360469390608644      6.4081876608924215      30.493234311080691
   218   4  -2.0     0.98082059443173319      10.050753903306017       25.94045572698073
   219   4  -2.0      4.0891525199268308      8.9290693366327609      17.612726185921197
   220   4  -2.0      11.989918208820676      7.8112233541891714      34.918854004437385
   221   4  -2.0      4.6544737887994891      2.8910641663130296      19.062066191028219
   222   4  -2.0      6.4593566320371245      6.6117893990466028      11.850416273222693
   223   4  -2.0      6.0618248197005062      7.1007669855764464      22.184092929257105
   224   4  -2.0     0.61691041615661069       2.722603796382209      31.811728429021304
   225   4  -2.0      11.437031935312387      7.9938427226183224      23.231301945244009
   226   4  -2.0      3.5327397986523832      1.2112466802852149       28.20236687546614
   227   4  -2.0      8.4324716321654378      6.8764868784537967      7.1849079874591482
   228   4  -2.0      3.9504329043909809      11.670880892491565      12.947274150419334
   229   4  -2.0      2.4723078346626739      3.4889313716066725      8.5493959223117759
   230   4  -2.0      9.6535330596680282      9.1332751001414145      27.828690417050957
   231   4  -2.0        3.07751527293299      10.078624018421401      31.690586290147671
   232   4  -2.0       1.050468065691871      9.3320658113880999      30.276104839561146
   233   4  -2.0      9.8009045995205231      11.672738296693979        20.3775539005523
   234   4  -2.0     0.28893372912125403      5.0010365454787555      12.329622702975948
   235   4  -2.0      11.749151162224223     0.12243157774263054       28.65541618936081
   236   4  -2.0      9.3381825805794705      1.4927597568837179      18.792582723432698
   237   4  -2.0     0.58708801962695822      11.772458689535748      9.4322037662111313
   238   4  -2.0       6.727170718303487     0.85255987830312907      22.619966094471948
   239   4  -2.0      1.3149770549526323      3.1265566931978772      1.6169330626830642
   240   4  -2.0      1.3722682107096202     0.18726115151320216      11.781693710278589
   241   4  -2.0      11.589171759012737      0.4309842870128503      8.6944709272660017
   242   4  -2.0        4.24117791129712      8.2561407952276564      35.026639819715349
   243   4  -2.0    0.095415152450339227      7.6700794640947727      34.133495232417907
   244   4  -2.0     0.61921973575668388      5.5627213131685336      2.3721205672761707
   245   4  -2.0       5.148919784587882      11.429989228439194      10.612976950891779
   246   4  -2.0       7.316993325606183      8.3404524739701476      29.062713527981838
   247   4  -2.0      3.4601662311818915    0.032853589808266762       14.36414530076607
   248   4  -2.0     0.39599662325042639      2.9513590129272376      16.900613411366816
   249   4  -2.0      5.6487594201046898      9.2581519060426718      15.544212090472076
   250   4  -2.0      10.975401249303246      1.7690804513133209      26.615994838371744
   251   4  -2.0      2.2105400681774054      11.495083132041687      19.094707841868001
   252   4  -2.0      10.660817775198041       11.93971766108719      22.750024771021529
   253   4  -2.0      10.250394541158613       0.181829356479659      21.488475885946301
   254   4  -2.0      0.2789253456759499      2.0990939511953193      34.336322564589175
   255   4  -2.0      1.6488691078542561      6.8815994323331307      13.596787539895137
   256   4  -2.0       8.897677487542559        5.78211629463883      34.073732612610144
   257   4  -2.0       9.815054809845897      1.7397870821459185      16.343828072543836
   258   4  -2.0      2.3276705582852815      10.950931334513124      11.141058121850673
   259   4  -2.0      3.8359524700735617     0.78123353265121831      12.096898137562542
   260   4  -2.0      0.3189399695331408     0.23859335182896566      8.2238365438259518
   261   4  -2.0      1.6441436530097882      5.4326729854444817      27.749371948971447
   262   4  -2.0      8.7206724449466346     0.17473031382865786       34.84931759334377
   263   4  -2.0     0.81212357863475015      1.5857511749093014      29.542301561845743
   264   4  -2.0      6.1045983890908007      3.7089030975304698      17.033099201575336
   265   4  -2.0      10.291635244324439      8.1446110492681161      2.5502735364153839
   266   4  -2.0      2.6980736223989394       3.073073890576024      30.359247883589685
   267   4  -2.0      3.2580109562934507      1.7963462941095134      2.9008776420800393
   268   4  -2.0      3.5654574800387362      1.0520529833033549       20.54157589098563
   269   4  -2.0      11.432182033954678      2.3546656856550268       22.52893084497947
   270   4  -2.0      4.7406507233820108      1.2272138664291541      32.840533638070504
   271   4  -2.0      4.6086292149973582      11.110147901610825      3.9658927873532392
   272   4  -2.0     0.26175818310162069      8.6788679653597249      27.748239719572251
   273   4  -2.0      8.7743554337518521      6.3759927357904091      31.263194832513388
   274   4  -2.0      8.3688727886454224      2.0311116531539493      3.7625607115451705
   275   4  -2.0      2.1098669619984594      2.2090478345137465      18.555559608505618
   276   4  -2.0      2.1948167993641117       7.283858680736718      33.081245917763347
   277   4  -2.0       3.131031326589766      8.1869500849572088       7.635746728320024
   278   4  -2.0     0.53212949664310816      10.668696021599795      32.454048567362712
   279   4  -2.0       10.38298617371867      4.6773955371706437      32.303318629038252
   280   4  -2.0     0.68096840111740031      1.0924661702402083      26.999646672566001
   281   4  -2.0      11.310057700763666      2.6890934857542956      9.9042156112083894
   282   4  -2.0      7.8692062723821605      11.719376421293953      34.433177723967951
   283   4  -2.0      2.7396872219680053     0.99104194457228145       9.369645447784011
   284   4  -2.0      2.2359535911282089      1.3796390107066139      16.043285670196475
   285   4  -2.0      5.6468073674781678      11.078385709071826      17.359281386370174
   286   4  -2.0      10.235373807969992     0.72409933581408203      2.4114038094238355
   287   4  -2.0      6.5730931616363657     0.27097567564503194      31.642255514254845
   288   4  -2.0      1.4387297365497154      11.366433856107422      13.567478131739545
   289   4  -2.0      10.850262822141627      6.0935653635931306      7.0638926944752614
   290   4  -2.0      9.4659625607130131      5.7146527328199008       9.271670794957652
   291   4  -2.0      3.1651206611044183      5.5606181528303731      19.660202340864942
   292   4  -2.0      3.0852847124834213        5.07576441065443      6.5087816832790359
   293   4  -2.0      6.1355250495176108      4.2367693518867586       7.852079632920125
   294   4  -2.0      5.5760536621732202      2.3331826262384285      1.8461366451487844
   295   4  -2.0      9.5734850126835109      5.6125986979997151     0.73586827589826598
   296   4  -2.0      7.7764134743114619      5.5079737514194722      24.172272507984687
   297   4  -2.0       6.551690766367142      5.9009043718878678      15.962933009216707
   298   4  -2.0      5.5784162964902695      11.049126940559161      25.490728788901773
   299   4  -2.0      4.6052048492899118      4.2315564934359049      31.376365147580181
   300   4  -2.0      4.9266004955908942      3.6390139557968402      33.828540243315565
   301   4  -2.0      11.250073457407664      1.6118217534348089      34.984335727201412
   302   4  -2.0      7.5482416240477122      8.5775622918702226      23.806237750157006
   303   4  -2.0      10.189652009464609      3.1410100957107545      12.303077786410856
   304   4  -2.0      6.1684522797420431      8.8594442989684978      13.239239292850161
   305   4  -2.0      7.4033719652675511     0.09593704900830953      8.2025718795036298
   306   4  -2.0      5.8114472911874566      1.9356803883888327      4.2485997756163707
   307   4  -2.0     0.42801587432647331      4.1518929670781981      29.572086316868525
   308   4  -2.0      1.0546851872908118      5.4998161377546433      17.328350911779108
   309   4  -2.0      10.895217913376685      1.2310382164613329      4.6695095557410413
   310   4  -2.0      1.0096388401146577      8.3461663414242082      9.2104613279314052
   311   4  -2.0      2.6158458025824651      6.1276359976182393      35.059091372790299
   312   4  -2.0      9.6330685430354439      3.2815085282595771       34.25907579998664
   313   4  -2.0      11.520662626131845     0.37342622859415625      18.097955799556619
   314   4  -2.0      8.0355417718955255      1.4124251524169318      14.690143702830714
   315   4  -2.0      11.159096893461019      4.9892801375291898        16.4945324512226
   316   4  -2.0      0.9142733039305011      3.5662387503179529      26.046894837868813
   317   4  -2.0        10.8576122394616      5.4404815672493321      29.886313505972748
   318   4  -2.0      9.7022202990280206      9.9178060057225252      8.4755214464532891
   319   4  -2.0       6.065151250525207      9.0243720416673181      10.660057988421327
   320   4  -2.0      9.0457484140447377      9.9087581353452041      17.321931496544213
   321   4  -2.0      4.6150067398208447      5.7471982146691341      17.700811342253957
   322   4  -2.0      1.1524118188705523      1.6799698924978839       4.144113119167069
   323   4  -2.0      4.4841446351072163     0.41114159491963315      30.598707766241716
   324   4  -2.0      6.6993730455308125      4.1955347051751399      19.512217032309184
   325   4  -2.0      6.7519881957837766      6.0841501637060942      2.8155487021076016
   326   4  -2.0      7.5499640254305351      2.7589930816068824       28.39661541863698
   327   4  -2.0      11.451537849550027      8.3708469955155671      20.137355246801118
   328   4  -2.0      5.1817750413445678      11.967146410191733       27.81952414337038
   329   4  -2.0       4.909686406254548      7.1673448923501999      28.620530384768873
   330   4  -2.0      2.5884885984828903      8.2802127436316368      28.638936240343646
   331   4  -2.0      9.8479268299616525       4.025928553846633       25.17929642330067
   332   4  -2.0      2.9676774738776714      9.1690981763642672      13.100277109910662
   333   4  -2.0      8.8892229149825361      6.3714219088181725      16.391872598429156
   334   4  -2.0      11.104346852400521      10.044354572536621      15.438579712760658
   335   4  -2.0      1.8024667808508519      11.279254432524789      28.152201227838408
   336   4  -2.0      1.8092081538673384      11.873575029646968      30.444555238076376
   337   4  -2.0     0.51424916679918997      6.8370989420149106      29.547622426925617
   338   4  -2.0      7.4372731026332888      2.0936289814642453      6.2837791001723469
   339   4  -2.0      6.4521105907059315      10.660149622360411      2.5176135270982525
   340   4  -2.0       8.079526319867437      4.6145276785012861      12.681670370760161
   341   4  -2.0      9.5434143449288431       11.35764585581078      4.8719433971752233
   342   4  -2.0      8.8706928458353929      11.028113131697916      24.304603410985269
   343   4  -2.0      10.295383500917595      11.514205155905632      30.733239350217563
   344   4  -2.0      2.8196666792773168      3.3705397278443368      4.5849385615538214
   345   4  -2.0      11.267166820906507      4.3976991908542784       27.68725835647237
   346   4  -2.0      8.1001754917918305       2.090942139973516      20.805592731142955
   347   4  -2.0      2.6590721316856176      3.4567229063306395       20.75661691213962
   348   4  -2.0      5.0364231264691615      11.281599406287551      30.845230895254947
   349   4  -2.0      8.5211705595503702      10.359754609209197      29.722702249054819
   350   4  -2.0      2.2874887295429844      2.6375859712207887      11.125537788168351
   351   4  -2.0      2.5712107191794593      5.4683567986274788      25.311693456090538
   352   4  -2.0      7.8010860110692146      5.1634891055793073      21.412268038799127
   353   4  -2.0      0.2719693984810202      5.9355586494486179      32.450431748507732
   354   4  -2.0      9.5042162400590637      7.4997945705249984      4.8699410821307945
   355   4  -2.0      1.8338219093045516     0.39598049888311715      1.2234140784398098
   356   4  -2.0     0.81235834249591721      4.6741137300562423      14.876710644864982
   357   4  -2.0       11.23413388412653      2.3471694312277007      7.1000505377998993
   358   4  -2.0       6.168314673913196      3.4362915241553327      21.716327357994537
   359   4  -2.0      8.6553814749189968      9.9441960942812955      1.7678225159737453
   360   4  -2.0      6.8734444095933664      8.4341414849268155      1.6153152048291017
   361   4  -2.0      5.0503157016212468     0.24930600188126603      6.8980986299077429
   362   4  -2.0      9.2695008845489433      6.9369403028526646      22.555006408198743
   363   4  -2.0      4.9562890742174304      10.863944895978658      22.973866852210648
   364   4  -2.0      9.2469976162114165      1.5591308804649324      8.7088060961395932
   365   4  -2.0      1.5155005427897621      10.653411533385757      21.256522760110769
   366   4  -2.0      9.8341977095086612      6.2438481701974213      20.287970960610206
   367   4  -2.0      1.8999154528673621      6.0712193723080956      8.4955399506524216
   368   4  -2.0       7.809097867361416      10.653159459638168      19.499510150387113
   369   4  -2.0      10.212409030623004      5.5405234677181552      3.2993159825111813
   370   4  -2.0      7.3527241710293145      3.4842139838677171      25.717590866787937
   371   4  -2.0     0.93814328097235233      5.1151014480306563       20.55870374522917
   372   4  -2.0      10.476142722377482      5.4375719907179558       13.52609470750575
   373   4  -2.0      10.862219835128547      5.9436891899725346      11.260200193624074
   374   4  -2.0      4.6930855394568551      7.2205510362796428      1.7763219015469038
   375   4  -2.0      0.6451069335893751     0.24116580525725265      17.602186969570006
   376   4  -2.0      7.8129013121894744     0.35819118398836219      12.556853429807481
   377   4  -2.0      10.784106174228517      7.0965846963658894      17.983676210805186
   378   4  -2.0      8.4059649095175537       1.831541082575177      30.710387747465077
   379   4  -2.0      11.909899220211589      4.6367189826486346      1.5638639829928032
   380   4  -2.0      6.3745745939654732      6.0991202658792485     0.19707447625967306
   381   4  -2.0      6.7277650933475819      5.2340142815869637      32.766887979767688
   382   4  -2.0      6.8345019305715766      7.1824326912907539      5.0598924807915164
   383   4  -2.0      8.2688795693645751       8.429712364961631      11.769457563977957
   384   4  -2.0      11.069529791462568      7.4461117708366906      15.442037880305074
   385   4  -2.0      5.1996013247894712      9.5159939893983712      33.079254351732025
   386   4  -2.0      6.7122606450090885       7.548068243251314      34.019740134824687
   387   4  -2.0      11.352032118540444      7.1012220571450522      31.715266999878537
   388   4  -2.0      9.9228958552819257      3.3379132085996277      29.261815475082294
   389   4  -2.0      2.6350789044619027      2.4480852929409451      33.415623318020117
   390   4  -2.0        2.95444324910958      8.2469774048216991      15.491910956607253
   391   4  -2.0      3.5422415246900703      8.6870000887257994   0.0056788889646127161
   392   4  -2.0      10.121180500810722      9.9849645329089469       11.04845388825372
   393   4  -2.0      1.0601766662291159      7.4730457925582572      22.148965405953177
   394   4  -2.0      11.472201464405456      5.2285661423366516      34.593454223125185
   395   4  -2.0      2.3806719983535971      5.8723859857812988       4.156012597500867
   396   1   3.0      7.4523858299949692      6.9378875918736833      23.210588941293519
   397   1   3.0      10.609788018599131      10.593877859810394      17.036632100201764
   398   1   3.0      7.2863262541981095       3.769112893283455      6.6511395761061154
   399   1   3.0      11.095109737846691      3.4150285874030639      26.210927892485259
