Na B  Si O  Al
 1.0000000000000000
    12.0000000000000000    0.0000000000000000    0.0000000000000000
     0.0000000000000000   12.0000000000000000    0.0000000000000000
     0.0000000000000000    0.0000000000000000   37.5594525315178700
 Na  B   Si  O   Al 
  14  32  96 253   4
Cartesian
  3.0817047628356824  6.8678856493504892 30.6644969400789691
  9.2730702390730961  4.0168368910134795 18.9150184218607258
  9.7219263632512529  3.7792754936847124  4.8818618895245187
  2.9853131982922183 10.0239501787277803 24.2974833381940805
  3.8066957180189158  8.7031667194364246  3.8972860933738374
  1.8473226150341848  6.7517873190007007 10.8451117328741109
  4.9617618057072805  5.1433034487392826 24.2400543186506390
  4.6613080317125251 10.8818137878836012  0.8650041229565754
 11.6040551699506977  7.2059935253654714  0.1615803068602657
  2.4320775431144788  3.3833001647154699 23.4414072320416622
  9.4993701071311687  8.6111781225334134 33.9620482028920776
  6.9029871741858484 11.4610059679281360 14.6627237526948200
  7.4742714784984461  3.9379791572327778  2.1140746358819880
  1.5869084826093749 11.7107581451436396  1.7602422891649130
  5.9657372470153494 11.5074539453873026  3.6165779782036598
  7.6658265338974658  5.6658393837267180 30.7786763260785605
  7.6943557976080310  6.6370812834906605 15.7137313566095944
  2.1866764623286969  0.7977541541137616 14.7155010152422054
  2.5322303836427440  7.0184045026926443 25.2545466930013909
  4.0203113652618114  3.5504532202082224 30.2814918809718741
 10.7924532985207247  4.3478331900596849 28.9937597232447892
  3.6129590964722946  0.0996973400305007 21.5517889425780815
 10.0085412414514128  2.2133961080584470 35.1340804858078783
  5.2354825794514586  0.5153037493803901 31.7714152121657065
  2.6066721368674526  1.9956296153529449  4.3582343053390051
  6.7948743079774774  4.4048146967915534 20.8763254585621212
 11.1288446807824979  0.6137373540838967  3.4676967253309545
 10.9582869947048405  8.6418443190778866 28.1220056967034644
  6.4239695936126928  8.6319433791708562 14.5839977052649630
  9.2928971935673559 10.5204403176557388 30.9776991945321853
  0.8451849882108251  6.9652616083962853 33.2168605742639258
  3.1404565149347707  6.6239240460685531 33.8292700636074670
 11.3260306341362220  5.9350847335307559 12.5883468400175733
  0.0100817911793238 11.2023358969175959  5.8511726142397675
  8.0725738719792854  1.3429660563089691 19.5532482760286292
 10.3350464045543387  6.4592585119015338 10.0662617221594406
  8.3954108896904263 11.7396641280352956 20.1345710536212650
  7.9051033246362019  1.3527398327642051  8.6165526362284837
  0.7246032569780818  6.8090848259440806 17.7754214400698167
  9.0129152293100638  2.2151677017188520 15.3382578270573937
  7.2441957763979783  0.8922022279447468 13.7047729812132442
  2.0160262216126279 11.6813368698453015 20.4391405346188080
  4.2837616133278651  6.0470108969824636 18.9709848553662184
  2.4348840333298756  4.8848776811151087 20.7104121584325078
 10.1699861578388422  8.0474786852253928 22.6869933196241078
  7.2834963915876818  9.7194635658144772  1.9233920345890818
  4.6597282835230489  9.9228049899303166 31.6280994453454625
  3.7320673676649161  9.6466404098949479  7.6548994185504933
  1.0533771403311938  2.9225060793887598 30.3327430257059589
  0.4185337141867804 11.0143437828651791 22.4252373815986594
  3.0929783414726746  2.5185603242815149  9.6945636524227670
  8.2056679887403661 10.8929707801689428  5.6121756259352393
  8.7445546896247954 11.2129793638696480  8.4798602038638613
  1.1062829792392068  8.2937752295500733 29.1210646759518319
  8.2719443864498530  9.9278896715104796 23.2533715994287462
  0.3707758216453372  5.4570991662407504 28.6875139853419299
  2.9765305233618067  7.8200167180532736 13.9735550721341895
  1.2099527231377889  1.8584320629199322 33.0443121281040746
 10.0196275343331305  0.7363757636703829 17.5876762143639596
  0.2768042113125093  8.5838399122683029 26.1422241071289143
  6.6830018165418252  8.2132092291104595 11.8897204190125692
  3.1958398333138742  2.3894520546856164 19.7248582436507149
  2.3335144496021423  1.4385368823660434 12.2040130429429770
  5.6763466193041499  8.7057442722947656 34.3823294352625979
  0.2354898680405105  0.5645250309019904 28.4073919063687192
  3.3536025582939741  7.3649403308436998  0.9732813874165812
  5.2022830567466949  7.7598099011824644 21.0359868579272238
  9.3779953839978276  5.7480918035531587  7.7233146015156606
 10.3451139661420903  4.7976804462598590  1.8850069428069347
  6.6100216226348696  4.9883845873939023 12.0093813252252684
  8.0957723439099887  0.3505040070682141 31.1236293412435572
  5.5358594821725404  9.4784657242623940 17.1343492272116364
  2.6095378407182532  7.0270751745421629 22.3929282883883936
 10.5282910358752488  7.0958456805798358  3.7477784814372956
  4.1389775684454841  2.2333122691004710 33.8977751027287937
 11.3973920044512997  8.5297927130811715 31.0003772082418045
  1.2750058417112522  1.6749722075624991 17.3255613440624430
 11.4176058154856754  8.7204549159815929 14.5369213621779583
  2.3618638589085355  1.9525042414462250  1.5714669295180481
  7.3005821429047044  6.0561207527981740 34.0359236879310814
 10.1512920293947015  4.7255713488186011 33.8782305845677527
 10.8132127592942648  1.8720041005677104  8.5808104571805313
  6.2959751423931332  6.9151935861391172  1.5589522617732892
  8.3732686093562574  4.0168869187371126 24.5422237830974375
 11.0928464970843912 11.9427476996888675 21.2300333074425573
  1.5908980101799877 10.5002240093320811 31.2308161457709019
  6.1237689559968267  3.5442537816029120  9.3240773025799548
  9.4559504439623332  4.1751406902626513 13.2743645109968931
  3.3532999425213363  4.8185917391054591  4.9897513413417727
  2.0381880545620348  4.7238863511301714  7.6745724509228443
 10.2015481391826643  9.5693106131992440  1.8735644320222093
  3.8768415161498142 11.5746741760578633  5.2769000635641063
  6.0125080418813139 10.3831650411415595  9.7452857306986278
  1.3258608210376184  5.2514714553445749 13.4783475581108600
  4.2518740322670983  5.1179592437722530 13.8423102950026511
  6.3895504350929517  5.7658628360790827  4.3658479383841708
  1.4625381926410437  0.4030617654648374 23.2621403063387078
 11.9232686429848371  1.6663362128342531  5.7958287154112034
  1.3880591350987665  6.7141676729872808  3.2524945140779300
  7.5933762538942622 10.7930596223853144 35.6996024360710393
  4.2325712049848967  2.5315454541829454 27.7231017888525919
  5.3346166145271745  5.0113356908235867 16.5308111919387066
  0.3226695259314961  4.4089444078693312 16.4032940748961096
  9.3222984589286071  5.6331329697795178 21.6398160184424704
  6.0870833289420645  3.0411400642084598 18.4937043401141636
 11.7490527213324150  3.8675103170789868 22.1460039275130853
  9.4456164263543894  9.3741200447099384 12.3380958610323628
  8.8518444652497958  0.1175236580491599 25.3148109026214740
 10.6537942949399902  9.3030257165492021  9.6073421198314115
  1.7204459135636696  7.5612054501520465  8.0192911793536243
  2.2099517738791721 11.8609746168031247 17.4939264816762261
 10.2927562669654282  7.5296054482230428 19.4702137499041363
  3.9259373400664699  8.1072684791608047 27.7436772633130388
  3.2561314739675935  9.1009908809218469 36.0466765889857754
  8.0886740283813960  9.4234423754137815 18.4907308457727062
 10.8575876208638498  0.8886552765279295 22.7897106949984654
  2.6777043149162205  8.8820894337086287 16.9194694889035837
 11.4982474650346624  2.6440036760819332 11.4641865642183234
  0.8364445191071391 11.3755204709134716 26.9271581059675320
  5.6382325257104116 10.6591804178015845 27.0265638980609211
  2.1120344748285387 11.4578723099482129  9.6686179661638949
  5.0386200470443301 11.8495983704681969 24.1778579801752507
  0.3295632164687541  2.1214013524306776 25.7259294260737832
  8.2104421593798129  9.5019025213588684 28.4471816477572936
 11.0022091211601669 11.6035633248791150  4.0728802345251829
  6.0231274270806612  7.7345578652841747 29.6958913840459076
  2.5907172120581952 10.6885120086442917 12.7563623028241100
  8.2273650162812437  7.7608208631397009  5.8063038907709892
  0.1511560533683398  8.7141736105988148 35.4363561681161272
  7.2333892313839279  2.2727720428248905 22.1219669763408113
  2.1255116378871759  4.5255845581395970 26.5470709797483941
 10.3126075928199707  5.9342979029431753 31.2496634518613057
 10.4984125957629093  6.4529309744683658 16.4839471543630296
  7.2361574262616131  1.5120382345000813  4.8106502082446934
  5.1915484305976394  4.8173172012952916 32.7856643568192396
  2.1204475485059597  5.4740212107426762 36.4078638049918268
  4.8982769274498787  1.5022108742519340  2.9341698264290317
  5.8825017165237687 10.7047446923617553 21.6520720402613840
  8.4283168748839294  3.0192779440059643 29.7232364970793483
  9.0822150414475527  1.7978290081143764  2.3013800190238238
  0.1162264532192617  4.1086870592262450  2.0637800834607081
  7.0894619391869176  2.3547914833336039 26.8634129071333305
  7.1889677949703135 10.3062094004878997 27.4554479093879777
  6.6334485073009928  4.4280680026650217 10.5244394761703326
 11.9127628940440147  8.5004414052706920 27.0927438420398161
 10.6151056562273567  7.7221374510980141  9.6233592664023480
 11.3515116342541873  8.2754105594275735 29.3821945499774770
  8.8237971218351223  4.3590891742519542  7.2336762115160838
  6.9962735471567594  1.7899840189412495 18.7182953283465530
  8.4080435244523741 10.8992456753559104 32.0489655681293542
  3.0528601872966972  0.4068555435109568 22.7866815141059433
  9.6587889103611513  0.8358321242267382 23.9674878224698453
  8.1205067424546939  1.6229105538227062  1.0925623267507512
 10.8900018028269585  9.5805570206328756  0.4208761792333681
  7.4959533321555263 10.8286109912793140  9.3525223767999517
  3.6640242675095354  7.8758670875110548 21.4694733288741020
  1.3206644789161406  0.3447785937098476 32.4834300396727542
  7.8619096658922203  4.3851478632704506 30.2737579729569504
  8.0647507612104299  9.3474591895995029  5.9355588264998485
  9.8077599777560867  3.2643035651134467  2.1095149023433528
  9.2223313724853728  3.3963413570259955 14.6046610115852769
 10.3416323558209733  4.6392255930836086 22.2346724501727913
 11.7428258504580683  1.1115988182843199 11.9792458114543923
  0.6165533235584642  4.3148305958348168  7.0742646311120527
  2.7933335701159279  4.7589355588923494 13.1755671511783898
  4.3786643582676756  4.6159852594840576 15.3286423719651399
  2.2105581094600053  7.5635811498216565  2.1211803213876301
  2.0949750325038545  1.8951593165301592 13.7178770377689858
  0.6827395665592469  7.5699003360895185  6.7486972743859157
  4.7088040431251095  3.3492311864228634 29.0815177397067970
  5.0985406725301594  8.6341049040477671 30.7052393786702211
  3.3218021886538818  3.6051800919267909 26.9801732076140581
  2.9223004902876881  6.1941259397251516  0.0306668560521957
  4.8150641769454632  5.3438915197287171  4.5508929117692691
  6.9529702823676596  2.1530168741388458  9.2375466234616752
 10.5333719966705601  8.6184120837680300 13.1987062824074446
  2.1378571960706387 10.3957267396099287 16.8130560321372720
  2.6313454618502132 10.5150786774924310  8.5287257177528826
  5.6487611462246408  9.3174087396314871 20.8711217438899972
  9.9864037617632135  9.2683125617180053 31.2748285881268551
  0.4691197573335278  7.6566820536704023  4.1894347928686244
  8.9899481144852977  8.4194399595423519 19.3325804724355699
  1.1973364083389124  7.5217153835455850 25.5192482282482231
  8.0618142385791742  1.1308968826128616 26.3498658076395849
  4.1860181630223350  6.7647208402627470 13.8114908824544376
 10.9621093159327874 10.5624931976417944  2.8830942852716848
  0.2327381260342891  9.8135557807095637  5.7553721608997046
  5.8672939201064818  0.7983006815172453 13.7966687929954812
  3.2770230004473273  1.0355058371127996  5.1609008193083588
 11.7063151335087614 10.1498648466666470 18.3554717579391991
  9.5653494560766443  9.2738630106377631 22.5170144917820778
  5.1697701211628750  6.8184972738198617 19.7254354728634631
  0.7448502233618921  1.1421188327174272 22.0109276331995716
  3.7604803435684047 10.2861238861109268  6.1978151072832084
  8.1578899016138759 11.7143255479770581  7.0134949592217479
  4.6934769636496041  9.4582455445867080 27.5036958778426346
  1.2062060377049031  1.4612114601045585 24.5157358231390781
  1.3110783407615829 11.6957189412435874 23.5348572699817460
  4.6149820807816679  3.0262183674626733  9.7325558804177525
  5.4467040000151243  4.6211312216735578 12.9712348978613186
  4.2489942320096796  6.0228359574110906 33.2231529748996408
 11.2247575630367820 11.8770986433516690 12.9282087910496646
  8.0849596419190455  3.0417709849426058 23.2886356881323771
  7.2489365597664239  4.5796554233944917  4.9885823855015072
  6.9261191191291713 11.3886414134228247  4.7764904757083109
  2.8427248168574804  5.5394898523245555 21.9808230853143911
  3.3098053705291020  2.1692771156061754  0.3450888721796175
  7.4749051327208642  7.7674572431125375 14.8695491446866654
  1.6281075737716983  7.9320555038998846 17.6300334170030872
  8.8014585781686687 10.5256361035261925 13.1778605432905955
  5.5228858950804467  2.0538426468099260 26.8973698022960299
  5.1162122019063840 10.0593527368494389  8.3860990098005193
  2.9506305876647536  7.3691198156780473 23.8768615044088435
  3.4640200899258993  7.4277391033344315 26.3526509333143188
  6.7578374831056935  8.7531047223453147 17.8733731882628817
  7.4279243995694291 10.7292127906106245 22.1053460550496510
  6.5360469390608644  6.4081876608924215 30.4932343110806912
  0.9808205944317332 10.0507539033060169 25.9404557269807299
  4.0891525199268308  8.9290693366327609 17.6127261859211970
 11.9899182088206757  7.8112233541891714 34.9188540044373852
  4.6544737887994891  2.8910641663130296 19.0620661910282188
  6.4593566320371245  6.6117893990466028 11.8504162732226934
  6.0618248197005062  7.1007669855764464 22.1840929292571047
  0.6169104161566107  2.7226037963822090 31.8117284290213043
 11.4370319353123868  7.9938427226183224 23.2313019452440095
  3.5327397986523832  1.2112466802852149 28.2023668754661401
  8.4324716321654378  6.8764868784537967  7.1849079874591482
  3.9504329043909809 11.6708808924915655 12.9472741504193340
  2.4723078346626739  3.4889313716066725  8.5493959223117759
  9.6535330596680282  9.1332751001414145 27.8286904170509573
  3.0775152729329900 10.0786240184214009 31.6905862901476709
  1.0504680656918710  9.3320658113880999 30.2761048395611461
  9.8009045995205231 11.6727382966939786 20.3775539005523001
  0.2889337291212540  5.0010365454787555 12.3296227029759482
 11.7491511622242228  0.1224315777426305 28.6554161893608104
  9.3381825805794705  1.4927597568837179 18.7925827234326981
  0.5870880196269582 11.7724586895357479  9.4322037662111313
  6.7271707183034870  0.8525598783031291 22.6199660944719483
  1.3149770549526323  3.1265566931978772  1.6169330626830642
  1.3722682107096202  0.1872611515132022 11.7816937102785886
 11.5891717590127374  0.4309842870128503  8.6944709272660017
  4.2411779112971200  8.2561407952276564 35.0266398197153492
  0.0954151524503392  7.6700794640947727 34.1334952324179071
  0.6192197357566839  5.5627213131685336  2.3721205672761707
  5.1489197845878820 11.4299892284391937 10.6129769508917793
  7.3169933256061830  8.3404524739701476 29.0627135279818383
  3.4601662311818915  0.0328535898082668 14.3641453007660704
  0.3959966232504264  2.9513590129272376 16.9006134113668161
  5.6487594201046898  9.2581519060426718 15.5442120904720760
 10.9754012493032462  1.7690804513133209 26.6159948383717442
  2.2105400681774054 11.4950831320416871 19.0947078418680007
 10.6608177751980406 11.9397176610871902 22.7500247710215291
 10.2503945411586130  0.1818293564796590 21.4884758859463005
  0.2789253456759499  2.0990939511953193 34.3363225645891745
  1.6488691078542561  6.8815994323331307 13.5967875398951374
  8.8976774875425590  5.7821162946388300 34.0737326126101436
  9.8150548098458970  1.7397870821459185 16.3438280725438361
  2.3276705582852815 10.9509313345131236 11.1410581218506728
  3.8359524700735617  0.7812335326512183 12.0968981375625422
  0.3189399695331408  0.2385933518289657  8.2238365438259518
  1.6441436530097882  5.4326729854444817 27.7493719489714472
  8.7206724449466346  0.1747303138286579 34.8493175933437698
  0.8121235786347502  1.5857511749093014 29.5423015618457434
  6.1045983890908007  3.7089030975304698 17.0330992015753360
 10.2916352443244392  8.1446110492681161  2.5502735364153839
  2.6980736223989394  3.0730738905760240 30.3592478835896848
  3.2580109562934507  1.7963462941095134  2.9008776420800393
  3.5654574800387362  1.0520529833033549 20.5415758909856301
 11.4321820339546782  2.3546656856550268 22.5289308449794703
  4.7406507233820108  1.2272138664291541 32.8405336380705037
  4.6086292149973582 11.1101479016108247  3.9658927873532392
  0.2617581831016207  8.6788679653597249 27.7482397195722506
  8.7743554337518521  6.3759927357904091 31.2631948325133884
  8.3688727886454224  2.0311116531539493  3.7625607115451705
  2.1098669619984594  2.2090478345137465 18.5555596085056180
  2.1948167993641117  7.2838586807367180 33.0812459177633471
  3.1310313265897660  8.1869500849572088  7.6357467283200240
  0.5321294966431082 10.6686960215997946 32.4540485673627117
 10.3829861737186704  4.6773955371706437 32.3033186290382517
  0.6809684011174003  1.0924661702402083 26.9996466725660014
 11.3100577007636662  2.6890934857542956  9.9042156112083894
  7.8692062723821605 11.7193764212939531 34.4331777239679511
  2.7396872219680053  0.9910419445722815  9.3696454477840110
  2.2359535911282089  1.3796390107066139 16.0432856701964752
  5.6468073674781678 11.0783857090718261 17.3592813863701743
 10.2353738079699923  0.7240993358140820  2.4114038094238355
  6.5730931616363657  0.2709756756450319 31.6422555142548454
  1.4387297365497154 11.3664338561074221 13.5674781317395450
 10.8502628221416266  6.0935653635931306  7.0638926944752614
  9.4659625607130131  5.7146527328199008  9.2716707949576520
  3.1651206611044183  5.5606181528303731 19.6602023408649416
  3.0852847124834213  5.0757644106544300  6.5087816832790359
  6.1355250495176108  4.2367693518867586  7.8520796329201250
  5.5760536621732202  2.3331826262384285  1.8461366451487844
  9.5734850126835109  5.6125986979997151  0.7358682758982660
  7.7764134743114619  5.5079737514194722 24.1722725079846867
  6.5516907663671420  5.9009043718878678 15.9629330092167070
  5.5784162964902695 11.0491269405591606 25.4907287889017731
  4.6052048492899118  4.2315564934359049 31.3763651475801808
  4.9266004955908942  3.6390139557968402 33.8285402433155653
 11.2500734574076642  1.6118217534348089 34.9843357272014117
  7.5482416240477122  8.5775622918702226 23.8062377501570062
 10.1896520094646093  3.1410100957107545 12.3030777864108565
  6.1684522797420431  8.8594442989684978 13.2392392928501614
  7.4033719652675511  0.0959370490083095  8.2025718795036298
  5.8114472911874566  1.9356803883888327  4.2485997756163707
  0.4280158743264733  4.1518929670781981 29.5720863168685248
  1.0546851872908118  5.4998161377546433 17.3283509117791077
 10.8952179133766851  1.2310382164613329  4.6695095557410413
  1.0096388401146577  8.3461663414242082  9.2104613279314052
  2.6158458025824651  6.1276359976182393 35.0590913727902986
  9.6330685430354439  3.2815085282595771 34.2590757999866398
 11.5206626261318448  0.3734262285941563 18.0979557995566189
  8.0355417718955255  1.4124251524169318 14.6901437028307136
 11.1590968934610189  4.9892801375291898 16.4945324512226001
  0.9142733039305011  3.5662387503179529 26.0468948378688125
 10.8576122394616004  5.4404815672493321 29.8863135059727476
  9.7022202990280206  9.9178060057225252  8.4755214464532891
  6.0651512505252070  9.0243720416673181 10.6600579884213271
  9.0457484140447377  9.9087581353452041 17.3219314965442130
  4.6150067398208447  5.7471982146691341 17.7008113422539566
  1.1524118188705523  1.6799698924978839  4.1441131191670690
  4.4841446351072163  0.4111415949196331 30.5987077662417164
  6.6993730455308125  4.1955347051751399 19.5122170323091844
  6.7519881957837766  6.0841501637060942  2.8155487021076016
  7.5499640254305351  2.7589930816068824 28.3966154186369799
 11.4515378495500268  8.3708469955155671 20.1373552468011177
  5.1817750413445678 11.9671464101917326 27.8195241433703799
  4.9096864062545480  7.1673448923501999 28.6205303847688732
  2.5884885984828903  8.2802127436316368 28.6389362403436465
  9.8479268299616525  4.0259285538466330 25.1792964233006700
  2.9676774738776714  9.1690981763642672 13.1002771099106621
  8.8892229149825361  6.3714219088181725 16.3918725984291562
 11.1043468524005213 10.0443545725366210 15.4385797127606583
  1.8024667808508519 11.2792544325247892 28.1522012278384075
  1.8092081538673384 11.8735750296469682 30.4445552380763758
  0.5142491667991900  6.8370989420149106 29.5476224269256171
  7.4372731026332888  2.0936289814642453  6.2837791001723469
  6.4521105907059315 10.6601496223604109  2.5176135270982525
  8.0795263198674370  4.6145276785012861 12.6816703707601608
  9.5434143449288431 11.3576458558107802  4.8719433971752233
  8.8706928458353929 11.0281131316979160 24.3046034109852691
 10.2953835009175947 11.5142051559056320 30.7332393502175627
  2.8196666792773168  3.3705397278443368  4.5849385615538214
 11.2671668209065068  4.3976991908542784 27.6872583564723698
  8.1001754917918305  2.0909421399735160 20.8055927311429549
  2.6590721316856176  3.4567229063306395 20.7566169121396200
  5.0364231264691615 11.2815994062875511 30.8452308952549465
  8.5211705595503702 10.3597546092091974 29.7227022490548194
  2.2874887295429844  2.6375859712207887 11.1255377881683515
  2.5712107191794593  5.4683567986274788 25.3116934560905378
  7.8010860110692146  5.1634891055793073 21.4122680387991267
  0.2719693984810202  5.9355586494486179 32.4504317485077323
  9.5042162400590637  7.4997945705249984  4.8699410821307945
  1.8338219093045516  0.3959804988831171  1.2234140784398098
  0.8123583424959172  4.6741137300562423 14.8767106448649820
 11.2341338841265301  2.3471694312277007  7.1000505377998993
  6.1683146739131960  3.4362915241553327 21.7163273579945368
  8.6553814749189968  9.9441960942812955  1.7678225159737453
  6.8734444095933664  8.4341414849268155  1.6153152048291017
  5.0503157016212468  0.2493060018812660  6.8980986299077429
  9.2695008845489433  6.9369403028526646 22.5550064081987429
  4.9562890742174304 10.8639448959786584 22.9738668522106479
  9.2469976162114165  1.5591308804649324  8.7088060961395932
  1.5155005427897621 10.6534115333857571 21.2565227601107694
  9.8341977095086612  6.2438481701974213 20.2879709606102061
  1.8999154528673621  6.0712193723080956  8.4955399506524216
  7.8090978673614160 10.6531594596381680 19.4995101503871133
 10.2124090306230038  5.5405234677181552  3.2993159825111813
  7.3527241710293145  3.4842139838677171 25.7175908667879369
  0.9381432809723523  5.1151014480306563 20.5587037452291703
 10.4761427223774817  5.4375719907179558 13.5260947075057505
 10.8622198351285473  5.9436891899725346 11.2602001936240743
  4.6930855394568551  7.2205510362796428  1.7763219015469038
  0.6451069335893751  0.2411658052572526 17.6021869695700062
  7.8129013121894744  0.3581911839883622 12.5568534298074805
 10.7841061742285174  7.0965846963658894 17.9836762108051857
  8.4059649095175537  1.8315410825751770 30.7103877474650773
 11.9098992202115888  4.6367189826486346  1.5638639829928032
  6.3745745939654732  6.0991202658792485  0.1970744762596731
  6.7277650933475819  5.2340142815869637 32.7668879797676880
  6.8345019305715766  7.1824326912907539  5.0598924807915164
  8.2688795693645751  8.4297123649616310 11.7694575639779568
 11.0695297914625677  7.4461117708366906 15.4420378803050742
  5.1996013247894712  9.5159939893983712 33.0792543517320254
  6.7122606450090885  7.5480682432513140 34.0197401348246871
 11.3520321185404445  7.1012220571450522 31.7152669998785370
  9.9228958552819257  3.3379132085996277 29.2618154750822939
  2.6350789044619027  2.4480852929409451 33.4156233180201170
  2.9544432491095800  8.2469774048216991 15.4919109566072528
  3.5422415246900703  8.6870000887257994  0.0056788889646127
 10.1211805008107216  9.9849645329089469 11.0484538882537198
  1.0601766662291159  7.4730457925582572 22.1489654059531773
 11.4722014644054564  5.2285661423366516 34.5934542231251854
  2.3806719983535971  5.8723859857812988  4.1560125975008670
  7.4523858299949692  6.9378875918736833 23.2105889412935191
 10.6097880185991311 10.5938778598103944 17.0366321002017642
  7.2863262541981095  3.7691128932834550  6.6511395761061154
 11.0951097378466912  3.4150285874030639 26.2109278924852589
Cartesian
  0.0028265575541125  0.0040113599558473  0.0001515079906162
  0.0017578534228116 -0.0004640714431429 -0.0008197592168772
  0.0009686744350439  0.0029878916287281  0.0003904107475756
  0.0046616107720847 -0.0006388925925946 -0.0016687475448296
  0.0036555356630499  0.0002714220167355  0.0043157334491208
  0.0027211856291097  0.0034749704110787 -0.0021698302002674
 -0.0025524734570579  0.0012381642466752 -0.0023024979953842
  0.0007324110779330 -0.0023462956363977 -0.0027984576347880
 -0.0016931639873390  0.0008562788671362 -0.0057801996362378
  0.0036487628950714  0.0007556530541550  0.0041802001396048
 -0.0018006202132173  0.0001278407168345 -0.0006429797769047
  0.0012610411584432 -0.0025861091896590  0.0041091588833002
 -0.0012392069360521  0.0016018249148681 -0.0028373376314188
 -0.0006678711238301  0.0013417641099435  0.0033867963357474
  0.0005525093541548  0.0000193617660424 -0.0073257704611189
 -0.0006527561512607 -0.0012698907045457  0.0017917076708655
  0.0066088294503317  0.0019583834158403 -0.0048902252710658
  0.0065761150910889 -0.0121551672786522 -0.0057689300119055
 -0.0016037119491618  0.0042217828469139  0.0015288802387394
 -0.0051565669014987  0.0056412879010735 -0.0032316237771591
 -0.0073518103240681  0.0001554552944960 -0.0007481996405669
  0.0066237624666827 -0.0036020676855290 -0.0026530462736160
 -0.0035688906455172  0.0100992857724104 -0.0023631605936030
  0.0006399231643392  0.0024917790171131  0.0006217854018007
  0.0014044992195453  0.0023854828402383  0.0014256112891678
  0.0080787807816467  0.0000478280765787 -0.0038536322105480
 -0.0012817610729854  0.0050498095608500 -0.0042915269966642
 -0.0033841828809775  0.0036623909748413 -0.0021414804460160
 -0.0082722865458311  0.0034001797947494  0.0031361190673429
  0.0000341110482908  0.0032605810721199 -0.0006048562391817
 -0.0021508139137749 -0.0035163820481600  0.0018968747336876
  0.0041447879227462  0.0088721455464891 -0.0019601114068860
 -0.0027117767163023 -0.0012975982974579 -0.0033098534775473
  0.0192564577111343 -0.0014765489783794  0.0031590516651492
 -0.0067763515610399  0.0025878824649503  0.0029540779099496
 -0.0003560532521773 -0.0028484967420928  0.0060006604629731
 -0.0070519171294549 -0.0002317713168694 -0.0046903383841463
  0.0016380319707903  0.0074283391882592  0.0013306599202115
 -0.0047619385246688  0.0015547449242261  0.0063861300763030
  0.0015527739715452 -0.0094512818085980  0.0052524536852661
  0.0001481285918487 -0.0000682987710184 -0.0012346710888925
  0.0055659201883871  0.0042233801437040  0.0022493860295698
 -0.0009631657110499  0.0055254852889484  0.0013834294594851
 -0.0022499240702848  0.0066143085073516 -0.0035220551314578
  0.0012863939425130 -0.0023186837646377  0.0040357004998108
 -0.0051353668321787  0.0004391755776950 -0.0033309197626678
 -0.0061931750817086 -0.0019810460742457 -0.0001191712749474
  0.0066962737355282 -0.0049040902564455 -0.0011094423868587
  0.0011475599788565 -0.0020262083285807  0.0002123694289782
 -0.0040950021330527  0.0003512020876537 -0.0019752533540139
 -0.0046956245751818  0.0057366711254168 -0.0002724385042968
  0.0024254699503988  0.0001612961779195  0.0040508796042714
  0.0007421851360359  0.0023785732857105  0.0028170536056417
  0.0018568238847779 -0.0028464680843173  0.0022345981345797
  0.0040286528235237 -0.0051253510442513 -0.0042267494114722
 -0.0011643712285931  0.0036314001569443 -0.0024843190076506
 -0.0010127086562255 -0.0027464061087034 -0.0026580045526871
  0.0026556829593134 -0.0039931549667446  0.0002160198463663
 -0.0012985052810695 -0.0015762463277169  0.0011567488127775
  0.0044616301614020 -0.0009263259062192  0.0009813710725636
  0.0002984479684500 -0.0080968497149379 -0.0014421632105946
  0.0049324842801366  0.0000972923762536 -0.0025289490026245
 -0.0022712928549303 -0.0047754766494882  0.0005476140900390
  0.0053201180221730  0.0001279223076940 -0.0022363583040223
 -0.0023487740114711 -0.0027514672254276 -0.0041849703120915
  0.0005078345693220 -0.0022254846691966 -0.0002673534725989
 -0.0017904681323254 -0.0018558229782847 -0.0018401538104097
  0.0010863816296317  0.0033344709020077 -0.0038311620012569
 -0.0019161802403150 -0.0016753181110527  0.0051455299330712
  0.0023227653689030  0.0058268689199508 -0.0022366589836705
 -0.0027745375362451  0.0038277085371631 -0.0026546412808013
 -0.0033192153362618  0.0004726003164589  0.0014893899101480
  0.0033921343706921 -0.0049250511235097  0.0004114976359495
  0.0017908145066901  0.0012264081412377  0.0009596628791584
  0.0038931483749880  0.0006506044477112 -0.0127527210775325
  0.0018746082662898  0.0040979302029956  0.0005871639260218
 -0.0065335989566789  0.0045624449315753 -0.0005428320458099
  0.0003345673679829  0.0001570979700690 -0.0006329678283218
  0.0019196369294242 -0.0035065028939101 -0.0060682728605583
 -0.0010911107484742  0.0019925921788483  0.0028343512497497
  0.0028758705611206 -0.0045070995286827 -0.0030020014992685
  0.0038364099406286  0.0002586825255026  0.0045847952072265
  0.0015013374214444 -0.0017741972799140  0.0010838305747382
 -0.0009456877287301  0.0032804618748656 -0.0014412543815858
 -0.0019922006347881 -0.0007425220680460 -0.0024009236058404
 -0.0016573371110708 -0.0010643470393744  0.0044613148940712
  0.0012237063972493  0.0044670826192276  0.0043870961743036
 -0.0024540756280438  0.0029164672429529  0.0033244957662586
  0.0051957602431489 -0.0056240749799016 -0.0032641007173168
 -0.0001497735853413  0.0059215248930745 -0.0011104173570139
  0.0018299811788279  0.0002040251765799 -0.0032639566115475
  0.0033490146865409 -0.0053468736254667  0.0006307036974264
  0.0007632480373536 -0.0007544661233779  0.0011787025553911
  0.0014740361887785 -0.0010149798899144 -0.0013863182435055
  0.0021019115482666 -0.0031498188680897  0.0030414599087802
 -0.0012040352444907 -0.0026118747686158 -0.0004709522357223
  0.0022548748956036 -0.0002038844164312  0.0004158070089245
 -0.0020087392734004  0.0044965972057486  0.0014988309488609
 -0.0025105209221794 -0.0055364872902728 -0.0032765272252785
  0.0048613221055579 -0.0032585734745494 -0.0044979680402714
 -0.0011916002472954  0.0007542951000922 -0.0008276941865262
 -0.0040258806633022  0.0004836233350706 -0.0028703168721545
  0.0049985285622133  0.0026682745679856 -0.0005050545314151
  0.0005195987244107 -0.0005557301997600 -0.0004241314580325
  0.0017164940389432  0.0005743196307275 -0.0009336172452673
  0.0003524867788201 -0.0019903066237210  0.0000967770706545
 -0.0010072408188737 -0.0021906572883191 -0.0006633462581149
 -0.0003199765384534  0.0034434889959136  0.0010895672826925
 -0.0038686505399239  0.0024986424546335 -0.0017709335466863
  0.0008471298891246  0.0022613938951142  0.0000828708179756
 -0.0023873643958202  0.0005519657558971 -0.0011801525884665
  0.0002400801019756  0.0012468184457948  0.0022723723662892
 -0.0037336566389911 -0.0009813587654198  0.0004731069406829
 -0.0041904449234544 -0.0010008097278457 -0.0006464113312693
 -0.0021545587434640  0.0027565689240741 -0.0023839110715934
  0.0037950584081850  0.0021421549870719 -0.0018682866141878
 -0.0013119616913408 -0.0016613166963936  0.0002840635570063
 -0.0055827198146349 -0.0038533704578730 -0.0035547078141038
  0.0012444742309581 -0.0033792982690349  0.0034182982336254
  0.0009220396570207 -0.0005576253680001 -0.0032181421449603
  0.0014849384757937 -0.0021991445875267  0.0032704905274552
 -0.0041841783986199 -0.0050167207429751  0.0012107761019308
 -0.0017811659254234  0.0027121239696494 -0.0050772519351157
 -0.0032572474376565 -0.0023939346626112 -0.0044950268243209
 -0.0014866216377019 -0.0046003291870380 -0.0060678605395475
 -0.0000020808800870  0.0051672237332924  0.0063478549743972
 -0.0027574266223881  0.0000122508907452 -0.0043790953628338
  0.0034047396641660 -0.0001235015602697  0.0031223418072938
 -0.0000378029867438  0.0026395145880044  0.0012808240727768
  0.0025760726723383  0.0013842751589685 -0.0011752909046176
 -0.0038283068214444 -0.0021116854046050  0.0005675637578709
  0.0011493492551098 -0.0010996517274262 -0.0007751104872320
 -0.0023040104729120 -0.0034695288700586 -0.0019666063565689
  0.0026193244211935  0.0007062075810746  0.0013381034658755
  0.0008464341908811 -0.0000838167861371  0.0033157066461146
  0.0007171821379995 -0.0035589660596521  0.0057557379989404
 -0.0051953588658609  0.0016753981564592 -0.0016483799864914
 -0.0004296694277696 -0.0021983523820566 -0.0013772575595533
  0.0007747953999278  0.0003722836586771  0.0068712271710544
  0.0008182365523110 -0.0032839596854303 -0.0002341027919984
 -0.0044313969493010  0.0029284929346763 -0.0022481812761588
  0.0041587685185527 -0.0017961179677237  0.0009630214341863
  0.0032957590841897  0.0083765170731394 -0.0008831849498602
 -0.0035177631194735  0.0068747060153728  0.0010413275748683
  0.0022387324451240 -0.0031190895899000  0.0036019185728813
 -0.0054392803569422  0.0049298642566162  0.0068160044054380
  0.0016864640830475  0.0026643162541358 -0.0021224348408222
 -0.0007918732695247  0.0006327766791793  0.0054169000966248
  0.0050201879830001  0.0004267818588569  0.0001846025760495
  0.0007322170072465  0.0025874235760681  0.0011477400946835
  0.0011195702129760 -0.0061034203151165 -0.0001392005623898
  0.0009804058442659  0.0017651802689264  0.0034207058761289
  0.0025417465102021 -0.0019498782082698 -0.0006456551121946
  0.0009650886857758  0.0002545764837960  0.0001698410939421
 -0.0001925486536197  0.0039173626791525  0.0048794339277316
 -0.0009325954560551 -0.0061392088845600 -0.0016275388936764
  0.0009829174306322  0.0018412858694050 -0.0028994717952167
  0.0039764686743522  0.0033007009309915 -0.0061140486319821
  0.0026659815264594  0.0029581969747190  0.0083191910009188
 -0.0055138754590661 -0.0003585426014673 -0.0059129355278891
 -0.0059828008805224 -0.0045704225268861  0.0026740639743257
 -0.0088080047584306  0.0006977971443833  0.0023944898768649
 -0.0008973212590252 -0.0036577553577598  0.0004385576851941
  0.0021912730912399 -0.0036268154973460  0.0029646574577595
 -0.0016794680354197 -0.0051573014090087  0.0010432776640408
 -0.0027886130454491 -0.0003930419200375  0.0050974847580745
 -0.0056797624317238  0.0011586373782730  0.0045325638075855
  0.0057390983383163 -0.0015541578529682 -0.0031313859927042
  0.0016707611396855 -0.0055214635314396 -0.0052055786579952
 -0.0088811558081059  0.0046245827605045 -0.0062245009770283
  0.0035831200332892 -0.0010057987356981  0.0020873904419368
  0.0025188877428969 -0.0091471860722055 -0.0061198836736594
 -0.0040981481663758  0.0013376770343527 -0.0003318461873960
 -0.0015215030478239  0.0044727560752366 -0.0017028377677098
  0.0053262703956311 -0.0050661721380298 -0.0011533458779054
 -0.0034520409149490 -0.0038315423393886  0.0032003306056112
  0.0019928559835841  0.0023400741954419  0.0009592541347040
  0.0025533290919809 -0.0000476193601168 -0.0023864586082721
 -0.0077648892557385  0.0038381376317129  0.0048544214169352
 -0.0022254515625591  0.0011654325116646 -0.0054474984238810
 -0.0030227958265549 -0.0004413486862094  0.0008937797730114
  0.0011254761057042 -0.0017520243711682 -0.0027419054007038
  0.0031241477423120 -0.0016257799750502 -0.0010889915422977
 -0.0040503365381698  0.0001392443410309 -0.0044206229452101
 -0.0043345535994378 -0.0058344664889307 -0.0004457643200723
  0.0036255799881682  0.0011534365664699 -0.0047256091273344
 -0.0043937522371382  0.0001686407381994 -0.0006501696268300
  0.0021956649792899  0.0005456717629811 -0.0051895578668477
  0.0026561223865813  0.0015187399968316 -0.0001270978644773
  0.0001186836239093  0.0060570284432362  0.0008800307901096
 -0.0023300950610548 -0.0002225104543132  0.0014061904362944
 -0.0035687324743183 -0.0033360496210335 -0.0022110303185302
  0.0003513452503305  0.0077566035643794 -0.0027669212320360
 -0.0088346468774868 -0.0030942131338083  0.0064044537510570
  0.0026729380821945  0.0028951237978636  0.0018690244674050
 -0.0016089057770737  0.0023081635135836 -0.0023133730163253
  0.0053418405181161 -0.0063593645096746  0.0041721214895713
  0.0001360947762182  0.0061245436855124  0.0061202528353441
 -0.0029220701821953  0.0011255995215743  0.0000503257213867
 -0.0025431753690096 -0.0007274346568438  0.0003328599948507
 -0.0035066486192126  0.0044114365625372  0.0006651727913305
 -0.0005246942235698  0.0016573509960038  0.0012879781962364
  0.0071205130534343 -0.0051629286170517 -0.0048065645694471
  0.0021148379071976 -0.0037706226574499  0.0001687678959078
  0.0012047783261865  0.0010842381472312  0.0032288148492993
  0.0035494474751674 -0.0020800615306299 -0.0004010397232384
  0.0018887976358368  0.0025508260195754  0.0008815928421961
  0.0006987238349119  0.0045881779927473  0.0072595843026212
 -0.0026220711017423  0.0019131460157210 -0.0014077002535076
 -0.0007692691905778 -0.0025197340345258 -0.0119184890306142
 -0.0030539103793101  0.0004344638306237 -0.0002309217447756
 -0.0023052256000233  0.0005856122604674  0.0048131029726197
  0.0033228073074549 -0.0022146747841332 -0.0013356056415260
 -0.0021012843840913  0.0038954995870199 -0.0004080161024683
 -0.0034564644713502 -0.0077057083605732 -0.0004495946629509
 -0.0025384895464768  0.0006175904691183  0.0005558243425753
 -0.0039549393379768 -0.0027745297954851  0.0004501312968995
  0.0037097947335503 -0.0021979499191369 -0.0005008112007732
  0.0036963545644837 -0.0030883680565811 -0.0033044041898895
 -0.0044650915148031  0.0030544375619687  0.0041684748238172
 -0.0028962725848299 -0.0029774551227727  0.0005325431774555
  0.0026863147336334 -0.0030598522479534 -0.0029878511110328
 -0.0001263630349951  0.0052038732194118 -0.0010655291146080
 -0.0012416745063548  0.0083064365128949  0.0000769114284382
  0.0016650095499513  0.0032690178449084 -0.0002884531229315
 -0.0025479918260120  0.0026152090393986  0.0005450331110449
  0.0028533119092693 -0.0119232481120817 -0.0031582407136914
  0.0030082969001512  0.0001261912494794 -0.0033709692019059
  0.0038622884938279 -0.0030448786170848 -0.0004734927960892
 -0.0007606963703605  0.0080835905738242  0.0017208459976760
 -0.0031872348068466 -0.0037237814093769  0.0056331876325737
 -0.0017148292715075  0.0009944413026945 -0.0060144965954487
 -0.0018027103111055  0.0003741016448031  0.0043602881348683
 -0.0065106429511518  0.0022094047124570  0.0009919683073496
 -0.0020197055946875  0.0047654400100000 -0.0034334788089921
  0.0068862830612091  0.0002544441768397  0.0031068074760062
  0.0047517405061015 -0.0053079748378696  0.0011695217541179
 -0.0039387008271757 -0.0013499810437593 -0.0035041016338095
  0.0118909744363394 -0.0011016993254667  0.0069685401023955
  0.0064381243848852 -0.0017225038360744 -0.0071442259471464
  0.0009720183956869 -0.0028847960785295  0.0044123474613008
 -0.0015359507824296 -0.0065137623796317  0.0065100606142049
  0.0029085228248305  0.0033865668639105 -0.0067078081981135
 -0.0049760388687516 -0.0037646374651326  0.0029021844059028
 -0.0013844527556133  0.0062243248330744  0.0091619540894457
  0.0037844630404839  0.0025731345211394  0.0064055074057387
  0.0094092088482202  0.0081102889059457 -0.0059836157034323
 -0.0034832736796919  0.0050634060614257 -0.0012454345222906
 -0.0004869951504543 -0.0032302698092152  0.0021941914227374
 -0.0060677413919507 -0.0061893850218600  0.0057483016222931
  0.0054913461545710 -0.0069188215398860 -0.0015688376721211
 -0.0019129628638964 -0.0029180337956546  0.0005084375092690
  0.0057016178395934  0.0014505341136144  0.0080768267684295
  0.0020570744446670 -0.0035124694008702 -0.0001439917231350
  0.0012781423574099 -0.0047700911366876  0.0033525356332221
  0.0034510682624579 -0.0029457206309141  0.0032927280144795
 -0.0001754285138618  0.0016067897884818 -0.0021323121895490
 -0.0069023260311666 -0.0002077172718945  0.0134240713510086
  0.0002253666946894  0.0032541168727526  0.0008592589276536
  0.0040452605127316  0.0005242451985106  0.0010266743384419
  0.0003160215910550 -0.0040487085073584  0.0019330935328794
 -0.0050576393766592 -0.0026611859646682 -0.0037785328884567
 -0.0001721449629519  0.0017592333130260  0.0050495867664697
  0.0021971572846382  0.0023671511010047 -0.0016260973227359
  0.0056956773107522 -0.0079836180475171  0.0040345219522626
  0.0005015586093786 -0.0004295762038458  0.0023421152252704
  0.0045423285215219  0.0003246939809735  0.0057888671866347
  0.0031283770246626 -0.0004894256385160 -0.0029031771636699
  0.0027801795422865  0.0038818024536508  0.0028809508363169
  0.0006824564777478  0.0025460946360626 -0.0021769170186188
 -0.0058868859019771 -0.0011479900130316 -0.0007249079536094
 -0.0025118217160225  0.0003893599545717  0.0020704871791621
 -0.0020376484295625 -0.0004530165506414  0.0015855711974157
  0.0018097282005335 -0.0087585519665243  0.0034365420068070
  0.0043387845650060 -0.0044259444401501 -0.0005238366751235
  0.0039821380622039  0.0053674118265973 -0.0029309367072288
  0.0004388065155731  0.0019528778249806 -0.0062372420698624
  0.0037919122641563  0.0016357927039877  0.0024499893782048
  0.0048956205419016  0.0035170614619709  0.0060685144454274
  0.0033815765985444 -0.0007738172235913 -0.0021197619532370
 -0.0013645712251892 -0.0016666403282155 -0.0050814488655192
 -0.0037028378851235  0.0065937592227967 -0.0062122630169532
 -0.0025541881099278  0.0032557358080340  0.0051383330282154
 -0.0093224745244516 -0.0039834371550122  0.0008385512147097
 -0.0080234513902159 -0.0039002164005689  0.0026496631775870
 -0.0001108472986979 -0.0064774931847838  0.0030703416506434
  0.0037455770636056  0.0016065359562766 -0.0005173780739442
  0.0029558910933703 -0.0006470657418380 -0.0006895352182546
  0.0024778454642259 -0.0032532529769304  0.0058327152103605
  0.0061175626450480  0.0021032632431195  0.0056285869441141
  0.0017457690841578 -0.0047377707734509  0.0020270464553080
  0.0024479081352715  0.0020248628836995 -0.0022538918625555
 -0.0007217252777082  0.0014419142125550 -0.0014875882503411
  0.0019113840677993  0.0026390309376007 -0.0023093795700421
  0.0034111207219810  0.0038268967666958 -0.0107058386115795
  0.0012513682160349  0.0015269410099595  0.0018320613145764
  0.0002829627395524  0.0028635165574339 -0.0014383651605299
 -0.0017972636717844  0.0012645650863373  0.0042900304834741
  0.0032472006350312 -0.0068141408892759 -0.0005536626442236
  0.0075090276174105 -0.0039471471718276 -0.0047763879610875
 -0.0001924642335393  0.0057113713165517  0.0062988915260618
  0.0028205221026667  0.0017620582836972 -0.0038724020252520
 -0.0073352281454289 -0.0025170512380536  0.0022392787506290
  0.0015575222150195 -0.0008547207784786  0.0034747325820001
 -0.0047681645730214 -0.0029553214781640  0.0036568065424868
  0.0040700039555273  0.0063205100618271  0.0060205348011909
  0.0015491512031056 -0.0034337065120496  0.0049611311982812
  0.0029155257862028  0.0002125088254327  0.0024142161142014
  0.0005320473854354  0.0002830994696912  0.0002259601729680
 -0.0013715965196913 -0.0035576299349728  0.0041250528705420
  0.0002915695514172 -0.0025869572463263 -0.0018716555657976
  0.0017693461691867  0.0020947748058310  0.0035120491649488
  0.0017377263258146 -0.0070195945812281 -0.0042887420908787
 -0.0051698278549228  0.0034019273010227  0.0034846950137178
  0.0072974886056737  0.0025858080469236  0.0032640799670152
  0.0022513263380299 -0.0055298585686433 -0.0012921122413456
  0.0017933477711142 -0.0085721699359158 -0.0045226352474134
 -0.0042147677354676  0.0008325373993732  0.0018185925213654
 -0.0003342066029887 -0.0049396042003341  0.0027648494886624
 -0.0081693801177642  0.0018491047112987 -0.0025233275312167
  0.0050875210268600 -0.0003066660496011  0.0046458088246526
  0.0051847058018275 -0.0006142346194877  0.0036137469884776
  0.0055019960806054 -0.0023379430536681  0.0030658896806847
 -0.0031173633539566 -0.0024312087493274  0.0052800271180454
 -0.0017107739383246 -0.0053731786591337 -0.0012686395976748
  0.0060912136289557 -0.0007803697382185  0.0022056718601426
 -0.0071572116800660  0.0065090020324912 -0.0019053496618729
 -0.0035071762030738 -0.0024466374026822  0.0025264370155646
 -0.0036567577371018  0.0052802674645314 -0.0055287545044366
 -0.0018829417657066 -0.0089236329651463  0.0014750680459145
  0.0028490507508995  0.0043413002622513  0.0006668008782209
 -0.0043463231676223 -0.0009457730658085 -0.0027240308020653
 -0.0006534183887102  0.0012653073487472  0.0014595542811067
  0.0037023434822953  0.0033029158074877  0.0054402988174696
  0.0060602533024364 -0.0003710013943677  0.0005974184922078
 -0.0030430830908441  0.0049101226069836 -0.0029107515384691
 -0.0045196319498115  0.0035751627686230 -0.0043355991489599
  0.0000432201345153  0.0040798542841859  0.0064885886384631
 -0.0007071055660631 -0.0061519706596809  0.0000336408031407
  0.0057751744807409  0.0035197361240358 -0.0059999369597135
 -0.0007462521742679  0.0006740541803197 -0.0014551812592607
 -0.0017890193348433 -0.0034726503479950 -0.0013388837854054
  0.0083773762103827 -0.0017027408929996  0.0025191184377540
  0.0028779379164005  0.0037262168164254  0.0018783671172772
 -0.0049610438227522  0.0072767769034846  0.0034109927378377
  0.0005318252278491  0.0005786327064620  0.0041847002902514
 -0.0037118742395545  0.0064726810852234  0.0054283106349168
  0.0002434948690668 -0.0035482377993944  0.0040639309127357
 -0.0075308387483093  0.0054631573096973 -0.0017959457538842
 -0.0008040134090807  0.0034724579190316 -0.0056080563115776
 -0.0029732721718623 -0.0025523726720791 -0.0004311570799077
 -0.0036842084122311  0.0033646401111692  0.0026664384153840
 -0.0013737909893311 -0.0021123251898537  0.0028945199972946
 -0.0072654899162102  0.0057042916929748  0.0019895750161216
  0.0077966797109837 -0.0049638513276022 -0.0041916119696896
 -0.0088118874506640 -0.0034359380090731  0.0023652913380561
  0.0028614041502391 -0.0037253694994599  0.0044359073420668
 -0.0029977927331418 -0.0041880967922708  0.0036688227985942
 -0.0000480752668877  0.0048752799034082  0.0022144970870334
  0.0015694474043106 -0.0015505090212521  0.0005233868945633
  0.0004831912295129  0.0018822916607052 -0.0015485298727488
 -0.0003380053910630 -0.0017824687349816  0.0026832300879988
 -0.0045620406879636  0.0043448659570062 -0.0008129945453147
  0.0025723483166018 -0.0070920949781676  0.0001013437734568
 -0.0039936070640140  0.0009092118771392  0.0027139966395800
 -0.0018916804305272 -0.0015993160256828 -0.0056336621678759
  0.0070957632974728 -0.0007569851891707  0.0062792230658292
  0.0024490038446241  0.0075358695790909  0.0034161491049140
 -0.0021730189932792  0.0049681353756792  0.0008603608834236
  0.0011872028600457  0.0110334059949401 -0.0046284199834057
  0.0027340257243429 -0.0015893603773338 -0.0025642453608081
  0.0070370346093977  0.0004108409315492  0.0044490119350764
 -0.0027744603251805  0.0089566225724666  0.0046667477752871
  0.0009219432650252  0.0060593154010804  0.0000924287488236
 -0.0013307093369414  0.0016172415924215 -0.0036683610350653
  0.0034228102198190 -0.0038768864893715 -0.0005583783086216
  0.0011817347366660 -0.0006689299746331 -0.0043580612785205
  0.0090494313248915 -0.0046889607415997  0.0010362429631185
  0.0075246333167665  0.0004288661833288 -0.0037303101977150
 -0.0005731789301023  0.0083068455033864 -0.0003096191580192
 -0.0014576768425943  0.0011547068126847 -0.0014187747832858
  0.0074457692829219  0.0012314170372898 -0.0041531682354683
 -0.0020649549523918 -0.0017661919561274  0.0036898201875318
  0.0021486715271679 -0.0021543030672099 -0.0015557642840095
  0.0008612888308378 -0.0068190366165680 -0.0042202628959572
  0.0019663198168420  0.0003127556599149  0.0004335627587413
 -0.0004631609567781 -0.0029126437625394  0.0021493987559502
 -0.0070224326220916 -0.0030470427197626 -0.0055071084533324
  0.0017075691980686  0.0016206897557044 -0.0038236938215207
  0.0030884316321524  0.0018307242238827  0.0033861989123363
  0.0029345552109634  0.0002666478848127  0.0014790850688630
 -0.0003448518867747  0.0069760254562215  0.0003832227240423
 -0.0007716266635520  0.0032497868505832  0.0021150411058358
 -0.0098896988579495  0.0000087315844524  0.0068706481159588
  0.0096744582021346  0.0024317726359020 -0.0095491608162903
  0.0003004913118854  0.0025343940869869 -0.0015502371062813
  0.0029364709843323  0.0047926217081280 -0.0028225652103166
  0.0039446159105598  0.0012082131781279 -0.0015606602123898
  0.0023451490959243 -0.0027315464006679 -0.0004440661498950
