Na B  Si O  Al
 1.0000000000000000
    18.7797262657589350    0.0000000000000000    0.0000000000000000
     0.0000000000000000   18.7797262657589350    0.0000000000000000
     0.0000000000000000    0.0000000000000000   22.5356715189107213
 Na  B   Si  O   Al 
  17  50 142 375   5
Cartesian
  9.2717491550725271  3.9878287659800398 18.9150184218607258
 14.1466388758442587  6.5015149884043071 18.3983920616295720
 16.6965093664831166 10.6498237766310027 15.5938283111354306
  7.6436649426849357 13.9550003189660625  5.0212165909482982
 12.9460434776414424 11.5453003676627119 16.3162541167096791
  9.7206052792506821  3.7502673686512731  4.8818618895245187
  3.8053746340183463  8.6741585944029858  3.8972860933738369
  8.6772624888373748 16.7505265003922510 15.6200498832282388
  1.8460015310336153  6.7227791939672610 10.8451117328741109
 14.3542052145987959  9.6587176011192639 12.5732040321733329
  4.6599869477119551 10.8528056628501623  0.8650041229565752
 11.6027340859501287  7.1769854003320317  0.1615803068602657
  6.9016660901852784 11.4319978428946953 14.6627237526948200
  7.4729503944978761  3.9089710321993381  2.1140746358819880
  3.9050801498450314 18.7430969328440824 12.1429155532248636
  1.5855873986088052 11.6817500201102007  1.7602422891649130
 15.4127699814966537  6.1258146282519643  6.6937540977868331
  5.9644161630147794 11.4784458203538637  3.6165779782036598
 11.2288413239798270 15.3433435395029072 15.7983545759536419
  7.6930347136074611  6.6080731584572208 15.7137313566095944
  2.1853553783281274  0.7687460290803222 14.7155010152422054
  1.6710722176896737 13.2378663058438359  4.7307702677356351
  3.1495979399948637 16.9368707297942898  9.5146923276485875
 14.4706977459221999 10.3009159417625487  3.2001613986002120
 18.3144042446269886  6.9914629600033003  5.3152648577812975
  8.6916770315314285 14.2354587568092494 18.6062489625711436
  3.6116380124717251  0.0706892149970612 21.5517889425780780
  7.7693454863586187 16.9633847295809908  5.6247142190866253
  7.1006406362871939 16.7127971832927713  3.1175317881962390
  2.6053510528668831  1.9666214903195052  4.3582343053390042
 16.3488063783556115  1.4731923102905122 13.3328362864782104
 18.6259234770797164  7.2409978732878066 21.4901965166772904
  6.7935532239769074  4.3758065717581136 20.8763254585621212
 11.1275235967819270  0.5847292290504573  3.4676967253309541
 12.0051947695436958  3.8670890771093385 16.6985125606624898
  1.7164047569982726 14.2432552293140517 20.7231787132691530
  6.4226485096121220  8.6029352541374173 14.5839977052649630
 11.3247095501356529  5.9060766084973153 12.5883468400175733
  0.0087607071787543 11.1733277718841570  5.8511726142397666
  4.8776613595213343 13.7829603938098249  6.9075970277437131
  8.0712527879787164  1.3139579312755296 19.5532482760286292
 10.3337253205537678  6.4302503868680940 10.0662617221594388
  8.3940898056898572 11.7106560030018567 20.1345710536212650
  7.9037822406356320  1.3237317077307653  8.6165526362284837
 12.0306213939904332  5.3323929843582993  7.0984381206305942
 12.6105340847593634 12.2905982045387674  6.3895953514215194
  0.7232821729775123  6.7800767009106409 17.7754214400698167
  4.5901529504168046 17.4282092809241718 18.3760383866632679
  9.0115941453094948  2.1861595766854127 15.3382578270573937
 16.2093465757134538 14.0227303276597226  4.5234757182437706
 15.4152854639773853 14.3106950196049709  9.3377720512390798
  7.2428746923974083  0.8631941029113073 13.7047729812132424
 10.9959654283287733 17.6783221270116719 14.3396845482848416
  2.0147051376120584 11.6523287448118626 20.4391405346188080
 17.1581185021780236 13.0782999817293977 20.5650344626964561
 12.4993015848140789  0.3477207139910021 19.0673243147390608
  4.2824405293272951  6.0180027719490239 18.9709848553662184
 18.2519776563105118  1.1621945359928707 20.2663911726335506
  5.4786060923278050 17.8664372484016489  1.2054469659325620
 10.0086936527290504 17.6216875342320876 10.8581609684836629
 15.6248976184432156  7.7652187114853817  1.0042458899042581
  0.7459918979704281 12.4831784560082912 13.9183031935295851
  2.4335629493293061  4.8558695560816689 20.7104121584325078
  4.2699916931917841 15.7661169404816395 13.3513025049387810
  5.7809344923784387 14.5809816345211445 15.2144650241398534
 16.0562098424078066  0.9931100723798423  4.2166095377215758
  7.2821753075871118  9.6904554407810384  1.9233920345890816
 17.9112919792820726  4.3124323759606957  3.1010515685934017
  3.7307462836643466  9.6176322848615072  7.6548994185504924
  0.6313537810064395 14.8830839779184938  6.8276454610289319
 16.0892454962732536  3.4172370580371370 19.8021750457090029
  3.0916572574721051  2.4895521992480756  9.6945636524227670
  8.2043469047397970 10.8639626551355040  5.6121756259352393
  0.3377933551267930 14.1348126263810858 17.9946730851974834
  4.8928622423827823 12.3871251866583947 11.8856996658201339
  8.7432336056242264 11.1839712388362091  8.4798602038638613
 17.9381027671089477 15.2022335857359607  2.4825405166431813
 16.6571380120291757 17.6518723388787677  6.6201979460877274
 14.0155142675196931 12.3056653420096946  1.1402814214757431
  2.9752094393612372  7.7910085930198338 13.9735550721341895
 18.1395435667331704 15.8823948528502878 17.2476152901708062
 11.3802524325725400 15.3555926237322513 11.1295371987350027
 16.4300048397764691  3.7920390369306451 16.9862883884248035
  5.9806077461842913 17.4797770922721654  9.5326848512286428
 13.3776843581007263 16.5952762206055517  2.2521761126335154
 10.0183064503325596  0.7073676386369435 17.5876762143639596
  6.6816807325412553  8.1842011040770206 11.8897204190125692
  3.1945187493133047  2.3604439296521771 19.7248582436507149
  2.3321933656015728  1.4095287573326039 12.2040130429429770
 14.7843306043786971  1.5955371399166476  1.6862873338291242
  3.3522814742934042  7.3359322058102601  0.9732813874165811
 11.4716073754872561 14.4342161913313447 19.7666500731718422
  5.2009619727461249  7.7308017761490246 21.0359868579272238
  9.3766742999972585  5.7190836785197190  7.7233146015156606
 13.6166767766873029  4.1566736358275653  4.9922357934400008
 10.3437928821415213  4.7686723212264193  1.8850069428069345
 18.7189404339488910 14.2340348754177874 10.5845274733566583
  6.6087005386342996  4.9593764623604626 12.0093813252252684
 14.1471115103405847 18.5159456467458163 15.1524241746423041
 14.1672625459775290  8.3153720925312609 15.3774974798328241
 14.3320803699073558 16.5501751563722941 10.8732422507456601
 11.1297702152286195 14.7390996495335713  3.4737773728431556
 17.5526717551729590  7.0514319980245501 11.2807732260614770
  5.5345383981719696  9.4494575992289551 17.1343492272116364
 17.6275276721588234 10.5616470238098152  7.4770390837068854
 16.9470682027294259  7.8841890756356960 14.1876565062990796
  1.4999700463505596 15.0907105144962195 12.6718161935410425
 18.2311238845135790 15.8690168578073312 13.2629103535365562
  2.9889837412094238 16.7938361576667141 20.6475326052783821
 10.5269699518746798  7.0668375555463960  3.7477784814372952
 11.5174545990952470 17.4868859510784453 20.1498244613213835
 15.5619619558341675  8.4727275005666005 22.0114373612822689
  9.7476654155750015 15.6107843856386275  1.0882994348248414
 12.3962030334668114  9.6318017330370331 19.7435731995783001
 14.4000145488811349 14.6012171732403360  6.6202915607603110
  6.4918607816416145 18.7280760402000190 14.5515487279933602
  5.1542005788505119 12.5490814723120909 17.2644752607471439
  1.2736847577106827  1.6459640825290596 17.3255613440624430
  1.4525393437096492 17.8250522497739574  5.7564755890713748
 11.4162847314851064  8.6914467909481541 14.5369213621779583
  2.3605427749079659  1.9234961164127855  1.5714669295180479
 12.8058798935253524 11.3087855740156673  9.2270868259592635
  1.0866637658495109 14.9813605956862190  2.5001509668874631
 15.1560488143309513 15.7059630293097694 21.7400004685654125
 17.2806272959797482  2.6041776135169248  0.4292178466107263
 14.9437550179934053 12.8874709254602386 13.7422364848820902
 15.2806049357837654  2.5820556171725220  6.5802484875300831
 10.8118916752936958  1.8429959755342709  8.5808104571805313
  6.2946540583925632  6.8861854611056774  1.5589522617732892
  6.8227224275535452 16.0627391931392118 21.7146503987446522
  4.8489462550933835 16.4626582007019806  5.8079513314515472
 11.0915254130838221 11.9137395746554269 21.2300333074425573
  6.1224478719962567  3.5152456565694727  9.3240773025799548
  9.4546293599617641  4.1461325652292116 13.2743645109968931
  3.3519788585207664  4.7895836140720194  4.9897513413417727
  2.0368669705614653  4.6948782260967317  7.6745724509228443
 10.2002270551820935  9.5403024881658052  1.8735644320222091
  3.8755204321492447 11.5456660510244244  5.2769000635641063
  3.8465856071783882 18.5236546670626581 15.8275551816010420
  9.5115482488119305 13.1784798900172202 16.3777028978404822
  6.0111869578807440 10.3541569161081188  9.7452857306986278
 15.6162196983330741 14.9005364403471443  0.8355653409360516
 16.6587649075575897 11.1387601064611612  4.7743210911192815
 17.3387913103804614 11.9931719699021162 12.2435939816913635
 15.9688629217701248 12.5413064212743617 17.8969143602485588
  1.3245397370370489  5.2224633303111352 13.4783475581108600
  4.2505529482665283  5.0889511187388132 13.8423102950026511
  6.3882293510923818  5.7368547110456429  4.3658479383841708
  6.1993824932623838 13.3226664889829518 20.1761121693855401
 13.4561329024143692  7.6161290873577956  3.2685163504690387
  6.8433445486795126 14.5199602652631974  8.8724053602055424
 11.9219475589842663  1.6373280878008136  5.7958287154112034
 18.5474254530694154 15.4111970239518339  7.9399703359652065
 13.6769947738426865  4.7757094134492268 12.5300139186675441
  1.3867380510981970  6.6851595479538402  3.2524945140779296
  5.3332955305266045  4.9823275657901469 16.5308111919387066
 12.2704083618162656 12.6289503790557927 12.0144141798465931
  0.3213484419309266  4.3799362828358914 16.4032940748961096
 13.6343344609803463  0.1618339750852469 14.9601860267064346
  9.3209773749280380  5.6041248447460781 21.6398160184424704
  2.9174102443221850 14.1385076312166404 10.2845782054196135
 13.4965232553493966 14.5578209287158504 17.3573847335437073
 15.4966362208560380 16.1515408265909350 18.6655125441662193
  6.0857622449414945  3.0121319391750205 18.4937043401141636
 11.7477316373318459  3.8385021920455471 22.1460039275130853
  9.4442953423538203  9.3451119196764978 12.3380958610323628
 13.5483667757403499 17.5908414366544363  7.0966316031213372
 15.8472834867891628  4.6885570983232645 10.2686473639461262
 10.6524732109394211  9.2740175915157632  9.6073421198314115
 16.8353109893000514  6.7947923524019354 17.0477487423873484
  7.3317746535862929 16.8288412813001571 18.8313454316277316
  6.7431992653195385 16.8176830784821867 12.3178075125600675
  1.7191248295630999  7.5321973251186067  8.0192911793536243
 11.5856565549502282 17.8321877441374070  0.1702234071902966
  2.2086306898786026 11.8319664917696841 17.4939264816762261
 10.2914351829648592  7.5005973231896030 19.4702137499041328
  8.0873529443808270  9.3944342503803426 18.4907308457727062
  3.8214553245323470 16.2789801816459985  2.7753813626402155
  2.6763832309156510  8.8530813086751898 16.9194694889035837
  7.4579081318219300 13.7883231418905954 11.8652063912744712
 11.4969263810340934  2.6149955510484939 11.4641865642183234
 16.2937278878493821  5.9676988058721401 21.4348057416572999
  2.1107133908279692 11.4288641849147741  9.6686179661638949
 15.8232979412208188 11.5556270025655294  9.9399178859488746
 17.5458650942732710 17.8250172248709440  3.7059892808227528
 14.1462507293897950  3.1250155979907905 15.0041448868613365
 11.0008880371595978 11.5745551998456762  4.0728802345251829
 13.4015971467498165  4.1491005989945622  1.8972422573861218
 10.3108250526394638 15.6828190491274864  6.3496281522609284
 18.7594960230904739 18.5739310608428703 12.0168283861696583
  2.5893961280576256 10.6595038836108529 12.7563623028241100
  5.8710282037339372 14.1856384662416204  2.3449322614401669
 15.1243930451530453 15.9467891692382171 13.8798019796909422
  8.2260439322806747  7.7318127381062602  5.8063038907709883
  7.2320681473833570  2.2437639177914512 22.1219669763408113
 11.0613371930431086 18.1197717539100616  8.1766707862293462
 10.4970915117623402  6.4239228494349261 16.4839471543630260
  7.2348363422610431  1.4830301094666418  4.8106502082446934
  0.9340057420173044 18.4386370905839136 14.5804541662814753
 15.3715286297813591  1.8414860130293720 10.6806171068526456
 16.2395809686740868  6.7715804057896865  3.5872972372070691
  4.8969558434493088  1.4732027492184943  2.9341698264290317
  5.8811806325231979 10.6757365673283164 21.6520720402613804
 18.6110274634538833  8.2322722626997979  9.0090959380042932
  9.0808939574469836  1.7688208830809369  2.3013800190238238
 12.9503089654245862  3.1219932081424662 19.4947619578027265
  0.1149053692186922  4.0796789341928053  2.0637800834607081
  9.9138633757982504 13.9957112329423659  8.6275160459817197
 18.1428058533023986  2.5470586827875108  7.8748853691981839
  2.2765365210783912 15.9815055797805261  2.8691258934122064
  4.4053493155029324 17.4904882978712131  9.9070279945154311
 12.8449915563106725  5.1842475114738988  5.9820567308420962
  7.9752066774086332 17.0546482711220122  4.1350362928910078
 18.1328792274790942  5.9895035696445209  6.3312746269400613
 16.7561484817553428 15.8847600581441348 13.8872006793934162
 16.5333407265558456  4.9551114165255203 20.1740113282622460
  6.6321274233004228  4.3990598776315819 10.5244394761703326
  5.6237842912866105 13.3016053354995218 18.6641217968258282
 10.6137845722267876  7.6931293260645743  9.6233592664023462
 15.1697386033594075 17.8142045963475439  7.1542459925925259
 16.6421259891157050  0.3982499966525399 14.1410742090416139
 13.5082439806011951  7.1391390304857616  1.7391888476448212
  8.8224760378345533  4.3300810492185144  7.2336762115160838
 13.3917511732523806 13.4387598135148796  6.1975076191037459
  2.4830024193413962 18.2043044186031366 15.0086852802723971
 13.6587394490739200 17.4784631389230434  3.4983726307738618
  6.9949524631561895  1.7609758939078100 18.7182953283465530
 10.4563974755597933 17.0213323773371492  0.9160860957395957
 17.2875217023886485  2.5031253965527189 13.3524375222429015
 15.4955286293349701  1.4136093912914736  5.5386941336468096
 15.5522418043385287  8.5187451580707894 14.5313578690457490
  6.9477099214746394 13.8286748905057113 10.3346684874940387
  8.1191856584541249  1.5939024287892667  1.0925623267507509
  6.7799043038929900 17.6343278237182339 10.9100688819969633
 10.8886807188263894  9.5515488955994368  0.4208761792333681
 15.5294209733223258  1.4644438548742713 12.1862577666734229
  7.4946322481549563 10.7996028662458752  9.3525223767999517
 11.1137528592130010 16.5310074149319703 15.0893674541274745
 16.5677329037904499 18.5302688038083581  2.6302047513422844
  0.4436013157162220 14.1553296031811975  8.2028918612465542
 16.7012315415572310  5.2370803602666109  3.5440908244661045
  8.0634296772098608  9.3184510645660641  5.9355588264998485
  9.8064388937555176  3.2352954400800074  2.1095149023433528
  9.2210102884848038  3.3673332319925562 14.6046610115852769
 11.7415047664574992  1.0825906932508804 11.9792458114543923
  0.6152322395578946  4.2858224708013770  7.0742646311120518
  2.7920124861153583  4.7299274338589097 13.1755671511783898
  4.3773432742671057  4.5869771344506178 15.3286423719651399
  0.5803727434304012 18.3753627268936341 12.9864561739439530
  2.2092370254594358  7.5345730247882168  2.1211803213876301
  2.0936539485032850  1.8661511914967197 13.7178770377689858
  0.6814184825586774  7.5408922110560788  6.7486972743859148
 17.2104289293004875 15.1943977791067564  1.0282992890666776
  6.2572577190618652 12.9194939020787807 12.5497309591934005
  5.5832604039867446 13.3854696902817700 15.9442915147297288
 15.1193390125872629 15.4368623648136936 10.1118198140939235
 10.7449011953317335 16.8176414498944986  7.2745119027269851
  2.9209794062871186  6.1651178146917118  0.0306668560521956
  5.0899835885574038 17.9358759672614596 14.9882666966716300
 16.8555415848403349  5.8469732671129178 10.4778519128783270
  4.8137430929448932  5.3148833946952774  4.5508929117692691
  6.9516491983670896  2.1240087491054065  9.2375466234616752
  9.3604654127715037 18.6651370121250793 11.5363972826436072
 10.5320509126699910  8.5894039587345912 13.1987062824074446
  2.1365361120700692 10.3667186145764880 16.8130560321372720
  7.7826515709359612 12.9523316958650909 20.3543251373901946
  2.6300243778496437 10.4860705524589921  8.5287257177528826
 15.0429307929994387  3.9439731683176702  5.6832469340978253
  5.6474400622240699  9.2884006145980482 20.8711217438899972
  0.4677986733329583  7.6276739286369617  4.1894347928686244
  8.9886270304847269  8.3904318345089131 19.3325804724355699
 18.5543591785245461  3.4679423217984717  4.2730911278968957
  4.1846970790217650  6.7357127152293073 13.8114908824544376
 10.9607882319322183 10.5334850726083555  2.8830942852716843
  0.2314170420337196  9.7845476556761231  5.7553721608997046
  1.2336964543466160 16.3343922254867202  6.4830052338555859
 18.0265902237353473 14.6016538558906657  9.2328179623900812
  4.3929922085008677 14.8186260650748363  2.2623321364911400
 12.6789806588982170  6.0108961463970196 12.8676198435741433
  5.8659728361059118  0.7692925564838059 13.7966687929954812
  5.8858505456313681 17.0395638506138205  0.0879630131602017
  3.2757019164467573  1.0064977120793601  5.1609008193083588
 11.7049940495081923 10.1208567216332064 18.3554717579391991
 14.4176031509562961  4.1978881772895003 13.8099583133426655
 13.8649401126169369  9.1567970742267413 19.4026539338874322
 15.7249751018319266  0.5929789450209680  9.7648622251786623
 13.6350486998909766  4.5323355529905367  3.4314096807473469
  5.1684490371623051  6.7894891487864211 19.7254354728634631
  4.4456823534073600 15.0712157703778367  6.5223450432015850
 18.3766070329423918 15.3652034487417612 11.7377434048641032
 18.5058789917723168  4.0937353981394260  8.1127147912833628
  2.8276378823921169 15.1959421979183062 20.5583165820881781
  3.7591592595678351 10.2571157610774879  6.1978151072832084
 10.1136699008010158 14.6570357425708888 16.1604682634140779
  8.1565688176133069 11.6853174229436192  7.0134949592217479
 14.6890611487675748 16.4929348656703105 12.4301882066659779
 12.3105712953795887 12.2169078673405664 10.4681895457186851
  0.9589369663316171 14.2210577518811601 19.4373751978018277
 17.5698125424455966  3.3903495975114692  1.8467015160531952
 10.6609511599055793 14.4883732263021425  0.2954987966337156
 17.1726803809879129  6.9404708145070124 15.4744308077465984
 10.3259711662618177 16.4443323924358467 11.5092272030914273
  3.5586204567683368 12.5080524895626191 17.1910301315124698
 17.4075650719517228 16.4073464067304009  7.3407364802996247
 17.2820947735731636  7.4712394216128910  4.5970830784336618
  4.6136609967810980  2.9972102424292340  9.7325558804177508
 14.0607162330765441  6.8412313639820663 15.9245886899156144
 11.6220707900657487 13.3945709929188830 20.9253924424199838
 14.8558198007994235 17.9892150157667743 10.4364628922823854
 13.0179450695868226 18.4474031686074724  5.7935804143565948
  5.4453829160145535  4.5921230966401181 12.9712348978613186
 11.2234364790362129 11.8480905183182301 12.9282087910496646
  7.2476154757658540  4.5506472983610520  4.9885823855015072
  6.9247980351286014 11.3596332883893858  4.7764904757083109
  3.3084842865285324  2.1402689905727357  0.3450888721796175
 18.2517377527652869 16.6445517519144488  2.9439319054343347
  7.4735840487202942  7.7384491180790969 14.8695491446866637
 15.2455873244816829  9.0927096474004951  0.9521526050414705
  1.6267864897711288  7.9030473788664448 17.6300334170030872
  8.8001374941680996 10.4966279784927536 13.1778605432905955
  6.7589317539727514 15.3895420345440286  2.9010688254355173
 18.0789468047975070 16.8726394696473996 20.9382836940302575
 18.3950510211627396 13.7148315832034982 20.6076799951424050
  5.1148911179058141 10.0303446118160000  8.3860990098005193
  4.1402125692084031 17.2297762641682191 19.6622493660390347
  6.7565163991051236  8.7240965973118758 17.8733731882628817
 12.2103894183482353 10.8650229109264025 20.7954320190664390
  4.0878314359262609  8.9000612115993221 17.6127261859211970
 16.4306790469253450 12.9026862366354003 13.2297226199606541
 16.6628792980265317 15.5242037214767574 17.6823254734918756
 16.7151238111263396 17.4108903406816786  5.0497623839408625
 11.0270102518899851 15.4532119941520172  4.9465400513780367
  4.6531527047989192  2.8620560412795899 19.0620661910282188
 15.2457449747333698 15.6868994286724757 20.1604339288694341
  6.4580355480365546  6.5827812740131630 11.8504162732226934
 17.5023346760012330  1.2059008244698977  4.2634985803959387
  8.4311505481648688  6.8474787534203561  7.1849079874591482
  3.9491118203904114 11.6418727674581266 12.9472741504193340
 12.6962397830287710 18.0230012859092916  8.3520376540990515
  2.4709867506621044  3.4599232465732328  8.5493959223117759
 10.1009547517359124 17.9369726893926931 20.7361694955056493
 10.3345362946654440 17.8614231709193234  9.5245812346723060
  9.7995835155199540 11.6437301716605379 20.3775539005523001
 12.4605697263808235 14.7940949175239638 16.1876961795988237
  7.3719956931054540 15.3250185381405561 12.2544360004212098
 10.6465102591766261 12.2698820179257932 17.0138207615048636
  0.2876126451206845  4.9720284204453158 12.3296227029759464
 14.5951153151365531 17.0267942437753348 15.0202033788709226
  9.3368614965789014  1.4637516318502783 18.7925827234326981
  0.5857669356263887 11.7434505645023091  9.4322037662111313
 12.7376412609429046  0.3062094084967369  6.0308003668270524
 18.1890267586458840 12.8900480028341082 11.1866492290151420
  2.8627248974241684 12.8511794136250774  9.3571723406337171
 16.3114931218345838  7.3706610235879397  2.1274465244046290
  1.3136559709520625  3.0975485681644379  1.6169330626830642
  1.3709471267090507  0.1582530264797627 11.7816937102785868
 14.4938606624185411  3.4762966168740626 19.6775260012266635
  6.3076319880030187 13.6913458725111568  0.8702090543477763
  8.8585323033178582 13.0976679458154344 12.0866277392197112
 11.5878506750121684  0.4019761619794108  8.6944709272660017
 18.6996311541684506 17.4069891368771117 13.1893057149874551
 15.7459084243026908 10.2706137512522755  3.7463595357642498
 12.3511194460985418  4.6227449516012804  8.2547367739453428
 18.0850359497443058  9.0374034071320413  7.7650199466584668
 14.6637919247079065  4.9973809351422362 11.3727190854439950
 12.5738451416229715 14.1656454346887717 18.6393798216729678
  0.6178986517561142  5.5337131881350929  2.3721205672761703
 15.1506467533901787  3.1978289083070415 16.2451561395759256
  5.1475987005873121 11.4009811034057549 10.6129769508917793
  3.4588451471813220  0.0038454647748273 14.3641453007660704
  0.3946755392498569  2.9223508878937983 16.9006134113668161
  5.6474383361041198  9.2291437810092329 15.5442120904720760
 14.7532410916581966 15.8902233727783884  1.6472966180194173
  9.9681781351047238 14.3390364143499944 19.1738168983952839
 14.3637470528530926 11.0897058748835686  9.4955333200406447
  4.2029930412246168 17.3917053881788597  1.7194493181295480
  2.2092189841768359 11.4660750070082482 19.0947078418680007
  1.6475480238536866  6.8525913072996909 13.5967875398951374
  6.1428931991920646 15.9998769578691693  9.0001108584149669
  2.9520863148168490 15.5853906368284107  9.5619464352333026
  9.8137337258453279  1.7107789571124787 16.3438280725438361
 16.6789110723424159  3.0267609969444043 18.3780063489811418
  5.8770109086153290 13.6722853862026135  7.8769875435262886
  2.3263494742847119 10.9219232094796848 11.1410581218506728
 16.2895647880980050 11.1288994359742013 11.4113015560444957
  3.8346313860729921  0.7522254076177789 12.0968981375625404
  1.7093332146452513 17.5231709109037652 19.9841995581611407
  0.3176188855325713  0.2095852267955262  8.2238365438259518
 12.6286805243280540  3.6028009276256232 12.1234171192449409
  6.1032773050902307  3.6798949724970305 17.0330992015753360
 18.2225929624253524 11.1310881517613467  4.4236548383568950
 10.2903141603238701  8.1156029242346772  2.5502735364153839
  5.1486323827146725 16.5085124833956449 12.5663642264280639
 14.7080880235347422 13.4579925108683831 17.3503478029578382
  1.2807345851046783 14.2819338649984608  1.0756543863380108
 14.6635648090192863 14.4637664074936652 14.1824885213143137
 12.4459694874138478  3.5628480982294861 18.0258276659936634
  3.2566898722928808  1.7673381690760739  2.9008776420800388
  3.5641363960381667  1.0230448582699154 20.5415758909856301
  9.8356731679851990 15.1785038289803556  2.6758568752686567
  6.1488087786208574 18.5683718177219852  8.4406920568253234
  7.2267876003092661 17.6737661574680764 13.5693655993221736
 18.0836016206849486  1.2273292779792113  0.3638307512523561
 14.1213482199203302 15.9752877331780851 17.7683642089042451
  4.6073081309967883 11.0811397765773858  3.9658927873532388
 17.8063192353167778  3.7380026673417213 16.1469878910707934
 17.2854819353603979  0.4881868540485466 19.4796915859043658
  3.8372926900648747 17.9864655619579388 17.3966903040041494
  8.3675517046448533  2.0021035281205100  3.7625607115451705
  2.1085458779978898  2.1800397094803072 18.5555596085056180
 16.9239006287909071  7.3061268558534698 12.6804944589934987
 12.7099801199573825  1.5183076792387600 19.7961183142988588
 17.2447833635390637 12.6843301900505967 16.8196111123255605
  3.1297102425891965  8.1579419599237699  7.6357467283200240
  8.3635786477545633 15.7516594957932163  0.3798501613786345
  0.1189673635756882 17.9451110460176473  4.9394956300575972
 16.5446086738655502  2.5646553949297308  7.5543291515048132
 11.3087366167630954  2.6600853607208563  9.9042156112083894
 18.6793089854526322  1.6402201277887500  9.1084201276053633
  2.7383661379674358  0.9620338195388420  9.3696454477840110
  2.2346325071276394  1.3506308856731744 16.0432856701964752
  5.6454862834775970 11.0493775840383872 17.3592813863701743
 10.2340527239694232  0.6950912107806426  2.4114038094238355
 14.0664018689027657 11.4210927208251718  2.4692603604248964
  1.4374086525491456 11.3374257310739832 13.5674781317395432
 15.7556715242498679 13.1265482633220465  9.9964514694952431
 12.5244539685918053 11.9300687669853307  7.7356808616258732
 10.8489417381410576  6.0645572385596909  7.0638926944752614
  9.4646414767124440  5.6856446077864611  9.2716707949576520
  8.2055657690729635 17.9113486393948094 18.0486086017122318
 14.7191235929166080  7.0145884691982321  4.1425507355747486
 12.0614971779437692  7.1167462763315230  3.9947731402075575
  3.1637995771038487  5.5316100277969333 19.6602023408649416
 15.0994370289558173 14.2450341109994127  7.9806112388095807
  7.8292989030670066 15.3250883076921429 18.6872213660628361
 13.7739288370123631 12.6069533977229256 12.6235124680563597
  3.0839636284828518  5.0467562856209902  6.5087816832790351
  6.1342039655170399  4.2077612268533189  7.8520796329201250
  5.5747325781726502  2.3041745012049892  1.8461366451487844
 16.2129567474667731 12.6582333134511469  4.6742178288010319
 12.8145536114433956  2.7998343804615811  5.0853984007385575
  6.0897349828931739 14.7532165959343473 20.8854079976297129
 14.7138351173670952 11.6749936522151110 14.7003812819407109
  9.5721639286829419  5.5835905729662754  0.7358682758982660
 12.5369401394810929 12.7532856804033639  0.7999098100083268
  6.5503696823665720  5.8718962468544280 15.9629330092167070
 13.9584206520745635  2.5682502332210149  7.4335810883873608
 16.5712067872703308 10.6363556448728254  6.2849881626275490
 11.8303112656884934 14.2159440031509678 12.0618029167030247
  1.1848774864245064 13.0328265567795345 17.2294038177255437
 10.1883309254640402  3.1120019706773148 12.3030777864108565
  5.8716821766878082 12.8646927905067869  3.2509752386101880
  6.1671311957414732  8.8304361739350590 13.2392392928501597
  7.4020508812669812  0.0669289239748701  8.2025718795036298
  5.8101262071868867  1.9066722633553930  4.2485997756163707
 15.1324693507218342 13.4618160166582683  1.1356422336356249
  1.0533641032902423  5.4708080127212035 17.3283509117791077
 10.8938968293761160  1.2020300914278934  4.6695095557410413
 13.6399330456561714  0.2383527693783035 16.5239236288400342
 15.9129237985939263  7.4270416564143673 20.8624653695848501
 10.4860501505747141 14.2205250135275758  7.1331629631205695
 14.1582288488115058  1.6139777314071597 14.4875561101719583
  1.0083177561140881  8.3171582163907694  9.2104613279314052
 11.5193415421312757  0.3444181035607168 18.0979557995566189
  8.0342206878949565  1.3834170273834923 14.6901437028307136
 11.1577758094604498  4.9602720124957491 16.4945324512226001
 16.2476557918765714 18.4510973412433330  0.1019495881084499
  9.7008992150274516  9.8887978806890864  8.4755214464532891
  6.0638301665246361  8.9953639166338792 10.6600579884213271
  6.9069240382095431 15.3420539468306067 15.3912040265798495
  9.0444273300441687  9.8797500103117653 17.3219314965442130
 14.2784763555117404  0.1194736750235587  1.4010572367181109
  1.6188996928247807 14.4307004131211265 11.2333445575967339
  4.6136856558202748  5.7181900896356943 17.7008113422539566
  1.1510907348699828  1.6509617674644441  4.1441131191670690
  6.6980519615302425  4.1665265801417002 19.5122170323091808
  6.7506671117832067  6.0551420386726544  2.8155487021076016
 11.7262702841566906 15.9207463539998066 20.3049111099605781
  5.5553821088884181 12.0465417334523330 20.8950913280664423
 11.4502167655494578  8.3418388704821282 20.1373552468011177
 18.3069460425632151  0.3546876717450141 16.1022576651986498
  9.0077900648940901 12.5831516683739917 15.0246004275982710
 16.4797333154732577 13.0085960150087807 19.3329350805325326
  2.9663563898771015  9.1400900513308283 13.1002771099106603
  8.8879018309819671  6.3424137837847328 16.3918725984291562
  2.1710242308192855 17.8764788817548954  9.2273897004926848
 11.1030257683999505 10.0153464475031804 15.4385797127606583
  4.3760635012581801 17.8655370220136120  6.7437587864236255
  0.2812216792084214 16.0591787938390667 12.5520596010455936
  2.5825038386051138 18.3258819824818779  4.7505946432602979
 18.4801807688043631 11.1799150757799701 12.9718402299504074
 12.2073209658090089  3.9576157223490229 20.6069211234362513
 13.6131171562181130  9.1990454570753908  3.3140128204587067
  7.4359520186327188  2.0646208564308060  6.2837791001723469
  8.4293468041119741 13.2940933573687392 17.5848031874273794
  6.4507895067053616 10.6311414973269720  2.5176135270982525
 12.0635089742626853  9.8652040398950991  9.3072095029050192
 14.0080279344510821  9.3635827198605774 16.5363340049797571
  6.4360846939212202 16.4449706135017095  5.8245969991399882
  8.0782052358668679  4.5855195534678463 12.6816703707601590
  9.5420932609282740 11.3286377307773414  4.8719433971752224
  1.2959605164117869 13.7537529478431715 13.6371729170943752
  2.8183455952767473  3.3415316028108974  4.5849385615538214
  8.7457566925986221 15.9087565649718723  6.0805561757011599
 13.5548476141597511 15.9790030070734570  6.8423667557910930
 15.4617943002882310  1.7072734778572334  3.1323692051619538
  8.0988544077912614  2.0619340149400767 20.8055927311429549
 18.7248919174739861  9.9455119793196456  2.1908170929562805
 12.4750435201761789 15.3246128231594820  2.6966820099973612
  2.6577510476850477  3.4277147812972002 20.7566169121396200
  2.2861676455424149  2.6085778461873494 11.1255377881683515
 16.1499275337153421  5.3414748330739794 17.3530490770195236
 10.8098192618832503 14.7369069646447706  9.6896341754287008
  4.6948084568751689 14.9501344848351430 14.3609647410528218
 13.5102923232063112  2.5631617061119538  1.7412777907450010
  9.5028951560584947  7.4707864454915587  4.8699410821307936
 14.0048381179402064  2.4313233657808864 10.0838271504288546
  1.8325008253039821  0.3669723738496776  1.2234140784398098
  0.8110372584953477  4.6451056050228017 14.8767106448649820
 11.8051911116897976 17.9282375844531394 13.2721431736641833
 11.7217588882484236 17.8462293736070983 18.5971930279829287
 11.2328128001259611  2.3181613061942614  7.1000505377998993
  8.6540603909184277  9.9151879692478566  1.7678225159737453
  8.3809969252970351 14.6039377762012155  8.4643513144760512
  6.8721233255927965  8.4051333598933766  1.6153152048291017
 13.0041291742504956  8.6407009636984853 14.3334401448991038
  5.0489946176206768  0.2202978768478265  6.8980986299077429
 10.0933752732823780 18.6981257067485416 14.6620190930313292
  5.9203539940650352 17.0281995462829343 18.1229605077786324
  9.2456765322108474  1.5301227554314929  8.7088060961395932
 12.8718012544668934 18.5530085109819964 16.1879302215170426
  9.8328766255080922  6.2148400451639816 20.2879709606102061
  1.8985943688667923  6.0422112472746559  8.4955399506524216
  7.8077767833608451 10.6241513346047274 19.4995101503871133
  9.5915444415947970 12.4744903669508123  9.0105971267728826
 10.2110879466224329  5.5115153426847154  3.2993159825111813
 15.0285649370034005  4.7111145976389484  8.8870856046092666
 12.8657037461091424 17.5101501322884339  1.0620895953151825
 18.3372216879836891 16.8499342146441613 15.9777455677885243
  0.9368221969717828  5.0860933229972165 20.5587037452291703
 10.4748216383769126  5.4085638656845161 13.5260947075057487
 10.8608987511279782  5.9146810649390940 11.2602001936240743
 16.7784837035886305 14.5994813453948513  3.4049318021879662
 11.1392921183312943 13.1070513504349844  3.5540757696877785
  4.4840726708882048 16.3880103546754690  4.2508052674742220
  4.6917644554562852  7.1915429112462030  1.7763219015469038
 12.7745949606982894 16.2520756213247246 10.6811375107098208
  0.6437858495888056  0.2121576802238132 17.6021869695700062
 15.9708241032898570  8.0150738783480797 17.6219738496188683
  2.9395590728563219 15.7879463285469317 12.8938328143819714
  0.0996023923986107 17.1605951254171352 15.1517319321042105
  7.8115802281889044  0.3291830589549227 12.5568534298074788
  7.9518204466265781 18.2780296771086661  6.2447978109486941
 10.7827850902279465  7.0675765713324497 17.9836762108051857
 11.9085781362110197  4.6077108576151948  1.5638639829928032
  4.1111003448538401 13.7465994782977887 11.2710602652926948
  6.3732535099649033  6.0701121408458087  0.1970744762596730
  6.8331808465710058  7.1534245662573142  5.0598924807915155
  8.2675584853640061  8.4007042399281922 11.7694575639779551
 17.5711870791334377  8.2749170509609602 10.2793973618189405
 11.0682087074619986  7.4171036458032509 15.4420378803050742
 15.4180987851783708 14.7659137848905395  5.3927937386150830
  7.1964516106154797 17.0057602064281674 20.4606777472435510
  1.5314311420275175 13.8980136071739349  5.9375684826301605
 16.9008236641824006 11.1111208645575168  8.8035797531240796
 15.9423361539077817 17.7254520236885611 18.7402946099852166
 15.6440357553137499 10.9677447099808720 18.0285047279010371
 12.6739098015012726  3.2266518822646413 15.6564366381209155
  2.9531221651090105  8.2179692797882602 15.4919109566072510
 15.7103104037910501  2.2287312315920351  0.4797434509946363
 18.1223581173914638  9.0111423086693367 14.1614933824312832
  3.5409204406895007  8.6579919636923606  0.0056788889646127
  2.1862078776057174 12.9134715400026874 21.0074372323632268
  6.5146058155289568 17.6691151678335281  2.3146311767953311
 10.1198594168101508  9.9559564078755081 11.0484538882537198
  4.5276984796687092 12.7069971078391255  6.1355759123729543
 18.7480258089562923  2.0351859264653269  6.4785510940921540
  1.0508454047581930 13.7995569785547225  3.6021289117491446
  2.4404350029794180 12.1196019626962528  4.7158556373187546
 18.2456349015389492  6.6367460529623292 17.8537066123234638
 14.4376635661020742  4.7567294575043668  0.8349224803185822
 16.3152567223833351  3.1756195529603843 10.4985144935468107
 12.0041653188924915 11.5589432213862615  5.3394166516340551
  2.3793509143530276  5.8433778607478590  4.1560125975008670
 13.5491051662265782  3.5039172802493619  8.8228219910233232
 10.6084669345985620 10.5648697347769538 17.0366321002017642
  7.2850051701975396  3.7401047682500153  6.6511395761061145
  9.5877220853905403 12.1012686996061785 13.3857838976040444
 14.9374536115716285  9.4358229447450164 18.0609918417058921
Cartesian
  0.0017578534228116 -0.0004640714431429 -0.0008197592168772
 -0.0036655936292202  0.0024274400308754 -0.0040964982107156
 -0.0015762483553170  0.0020558662047846  0.0010953343050851
 -0.0011931971979066 -0.0026515696999079  0.0061599510551514
 -0.0016309897825028 -0.0007953006029870 -0.0041576986389889
  0.0009686744350439  0.0029878916287281  0.0003904107475756
  0.0036555356630499  0.0002714220167355  0.0043157334491208
  0.0021695221970817  0.0006123337626233 -0.0049185474324831
  0.0027211856291097  0.0034749704110787 -0.0021698302002674
  0.0045550796514256  0.0022347410977408 -0.0011195575041067
  0.0007324110779330 -0.0023462956363977 -0.0027984576347880
 -0.0016931639873390  0.0008562788671362 -0.0057801996362378
  0.0012610411584432 -0.0025861091896590  0.0041091588833002
 -0.0012392069360521  0.0016018249148681 -0.0028373376314188
  0.0016196877257747 -0.0054232906501312  0.0031165877443738
 -0.0006678711238301  0.0013417641099435  0.0033867963357474
  0.0019767519136525 -0.0015523198033144  0.0018807472916995
  0.0005525093541548  0.0000193617660424 -0.0073257704611189
 -0.0113784365412295 -0.0037411555676101  0.0044828056434774
  0.0066088294503317  0.0019583834158403 -0.0048902252710658
  0.0065761150910889 -0.0121551672786522 -0.0057689300119055
  0.0000962127662306 -0.0101991214764332  0.0016291870627839
  0.0045362514287786  0.0015699286631375  0.0049590659390249
  0.0002255693407775 -0.0024924636722901 -0.0088408179916282
 -0.0036593159198134  0.0027419326972581 -0.0020033996112422
  0.0002093238289927  0.0056059397190110  0.0083111886171347
  0.0066237624666827 -0.0036020676855290 -0.0026530462736160
 -0.0016351087984948 -0.0057750541137812 -0.0007805536603001
  0.0014667911926086  0.0025258321622743 -0.0069071908371715
  0.0014044992195453  0.0023854828402383  0.0014256112891678
 -0.0095625934738861 -0.0017121329471485 -0.0055183202057018
 -0.0074872743009984  0.0044403125378015  0.0066780412964299
  0.0080787807816467  0.0000478280765787 -0.0038536322105480
 -0.0012817610729854  0.0050498095608500 -0.0042915269966642
  0.0010146393087409  0.0109910288671800  0.0036317173573596
  0.0012665915661112  0.0022992648033387  0.0002109201993172
 -0.0082722865458311  0.0034001797947494  0.0031361190673429
 -0.0027117767163023 -0.0012975982974579 -0.0033098534775473
  0.0192564577111343 -0.0014765489783794  0.0031590516651492
 -0.0005019434126884  0.0020087744620571  0.0003512992453454
 -0.0067763515610399  0.0025878824649503  0.0029540779099496
 -0.0003560532521773 -0.0028484967420928  0.0060006604629731
 -0.0070519171294549 -0.0002317713168694 -0.0046903383841463
  0.0016380319707903  0.0074283391882592  0.0013306599202115
  0.0014745318772304 -0.0042857906482129  0.0065630875596915
 -0.0061677583322255 -0.0079023359336566 -0.0029323758330970
 -0.0047619385246688  0.0015547449242261  0.0063861300763030
 -0.0013275152432365 -0.0006922004534520 -0.0029331108919355
  0.0015527739715452 -0.0094512818085980  0.0052524536852661
 -0.0093749629729300  0.0009335559268204 -0.0008069899090846
 -0.0068200258498595 -0.0036699864507955 -0.0027546795374411
  0.0001481285918487 -0.0000682987710184 -0.0012346710888925
  0.0043901929419812  0.0061950886839973 -0.0028453280670004
  0.0055659201883871  0.0042233801437040  0.0022493860295698
  0.0040062586584131  0.0003684495786967  0.0065170027038523
 -0.0001408170231952 -0.0027206095689568  0.0075575136183315
 -0.0009631657110499  0.0055254852889484  0.0013834294594851
 -0.0043064395224040  0.0017813914825479  0.0072127600107357
 -0.0074953889631150  0.0011465184441537  0.0051165456128917
 -0.0012711171483287  0.0018693116285868  0.0056904426464937
 -0.0002864347554288 -0.0013981942400185 -0.0017873931002425
  0.0048537922793285  0.0015341314187485 -0.0060351985551813
 -0.0022499240702848  0.0066143085073516 -0.0035220551314578
  0.0002757858557779 -0.0005292159270744 -0.0034898826357102
  0.0020980898984490 -0.0024568406340247  0.0012435215464851
  0.0045900127069796 -0.0010726717589502  0.0031068455499284
 -0.0051353668321787  0.0004391755776950 -0.0033309197626678
  0.0041412956362584  0.0021543664465776 -0.0087063977807188
  0.0066962737355282 -0.0049040902564455 -0.0011094423868587
  0.0040134747461498  0.0016747512882310  0.0059737039918183
 -0.0031856756518174 -0.0018861239239739  0.0009380077293828
 -0.0046956245751818  0.0057366711254168 -0.0002724385042968
  0.0024254699503988  0.0001612961779195  0.0040508796042714
 -0.0067763858065280  0.0010988694425187  0.0032207589573361
  0.0000368090938254 -0.0002899403203964 -0.0045561505140024
  0.0007421851360359  0.0023785732857105  0.0028170536056417
  0.0008090723146496 -0.0019801053054075 -0.0007228665392909
 -0.0001423020604124  0.0048790852055598  0.0009211315051700
 -0.0052873961640760 -0.0022256278103857 -0.0006501993517674
 -0.0010127086562255 -0.0027464061087034 -0.0026580045526871
  0.0008979776959576 -0.0033976308910288  0.0035988026424370
 -0.0044418422907499  0.0002126388911860 -0.0043710482913281
 -0.0008518324191041 -0.0034685704670410 -0.0004033914482914
 -0.0008270158107931 -0.0022144202517335  0.0010248707739581
  0.0005686960518183 -0.0029590454072196 -0.0016673874048849
 -0.0012985052810695 -0.0015762463277169  0.0011567488127775
  0.0002984479684500 -0.0080968497149379 -0.0014421632105946
  0.0049324842801366  0.0000972923762536 -0.0025289490026245
 -0.0022712928549303 -0.0047754766494882  0.0005476140900390
  0.0000378018702978 -0.0001246489777179 -0.0033988415005124
  0.0005078345693220 -0.0022254846691966 -0.0002673534725989
  0.0007743286711440 -0.0030696693672621  0.0013912549216529
 -0.0017904681323254 -0.0018558229782847 -0.0018401538104097
  0.0010863816296317  0.0033344709020077 -0.0038311620012569
  0.0006376348199941 -0.0012634259873493  0.0001724882423476
 -0.0019161802403150 -0.0016753181110527  0.0051455299330712
  0.0048307833912068  0.0016855935631890 -0.0018445236317118
  0.0023227653689030  0.0058268689199508 -0.0022366589836705
 -0.0018076929619203 -0.0058165335123176  0.0003093520825823
 -0.0043276694265681 -0.0009694293442475 -0.0029893286224890
 -0.0014965625311803  0.0027042658997960 -0.0004818672884384
  0.0056898394895946 -0.0036290089337654  0.0014342868026823
  0.0021818769771375  0.0021282404161756 -0.0026965596513977
 -0.0033192153362618  0.0004726003164589  0.0014893899101480
  0.0004545000637433 -0.0056704044829148 -0.0015502080543293
 -0.0037540702724274  0.0012692258439753 -0.0019384701824779
  0.0009307348178909 -0.0020885739326998 -0.0012365333595220
  0.0021907185242889  0.0046789022416924  0.0024152717454519
  0.0028870619319260  0.0009307729710170 -0.0015777145183541
  0.0017908145066901  0.0012264081412377  0.0009596628791584
 -0.0033073563908451 -0.0021225453961768  0.0022415065542383
 -0.0002071013027919  0.0040202962826317  0.0068998551055809
 -0.0014377668551095  0.0051399923523096  0.0015365446227903
 -0.0015689139041691  0.0033151675478194  0.0004737012387345
 -0.0050309183414004  0.0027534965105922  0.0019615552031603
  0.0028925213219973 -0.0014022956098779 -0.0007137586288835
 -0.0028190365904763  0.0006043332610681  0.0014696280079430
 -0.0065335989566789  0.0045624449315753 -0.0005428320458099
  0.0033582059091792  0.0042639055370349  0.0042850954789169
  0.0003345673679829  0.0001570979700690 -0.0006329678283218
  0.0019196369294242 -0.0035065028939101 -0.0060682728605583
  0.0006673424020390  0.0001480519970959  0.0001155762766545
 -0.0004938268643241  0.0003939356546763  0.0004051005804434
  0.0008900478498760 -0.0042233458573808  0.0043923204437183
 -0.0002727510734641 -0.0022854467635820  0.0007541677161231
 -0.0006826561294616 -0.0002005357363305  0.0029415292753472
 -0.0036071574115891 -0.0014620880192601 -0.0003297934856616
  0.0038364099406286  0.0002586825255026  0.0045847952072265
  0.0015013374214444 -0.0017741972799140  0.0010838305747382
  0.0004562166862646  0.0010211599047426 -0.0009532957857483
  0.0013773241859476 -0.0013779300744075 -0.0033290491300425
 -0.0019922006347881 -0.0007425220680460 -0.0024009236058404
  0.0012237063972493  0.0044670826192276  0.0043870961743036
 -0.0024540756280438  0.0029164672429529  0.0033244957662586
  0.0051957602431489 -0.0056240749799016 -0.0032641007173168
 -0.0001497735853413  0.0059215248930745 -0.0011104173570139
  0.0018299811788279  0.0002040251765799 -0.0032639566115475
  0.0033490146865409 -0.0053468736254667  0.0006307036974264
 -0.0042743107846027 -0.0009133609856339 -0.0006792249252523
  0.0007339349425873 -0.0019397970666672 -0.0042548901961376
  0.0007632480373536 -0.0007544661233779  0.0011787025553911
  0.0059087374286577 -0.0003177528168182  0.0023881150078977
 -0.0001975073591966  0.0063157324367992  0.0037591872615427
  0.0014212993748746  0.0044277101780278 -0.0018647395474812
 -0.0017349511281520  0.0007789351946863  0.0010827151822241
  0.0014740361887785 -0.0010149798899144 -0.0013863182435055
  0.0021019115482666 -0.0031498188680897  0.0030414599087802
 -0.0012040352444907 -0.0026118747686158 -0.0004709522357223
 -0.0023860785127781  0.0064694193930953  0.0029657923554902
 -0.0031206849451276  0.0044857735587936 -0.0036488040710294
 -0.0001625580181443 -0.0067640431278019  0.0016366798726859
 -0.0020087392734004  0.0044965972057486  0.0014988309488609
 -0.0019848126159981 -0.0041328360165364 -0.0038854810165853
  0.0029788516342763 -0.0018456697568348 -0.0006521155251452
 -0.0025105209221794 -0.0055364872902728 -0.0032765272252785
 -0.0040258806633022  0.0004836233350706 -0.0028703168721545
  0.0031788560385168 -0.0040916238957133 -0.0005915051227028
  0.0049985285622133  0.0026682745679856 -0.0005050545314151
 -0.0059359153872931  0.0003333820531797  0.0034526642217333
  0.0005195987244107 -0.0005557301997600 -0.0004241314580325
  0.0009289956194227 -0.0011128076695108 -0.0012995694768173
  0.0009470590802874  0.0005617010116662 -0.0018520116054836
 -0.0029360957448465 -0.0026198449181462 -0.0067370402915769
  0.0017164940389432  0.0005743196307275 -0.0009336172452673
  0.0003524867788201 -0.0019903066237210  0.0000967770706545
 -0.0010072408188737 -0.0021906572883191 -0.0006633462581149
 -0.0029210629394072  0.0013895354186110  0.0033402441511664
  0.0032703646140256  0.0020083640884486 -0.0020312488190218
 -0.0038686505399239  0.0024986424546335 -0.0017709335466863
 -0.0000151833026433 -0.0020917063598078 -0.0026427688465023
  0.0044199110759921  0.0027167519445059 -0.0005590589558178
 -0.0008281563240449  0.0015471944724246  0.0046362282599389
  0.0008471298891246  0.0022613938951142  0.0000828708179756
 -0.0021809199966814 -0.0027206045098067 -0.0033227188001528
 -0.0023873643958202  0.0005519657558971 -0.0011801525884665
  0.0002400801019756  0.0012468184457948  0.0022723723662892
 -0.0021545587434640  0.0027565689240741 -0.0023839110715934
 -0.0018827546205260  0.0005376703995920  0.0056614677698868
 -0.0013119616913408 -0.0016613166963936  0.0002840635570063
 -0.0019920521819107  0.0049509521185855 -0.0096170214009334
 -0.0055827198146349 -0.0038533704578730 -0.0035547078141038
 -0.0004194997646779 -0.0050644518950872 -0.0032235734667018
  0.0014849384757937 -0.0021991445875267  0.0032704905274552
  0.0042705383831179  0.0000268152510693 -0.0011401290063087
  0.0033096559946091  0.0011317615992948 -0.0005224122779188
 -0.0020305158876898  0.0031911299526320  0.0003501297370187
 -0.0014866216377019 -0.0046003291870380 -0.0060678605395475
 -0.0021232699203223 -0.0001256422683073  0.0031452628113411
 -0.0011264641626372 -0.0005674946806335  0.0010417439637487
  0.0003647072152812  0.0009480104103292  0.0009556569214215
 -0.0027574266223881  0.0000122508907452 -0.0043790953628338
 -0.0020340603795186  0.0003179939175600  0.0016979720737393
 -0.0015886864915596 -0.0003990464574529 -0.0003554244457740
  0.0034047396641660 -0.0001235015602697  0.0031223418072938
  0.0025760726723383  0.0013842751589685 -0.0011752909046176
 -0.0029625368505413  0.0032302246994861 -0.0016867620346680
 -0.0023040104729120 -0.0034695288700586 -0.0019666063565689
  0.0026193244211935  0.0007062075810746  0.0013381034658755
 -0.0009773931602517  0.0029197357445605  0.0028718324769788
  0.0004387181631444 -0.0017446557179975 -0.0021639942659697
  0.0048483765177527  0.0044162307679765 -0.0018190742663412
 -0.0051953588658609  0.0016753981564592 -0.0016483799864914
 -0.0004296694277696 -0.0021983523820566 -0.0013772575595533
 -0.0002859882196002  0.0019810532158879  0.0016101949489072
  0.0008182365523110 -0.0032839596854303 -0.0002341027919984
 -0.0019625919084626  0.0006346479805899 -0.0020699163686493
 -0.0044313969493010  0.0029284929346763 -0.0022481812761588
 -0.0027176736272182 -0.0008814823261934 -0.0037009580547257
  0.0034507445041482 -0.0041230076582706  0.0001795667368755
  0.0033900909795257  0.0043079700039777  0.0052503419180519
  0.0025072287954447 -0.0128011760775029  0.0033519272077652
 -0.0002401731117180 -0.0005283015073830  0.0030297005909357
  0.0015780218388537 -0.0040540188161531  0.0012954731855222
 -0.0008743066863317  0.0035617511706397  0.0054064222604501
 -0.0023929493912077 -0.0054661087303240 -0.0006444498795160
  0.0025118919927239 -0.0016237826981170  0.0029289815270015
 -0.0035177631194735  0.0068747060153728  0.0010413275748683
 -0.0034682864021575  0.0028337891377877  0.0011106855248941
 -0.0054392803569422  0.0049298642566162  0.0068160044054380
  0.0053250406930063  0.0021085277299686 -0.0012610677602474
  0.0041007617028366 -0.0008987758341249  0.0032403003084126
  0.0021375898747602 -0.0049375574350087  0.0004401936635579
 -0.0007918732695247  0.0006327766791793  0.0054169000966248
  0.0015963344882849 -0.0004329179090095  0.0086450852467348
  0.0023162898783980 -0.0052869405877167 -0.0079788584952190
 -0.0044911479045787  0.0006134782420015 -0.0018360543224631
  0.0050201879830001  0.0004267818588569  0.0001846025760495
  0.0078841029689475 -0.0022081912814481 -0.0033423888769606
 -0.0044514221126695 -0.0006229902863137  0.0021914196585286
 -0.0075999580397459  0.0071535830725055 -0.0012850297617667
  0.0033529330964243 -0.0036899791432772  0.0026306087607507
  0.0043824923128231 -0.0049465999333956  0.0099038987024431
  0.0025417465102021 -0.0019498782082698 -0.0006456551121946
 -0.0041697816602618  0.0004668245823014  0.0036334244683844
  0.0009650886857758  0.0002545764837960  0.0001698410939421
  0.0008115600344495  0.0045337629537640  0.0027282582929854
 -0.0001925486536197  0.0039173626791525  0.0048794339277316
  0.0022532153197334  0.0009435714871352 -0.0058770651571140
 -0.0102978160731675  0.0015721914347000  0.0016645110916963
 -0.0052761167197647  0.0019872040133566  0.0052383026917715
  0.0054768927210757  0.0030565192625974 -0.0011367181731281
  0.0026659815264594  0.0029581969747190  0.0083191910009188
 -0.0055138754590661 -0.0003585426014673 -0.0059129355278891
 -0.0059828008805224 -0.0045704225268861  0.0026740639743257
 -0.0008973212590252 -0.0036577553577598  0.0004385576851941
  0.0021912730912399 -0.0036268154973460  0.0029646574577595
 -0.0016794680354197 -0.0051573014090087  0.0010432776640408
 -0.0027886130454491 -0.0003930419200375  0.0050974847580745
  0.0010433722640222 -0.0046409815267660  0.0019947442301248
 -0.0056797624317238  0.0011586373782730  0.0045325638075855
  0.0057390983383163 -0.0015541578529682 -0.0031313859927042
  0.0016707611396855 -0.0055214635314396 -0.0052055786579952
  0.0022949586797383 -0.0003325008104466 -0.0009065982832925
 -0.0042875557765494 -0.0012293611360052 -0.0056336491765662
  0.0039620328396604  0.0051032087746901 -0.0076159421748446
 -0.0000896345761665  0.0069528778695212 -0.0083573272751555
 -0.0027036189912845 -0.0057706766411503 -0.0013034149832426
 -0.0040981481663758  0.0013376770343527 -0.0003318461873960
 -0.0021522717137305 -0.0048377713096347  0.0057980184558344
  0.0029913022319932 -0.0006979659510572  0.0029879202848449
 -0.0015215030478239  0.0044727560752366 -0.0017028377677098
  0.0053262703956311 -0.0050661721380298 -0.0011533458779054
  0.0014221754358929  0.0025022881378146  0.0002514035272964
 -0.0034520409149490 -0.0038315423393886  0.0032003306056112
  0.0019928559835841  0.0023400741954419  0.0009592541347040
 -0.0058325920595320  0.0015720154726715 -0.0046971371889483
  0.0025533290919809 -0.0000476193601168 -0.0023864586082721
  0.0009425614900853  0.0033797381657265  0.0007924869085261
 -0.0077648892557385  0.0038381376317129  0.0048544214169352
 -0.0030227958265549 -0.0004413486862094  0.0008937797730114
  0.0011254761057042 -0.0017520243711682 -0.0027419054007038
 -0.0051489820622868 -0.0013428817458847  0.0029294354703572
 -0.0043345535994378 -0.0058344664889307 -0.0004457643200723
  0.0036255799881682  0.0011534365664699 -0.0047256091273344
 -0.0043937522371382  0.0001686407381994 -0.0006501696268300
  0.0073470361491690  0.0028196209521816  0.0063657000489554
  0.0014522889978473 -0.0027748360952898  0.0046991347081960
  0.0012260593903434 -0.0008512701094312  0.0028246755137339
 -0.0020703386079582  0.0074207213716599 -0.0042620908563483
  0.0021956649792899  0.0005456717629811 -0.0051895578668477
  0.0043523335290663 -0.0041435352463585  0.0028399298825354
  0.0026561223865813  0.0015187399968316 -0.0001270978644773
  0.0001186836239093  0.0060570284432362  0.0008800307901096
 -0.0020472792703604  0.0072303506939796 -0.0062224185266437
  0.0013079361846154 -0.0028787336319443 -0.0004156136267399
 -0.0008635306365580  0.0042083619364151  0.0068641478050565
 -0.0022655084285545 -0.0032168277694701  0.0017268770998909
 -0.0035687324743183 -0.0033360496210335 -0.0022110303185302
  0.0069011518591826  0.0048512741492217  0.0002239746168925
  0.0066699177851180  0.0057293709675468  0.0037286662140729
 -0.0036978818063131  0.0022985501212184  0.0045017392574355
 -0.0047693032496448  0.0060035506068153  0.0054073838071870
 -0.0088346468774868 -0.0030942131338083  0.0064044537510570
 -0.0063314081468847  0.0051852257306946 -0.0013569700393603
  0.0026729380821945  0.0028951237978636  0.0018690244674050
 -0.0008167180184132  0.0018542075323176  0.0021438534848251
 -0.0013720206620578  0.0002301490595958 -0.0028649908133570
 -0.0036408216899051 -0.0063575640186678  0.0007248034581883
  0.0031313082502914 -0.0059523947556183  0.0071657731526006
  0.0023446723781241  0.0010605219705319  0.0046876685994853
  0.0030042032302506  0.0016333528907595 -0.0006867544371413
  0.0052612795971162 -0.0041970635460702  0.0032927753503418
 -0.0003108661082918  0.0031976550691095  0.0062663335617411
 -0.0012455505006798 -0.0010356407419534 -0.0015675380117080
 -0.0034537885132417 -0.0036084033445864 -0.0014048532957098
 -0.0029220701821953  0.0011255995215743  0.0000503257213867
 -0.0036512018984478 -0.0032925794529219 -0.0007776169458294
 -0.0038408145383376  0.0044487788771166  0.0004169629926212
  0.0008095189792033 -0.0061261421669420 -0.0037123284783939
 -0.0051468608172536  0.0078336906531772  0.0002359868362427
 -0.0025431753690096 -0.0007274346568438  0.0003328599948507
 -0.0005246942235698  0.0016573509960038  0.0012879781962364
  0.0021148379071976 -0.0037706226574499  0.0001687678959078
  0.0012047783261865  0.0010842381472312  0.0032288148492993
  0.0018887976358368  0.0025508260195754  0.0008815928421961
  0.0043396426836532 -0.0034733714848560  0.0067720381762227
  0.0006987238349119  0.0045881779927473  0.0072595843026212
 -0.0002404328406924 -0.0005736787463691  0.0003566602549736
 -0.0026220711017423  0.0019131460157210 -0.0014077002535076
 -0.0007692691905778 -0.0025197340345258 -0.0119184890306142
  0.0026891202330256 -0.0005488293112423 -0.0011794864441206
  0.0077457347194439 -0.0003565493932912  0.0015185741420664
  0.0014851366188196 -0.0009179814863154  0.0026233062284593
 -0.0023052256000233  0.0005856122604674  0.0048131029726197
 -0.0033272413081828 -0.0014770602364398 -0.0066856801045661
 -0.0034564644713502 -0.0077057083605732 -0.0004495946629509
  0.0038361874805339  0.0078158435386039  0.0025788572515963
  0.0036963545644837 -0.0030883680565811 -0.0033044041898895
  0.0040429747885664  0.0062001518664782 -0.0013258022989720
  0.0059942931870729  0.0056613684125653  0.0006309529665826
 -0.0048643225773345 -0.0057923907696090 -0.0020653855147615
 -0.0026709879414890  0.0014574787754215  0.0028486176140723
 -0.0028962725848299 -0.0029774551227727  0.0005325431774555
 -0.0031506032905558 -0.0033768019302522 -0.0050375980712338
  0.0026863147336334 -0.0030598522479534 -0.0029878511110328
  0.0045303288968171 -0.0038988429511525  0.0015896704948377
  0.0028533119092693 -0.0119232481120817 -0.0031582407136914
  0.0030082969001512  0.0001261912494794 -0.0033709692019059
  0.0005730329221542 -0.0039571511449105  0.0025010791582274
  0.0038622884938279 -0.0030448786170848 -0.0004734927960892
 -0.0010862615149768  0.0079659443683710  0.0024615259190395
  0.0024235035034525  0.0042390883367807  0.0024194023227900
 -0.0018027103111055  0.0003741016448031  0.0043602881348683
  0.0009783468090992  0.0049189034237967  0.0022048607468685
 -0.0052297424819926 -0.0008706883310049  0.0016683776168586
  0.0048286630577496 -0.0038717244620585  0.0011158901223967
 -0.0065106429511518  0.0022094047124570  0.0009919683073496
  0.0025250662580621  0.0010753816994366  0.0028521184782589
  0.0068862830612091  0.0002544441768397  0.0031068074760062
  0.0047517405061015 -0.0053079748378696  0.0011695217541179
 -0.0004402706299007  0.0045416163458826 -0.0050464046959536
  0.0036354957104148 -0.0005921310497422  0.0035465002200676
  0.0009550991366137 -0.0009637945996891  0.0020717115594369
  0.0025503129848442 -0.0091284031628567 -0.0022604617181110
  0.0118909744363394 -0.0011016993254667  0.0069685401023955
  0.0064381243848852 -0.0017225038360744 -0.0071442259471464
 -0.0001528532151558  0.0024452395544953  0.0021079172236401
 -0.0052306440383824  0.0032279419923389 -0.0005740425052805
  0.0052426204344962  0.0042057367032992 -0.0025737654056334
  0.0009720183956869 -0.0028847960785295  0.0044123474613008
  0.0009882213065105 -0.0011687517739411 -0.0036287460159891
  0.0056503656625030  0.0061231686585111 -0.0050640536708659
  0.0004121702904179  0.0095688218073909  0.0111343319795326
  0.0017743392981152 -0.0005963865448329  0.0044063573440604
  0.0000567984672673  0.0014322729365247 -0.0100145803881124
 -0.0025538416386142 -0.0032111092124806 -0.0030053854741158
 -0.0049760388687516 -0.0037646374651326  0.0029021844059028
 -0.0009797857710812  0.0006667638344974 -0.0089407356908764
 -0.0013844527556133  0.0062243248330744  0.0091619540894457
  0.0094092088482202  0.0081102889059457 -0.0059836157034323
 -0.0034832736796919  0.0050634060614257 -0.0012454345222906
 -0.0004869951504543 -0.0032302698092152  0.0021941914227374
 -0.0043557443414153 -0.0132321021385423  0.0038997526520820
 -0.0081964406388561  0.0010555577927392 -0.0009298366752839
  0.0001258060588998  0.0000493306102967 -0.0064383830116837
  0.0061367265918153 -0.0073200309564570 -0.0006680833235845
  0.0054913461545710 -0.0069188215398860 -0.0015688376721211
  0.0012781423574099 -0.0047700911366876  0.0033525356332221
  0.0051040439497813 -0.0022857758818108 -0.0018923009086475
  0.0029715614757571 -0.0049519022155676 -0.0046098978911409
 -0.0001754285138618  0.0016067897884818 -0.0021323121895490
  0.0066190385807155 -0.0041512513040911  0.0064640172243728
  0.0006514347201899 -0.0029890546275894 -0.0023254223404291
 -0.0069023260311666 -0.0002077172718945  0.0134240713510086
 -0.0013692072514079 -0.0030217154373073  0.0055062896777464
  0.0002253666946894  0.0032541168727526  0.0008592589276536
  0.0007213708476601  0.0010853344850391 -0.0038361762672482
  0.0040452605127316  0.0005242451985106  0.0010266743384419
 -0.0002617916649893 -0.0057056022876885  0.0063772191646980
  0.0021971572846382  0.0023671511010047 -0.0016260973227359
 -0.0012828811161895 -0.0035529053834093  0.0027541763116220
  0.0056956773107522 -0.0079836180475171  0.0040345219522626
  0.0017126003674885 -0.0014948730925136  0.0022528382184966
 -0.0039420184702271 -0.0039621103096124 -0.0014889914178976
  0.0004889668742986 -0.0000097429771107 -0.0003825241032853
 -0.0003603812869198  0.0026568769220477 -0.0065597184271075
 -0.0026785122834531 -0.0037699508278016 -0.0030270562130709
  0.0045423285215219  0.0003246939809735  0.0057888671866347
  0.0031283770246626 -0.0004894256385160 -0.0029031771636699
  0.0006520446896163  0.0014253066157264  0.0012279867167610
 -0.0039982182090302 -0.0020724578591285  0.0054369313307822
  0.0028102170103723  0.0005404746708930  0.0031507692373462
 -0.0025337444691344  0.0079829862718223 -0.0082796174451834
 -0.0045725463145488  0.0077574598936697  0.0009143061221292
 -0.0058868859019771 -0.0011479900130316 -0.0007249079536094
 -0.0072905517778872 -0.0019702546638129  0.0017024582223772
  0.0028840278996511  0.0054173964105071 -0.0123735933449183
 -0.0023159678793007  0.0020601245485081 -0.0029142506200679
  0.0018097282005335 -0.0087585519665243  0.0034365420068070
  0.0043387845650060 -0.0044259444401501 -0.0005238366751235
  0.0022672791797907 -0.0000395411399984  0.0000756380514105
 -0.0028162749411656 -0.0036476912400869 -0.0011570756607518
  0.0006025733807745  0.0059831067653138 -0.0016061006717057
  0.0004388065155731  0.0019528778249806 -0.0062372420698624
 -0.0091789036317880 -0.0004537984670651 -0.0022075267515618
  0.0006219172054851 -0.0011412023661495  0.0023761193429922
  0.0009519903071517 -0.0002842813474889  0.0028548706755916
 -0.0013645712251892 -0.0016666403282155 -0.0050814488655192
  0.0020398969132838  0.0028366789086508  0.0003723509470037
 -0.0025541881099278  0.0032557358080340  0.0051383330282154
 -0.0093224745244516 -0.0039834371550122  0.0008385512147097
 -0.0080234513902159 -0.0039002164005689  0.0026496631775870
 -0.0001108472986979 -0.0064774931847838  0.0030703416506434
 -0.0044415117969112 -0.0024401334227730  0.0066749080104293
  0.0029558910933703 -0.0006470657418380 -0.0006895352182546
 -0.0023231726130129  0.0019394679683846  0.0056957493456760
 -0.0032328464914793  0.0016746783164627  0.0092177529299749
  0.0024778454642259 -0.0032532529769304  0.0058327152103605
  0.0061175626450480  0.0021032632431195  0.0056285869441141
  0.0051166981745852 -0.0008868722349757  0.0101145234187919
  0.0076635528989302 -0.0044786346106001  0.0046136494296476
  0.0062871122777735 -0.0012274876474138  0.0015507943712204
  0.0017457690841578 -0.0047377707734509  0.0020270464553080
  0.0032770636812641 -0.0033781179220425 -0.0021347454597377
 -0.0056540490470792  0.0011621489246336  0.0090167084720362
  0.0039241776411880  0.0073785439346381  0.0027734727794136
  0.0024479081352715  0.0020248628836995 -0.0022538918625555
 -0.0007217252777082  0.0014419142125550 -0.0014875882503411
  0.0019113840677993  0.0026390309376007 -0.0023093795700421
  0.0038112449692932  0.0076692310439515  0.0023452804715413
 -0.0093023310043485 -0.0050536965206814 -0.0002629882841627
 -0.0006322447820636  0.0021344836607095  0.0038550515144956
  0.0014609127666072  0.0020901912104295 -0.0060897485165568
  0.0034111207219810  0.0038268967666958 -0.0107058386115795
 -0.0026188177130751 -0.0003892451861407 -0.0016947953408458
  0.0002829627395524  0.0028635165574339 -0.0014383651605299
 -0.0013469723628770 -0.0012711794855604 -0.0002756883433986
 -0.0027139424008448  0.0026032731223490 -0.0008751283955002
 -0.0008415581677111  0.0054326234157857  0.0035930426576715
  0.0034501647736885 -0.0006700088889356 -0.0037618903134615
 -0.0073352281454289 -0.0025170512380536  0.0022392787506290
 -0.0048929655485234 -0.0045372163891620  0.0017935579434727
  0.0015575222150195 -0.0008547207784786  0.0034747325820001
 -0.0047681645730214 -0.0029553214781640  0.0036568065424868
  0.0040700039555273  0.0063205100618271  0.0060205348011909
 -0.0033845942085740  0.0020844078774010  0.0021298914305509
  0.0029155257862028  0.0002125088254327  0.0024142161142014
  0.0005320473854354  0.0002830994696912  0.0002259601729680
 -0.0038969225068913 -0.0000139678877471  0.0111191671543566
 -0.0038617450698086  0.0049668766085849 -0.0002617807485161
  0.0034501745624049  0.0011177635450971  0.0012571774693506
  0.0025093531894081 -0.0079050998580778  0.0048166674451214
 -0.0013715965196913 -0.0035576299349728  0.0041250528705420
  0.0017377263258146 -0.0070195945812281 -0.0042887420908787
 -0.0051698278549228  0.0034019273010227  0.0034846950137178
  0.0072974886056737  0.0025858080469236  0.0032640799670152
  0.0018683378752676 -0.0040556170122683  0.0003602952112246
 -0.0042147677354676  0.0008325373993732  0.0018185925213654
 -0.0003342066029887 -0.0049396042003341  0.0027648494886624
 -0.0062735538810312  0.0004361601568821  0.0002307133268293
 -0.0081693801177642  0.0018491047112987 -0.0025233275312167
  0.0029006315987203  0.0069842187729871 -0.0014721751358469
 -0.0026274304706433  0.0087980832836071 -0.0006694756956015
  0.0050875210268600 -0.0003066660496011  0.0046458088246526
  0.0051847058018275 -0.0006142346194877  0.0036137469884776
 -0.0031173633539566 -0.0024312087493274  0.0052800271180454
 -0.0017107739383246 -0.0053731786591337 -0.0012686395976748
 -0.0039338690617635  0.0002324608087890  0.0052088331941679
  0.0017135215182383  0.0043905506993871  0.0015867944568579
 -0.0071572116800660  0.0065090020324912 -0.0019053496618729
 -0.0087040303265336  0.0047410585266443 -0.0032887757302243
 -0.0030167484228520 -0.0009070209228216 -0.0017469938313194
 -0.0005130910302277 -0.0004818577027757 -0.0020542724672145
 -0.0043463231676223 -0.0009457730658085 -0.0027240308020653
 -0.0006534183887102  0.0012653073487472  0.0014595542811067
  0.0040999053381001 -0.0023570008431975  0.0005814842905601
  0.0037023434822953  0.0033029158074877  0.0054402988174696
 -0.0015865334603898  0.0096523667591341  0.0018923255339439
  0.0014911905773510  0.0051120456129844  0.0008611569679837
 -0.0034030199956840  0.0054871274907191  0.0008841565959733
 -0.0007092461575314  0.0005172643746629 -0.0025565885330194
 -0.0008744779316419  0.0054179412830667 -0.0028843210660219
  0.0008412066004213  0.0067014399573947 -0.0052388708424318
  0.0000432201345153  0.0040798542841859  0.0064885886384631
  0.0053277635630194 -0.0046223065934759 -0.0015022442837318
 -0.0007071055660631 -0.0061519706596809  0.0000336408031407
 -0.0038308133893673  0.0002319736257301 -0.0013117058565312
  0.0045093037525333  0.0019084424131523  0.0012555814779543
  0.0020952904255191  0.0056176181122646  0.0032380039264346
  0.0057751744807409  0.0035197361240358 -0.0059999369597135
 -0.0007462521742679  0.0006740541803197 -0.0014551812592607
  0.0021170872594566  0.0034801478874722 -0.0035220746390086
  0.0028779379164005  0.0037262168164254  0.0018783671172772
  0.0037529734042710 -0.0019560232204764 -0.0005303531668697
  0.0002466933094471  0.0067593686710523 -0.0040163429215029
  0.0049666607289011  0.0060728721436182  0.0027222275005436
  0.0005318252278491  0.0005786327064620  0.0041847002902514
 -0.0008086931432623 -0.0016788886040704 -0.0007479791403427
 -0.0028447646993811 -0.0004962810682671  0.0001069498377317
 -0.0037118742395545  0.0064726810852234  0.0054283106349168
 -0.0008040134090807  0.0034724579190316 -0.0056080563115776
  0.0058282273785805 -0.0027798538023240  0.0012311879366979
  0.0051708303067467  0.0009746288758792 -0.0030245656109366
  0.0025199274634773  0.0024260794475736  0.0037655424535975
  0.0039141904736565 -0.0037740353056633  0.0037360610346269
 -0.0072654899162102  0.0057042916929748  0.0019895750161216
 -0.0048782278056526  0.0023702175807783 -0.0045261875556510
  0.0077966797109837 -0.0049638513276022 -0.0041916119696896
 -0.0088118874506640 -0.0034359380090731  0.0023652913380561
  0.0007673011198796  0.0021590736779056  0.0019369136934301
  0.0012091290405725  0.0053317807973181 -0.0040105057224440
  0.0028614041502391 -0.0037253694994599  0.0044359073420668
 -0.0000480752668877  0.0048752799034082  0.0022144970870334
  0.0052344159004733  0.0027890374439559 -0.0024318324250658
  0.0015694474043106 -0.0015505090212521  0.0005233868945633
 -0.0018201012422452 -0.0009528274881324  0.0091533228182232
  0.0004831912295129  0.0018822916607052 -0.0015485298727488
 -0.0045276353133725  0.0025890015927440 -0.0032946401544603
 -0.0024828496543900  0.0046005614952031 -0.0062105900928515
  0.0025723483166018 -0.0070920949781676  0.0001013437734568
  0.0029479364105511 -0.0009398385667241 -0.0007152384052753
 -0.0018916804305272 -0.0015993160256828 -0.0056336621678759
  0.0070957632974728 -0.0007569851891707  0.0062792230658292
  0.0024490038446241  0.0075358695790909  0.0034161491049140
 -0.0029869928219794 -0.0010430481353162  0.0006551635986453
 -0.0021730189932792  0.0049681353756792  0.0008603608834236
  0.0046296975996516 -0.0008661025324053 -0.0067690763263432
 -0.0027616590743705 -0.0012086854032519 -0.0030935698804046
  0.0030998320318406 -0.0032382407748834  0.0016278903319231
  0.0027340257243429 -0.0015893603773338 -0.0025642453608081
  0.0070370346093977  0.0004108409315492  0.0044490119350764
 -0.0027744603251805  0.0089566225724666  0.0046667477752871
 -0.0035731270514119 -0.0004158106869445  0.0077791828641348
  0.0031232927637852 -0.0044986936152808 -0.0057225362053507
 -0.0064654270513177  0.0047315217307232 -0.0025761296729660
  0.0009219432650252  0.0060593154010804  0.0000924287488236
 -0.0025033770003337  0.0027431841758170 -0.0086483591183867
 -0.0013307093369414  0.0016172415924215 -0.0036683610350653
  0.0018117210931481 -0.0000407359391899 -0.0044344767820991
 -0.0039248431203191  0.0034635986362560 -0.0033310614028035
 -0.0031729124311835  0.0010329572273243  0.0003294812213998
  0.0034228102198190 -0.0038768864893715 -0.0005583783086216
 -0.0021657122358738  0.0050727157170747 -0.0037199136035073
  0.0011817347366660 -0.0006689299746331 -0.0043580612785205
  0.0075246333167665  0.0004288661833288 -0.0037303101977150
  0.0030087757541320 -0.0030115604329412  0.0005229274574662
 -0.0005731789301023  0.0083068455033864 -0.0003096191580192
  0.0074457692829219  0.0012314170372898 -0.0041531682354683
 -0.0020649549523918 -0.0017661919561274  0.0036898201875318
 -0.0035842751355088  0.0024959552123733 -0.0003513449203130
  0.0021486715271679 -0.0021543030672099 -0.0015557642840095
 -0.0008968424075274  0.0008420254841577  0.0005310480914470
 -0.0045104740942906 -0.0041674812924885 -0.0001197734699212
 -0.0037623317371120 -0.0000077651406522  0.0088117209271629
  0.0033773279337726  0.0043912631240544 -0.0031591924712626
 -0.0026949494694471  0.0008076325538131 -0.0023210509479770
 -0.0004292032626439 -0.0034320621724723  0.0015126266643418
 -0.0072711738020231  0.0057874652823785  0.0015414010190155
  0.0030884316321524  0.0018307242238827  0.0033861989123363
  0.0042190891415862  0.0029644039432142 -0.0035074248946611
  0.0036835054781813 -0.0075656288727258 -0.0039371136737226
  0.0029345552109634  0.0002666478848127  0.0014790850688630
 -0.0048688465584846 -0.0037543115234629  0.0000276194447036
 -0.0028644688399838 -0.0016922525082694  0.0026582971177610
 -0.0003448518867747  0.0069760254562215  0.0003832227240423
 -0.0039160026089511  0.0030780319751274  0.0027165135318523
 -0.0030647865338529 -0.0005639614183795  0.0000991380648310
  0.0026334549099146  0.0009048648516490 -0.0050772791305165
 -0.0001361081301584 -0.0074171719637433  0.0033214830213719
 -0.0032462281913955  0.0023380042929207 -0.0017229346347394
 -0.0012588305557217  0.0062580400328661 -0.0031268055915626
 -0.0062969501867041  0.0002773362913139 -0.0021811578449704
 -0.0017165101467968 -0.0000824378981693  0.0035069792796964
  0.0096744582021346  0.0024317726359020 -0.0095491608162903
  0.0014224636005264  0.0008020926511938  0.0065338978035023
  0.0029364709843323  0.0047926217081280 -0.0028225652103166
  0.0039446159105598  0.0012082131781279 -0.0015606602123898
 -0.0011506038297703  0.0011969750134768  0.0026077710422607
  0.0000833798499329  0.0048733418626617  0.0000792418410646
