Na B  Si O  Al
 1.0000000000000000
    12.0000000000000000    0.0000000000000000    0.0000000000000000
     0.0000000000000000   12.0000000000000000    0.0000000000000000
     0.0000000000000000    0.0000000000000000   15.0237810126071487
 Na  B   Si  O   Al 
   8  11  40 102   1
Cartesian
  9.7219263632512529  3.7792754936847124  4.8818618895245196
  3.8066957180189154  8.7031667194364246  3.8972860933738374
  1.8473226150341844  6.7517873190006998 10.8451117328741127
  4.6613080317125242 10.8818137878836012  0.8650041229565752
 11.6040551699506977  7.2059935253654706  0.1615803068602657
  6.9029871741858484 11.4610059679281342 14.6627237526948200
  7.4742714784984461  3.9379791572327778  2.1140746358819880
  1.5869084826093747 11.7107581451436396  1.7602422891649130
  5.9657372470153494 11.5074539453873026  3.6165779782036598
  2.1866764623286969  0.7977541541137616 14.7155010152422072
  2.6066721368674526  1.9956296153529447  4.3582343053390042
 11.1288446807824979  0.6137373540838967  3.4676967253309541
  6.4239695936126919  8.6319433791708562 14.5839977052649630
 11.3260306341362220  5.9350847335307559 12.5883468400175733
  0.0100817911793238 11.2023358969175959  5.8511726142397666
 10.3350464045543387  6.4592585119015320 10.0662617221594406
  7.9051033246362010  1.3527398327642048  8.6165526362284837
  7.2441957763979774  0.8922022279447467 13.7047729812132442
  7.2834963915876809  9.7194635658144772  1.9233920345890816
  3.7320673676649161  9.6466404098949461  7.6548994185504924
  3.0929783414726741  2.5185603242815149  9.6945636524227670
  8.2056679887403661 10.8929707801689410  5.6121756259352393
  8.7445546896247954 11.2129793638696480  8.4798602038638613
  2.9765305233618067  7.8200167180532718 13.9735550721341912
  6.6830018165418243  8.2132092291104577 11.8897204190125692
  2.3335144496021423  1.4385368823660434 12.2040130429429770
  3.3536025582939737  7.3649403308436989  0.9732813874165812
  9.3779953839978276  5.7480918035531587  7.7233146015156606
 10.3451139661420903  4.7976804462598590  1.8850069428069345
  6.6100216226348687  4.9883845873939023 12.0093813252252701
 10.5282910358752488  7.0958456805798340  3.7477784814372952
 11.4176058154856754  8.7204549159815929 14.5369213621779600
  2.3618638589085355  1.9525042414462250  1.5714669295180481
 10.8132127592942631  1.8720041005677104  8.5808104571805313
  6.2959751423931332  6.9151935861391154  1.5589522617732892
  6.1237689559968267  3.5442537816029112  9.3240773025799548
  9.4559504439623332  4.1751406902626513 13.2743645109968931
  3.3532999425213359  4.8185917391054591  4.9897513413417727
  2.0381880545620348  4.7238863511301705  7.6745724509228443
 10.2015481391826643  9.5693106131992440  1.8735644320222093
  3.8768415161498142 11.5746741760578633  5.2769000635641063
  6.0125080418813122 10.3831650411415595  9.7452857306986278
  1.3258608210376184  5.2514714553445749 13.4783475581108600
  4.2518740322670983  5.1179592437722530 13.8423102950026511
  6.3895504350929517  5.7658628360790827  4.3658479383841708
 11.9232686429848371  1.6663362128342529  5.7958287154112034
  1.3880591350987665  6.7141676729872799  3.2524945140779300
  9.4456164263543894  9.3741200447099384 12.3380958610323628
 10.6537942949399884  9.3030257165492021  9.6073421198314115
  1.7204459135636694  7.5612054501520456  8.0192911793536243
 11.4982474650346624  2.6440036760819332 11.4641865642183252
  2.1120344748285387 11.4578723099482129  9.6686179661638949
 11.0022091211601669 11.6035633248791150  4.0728802345251829
  2.5907172120581952 10.6885120086442917 12.7563623028241118
  8.2273650162812437  7.7608208631397009  5.8063038907709883
  7.2361574262616131  1.5120382345000813  4.8106502082446942
  4.8982769274498779  1.5022108742519340  2.9341698264290317
  9.0822150414475509  1.7978290081143764  2.3013800190238238
  0.1162264532192617  4.1086870592262450  2.0637800834607081
  6.6334485073009928  4.4280680026650217 10.5244394761703326
 10.6151056562273567  7.7221374510980141  9.6233592664023480
  8.8237971218351223  4.3590891742519542  7.2336762115160846
  8.1205067424546939  1.6229105538227062  1.0925623267507509
 10.8900018028269585  9.5805570206328738  0.4208761792333681
  7.4959533321555263 10.8286109912793123  9.3525223767999535
  8.0647507612104299  9.3474591895995012  5.9355588264998493
  9.8077599777560867  3.2643035651134467  2.1095149023433528
 11.7428258504580683  1.1115988182843197 11.9792458114543923
  0.6165533235584642  4.3148305958348168  7.0742646311120518
  2.7933335701159279  4.7589355588923494 13.1755671511783916
  2.2105581094600053  7.5635811498216565  2.1211803213876301
  2.0949750325038545  1.8951593165301588 13.7178770377689876
  0.6827395665592468  7.5699003360895185  6.7486972743859148
  2.9223004902876881  6.1941259397251498  0.0306668560521957
  4.8150641769454632  5.3438915197287171  4.5508929117692700
  6.9529702823676587  2.1530168741388458  9.2375466234616752
 10.5333719966705601  8.6184120837680300 13.1987062824074446
  2.6313454618502128 10.5150786774924292  8.5287257177528826
  0.4691197573335277  7.6566820536704023  4.1894347928686244
  4.1860181630223350  6.7647208402627470 13.8114908824544393
 10.9621093159327874 10.5624931976417944  2.8830942852716848
  0.2327381260342891  9.8135557807095637  5.7553721608997046
  5.8672939201064818  0.7983006815172453 13.7966687929954812
  3.2770230004473269  1.0355058371127996  5.1609008193083596
  3.7604803435684038 10.2861238861109268  6.1978151072832084
  8.1578899016138759 11.7143255479770581  7.0134949592217488
  4.6149820807816671  3.0262183674626733  9.7325558804177525
  5.4467040000151243  4.6211312216735578 12.9712348978613186
 11.2247575630367820 11.8770986433516690 12.9282087910496646
  7.2489365597664239  4.5796554233944917  4.9885823855015072
  6.9261191191291704 11.3886414134228247  4.7764904757083109
  3.3098053705291020  2.1692771156061754  0.3450888721796175
  8.8014585781686687 10.5256361035261925 13.1778605432905955
  5.1162122019063840 10.0593527368494371  8.3860990098005193
  6.4593566320371245  6.6117893990466028 11.8504162732226934
  8.4324716321654378  6.8764868784537958  7.1849079874591490
  3.9504329043909805 11.6708808924915655 12.9472741504193340
  2.4723078346626739  3.4889313716066725  8.5493959223117759
  0.2889337291212540  5.0010365454787555 12.3296227029759482
  0.5870880196269581 11.7724586895357461  9.4322037662111313
  1.3149770549526323  3.1265566931978763  1.6169330626830642
  1.3722682107096202  0.1872611515132022 11.7816937102785868
 11.5891717590127357  0.4309842870128502  8.6944709272660017
  0.6192197357566838  5.5627213131685336  2.3721205672761703
  5.1489197845878820 11.4299892284391937 10.6129769508917793
  1.6488691078542561  6.8815994323331307 13.5967875398951374
  2.3276705582852815 10.9509313345131236 11.1410581218506728
  3.8359524700735612  0.7812335326512183 12.0968981375625422
  0.3189399695331408  0.2385933518289657  8.2238365438259518
 10.2916352443244392  8.1446110492681161  2.5502735364153839
  3.2580109562934507  1.7963462941095132  2.9008776420800388
  4.6086292149973582 11.1101479016108247  3.9658927873532392
  8.3688727886454224  2.0311116531539493  3.7625607115451709
  3.1310313265897660  8.1869500849572070  7.6357467283200249
 11.3100577007636662  2.6890934857542952  9.9042156112083894
  2.7396872219680053  0.9910419445722812  9.3696454477840110
 10.2353738079699923  0.7240993358140820  2.4114038094238359
  1.4387297365497154 11.3664338561074221 13.5674781317395450
 10.8502628221416266  6.0935653635931297  7.0638926944752622
  9.4659625607130131  5.7146527328199008  9.2716707949576520
  3.0852847124834213  5.0757644106544300  6.5087816832790351
  6.1355250495176099  4.2367693518867586  7.8520796329201259
  5.5760536621732193  2.3331826262384285  1.8461366451487846
  9.5734850126835109  5.6125986979997151  0.7358682758982660
 10.1896520094646093  3.1410100957107545 12.3030777864108583
  6.1684522797420422  8.8594442989684978 13.2392392928501614
  7.4033719652675511  0.0959370490083095  8.2025718795036315
  5.8114472911874557  1.9356803883888327  4.2485997756163707
 10.8952179133766851  1.2310382164613327  4.6695095557410413
  1.0096388401146577  8.3461663414242082  9.2104613279314052
  9.7022202990280206  9.9178060057225252  8.4755214464532909
  6.0651512505252052  9.0243720416673181 10.6600579884213271
  1.1524118188705521  1.6799698924978839  4.1441131191670699
  6.7519881957837766  6.0841501637060924  2.8155487021076016
  2.9676774738776714  9.1690981763642654 13.1002771099106603
  7.4372731026332870  2.0936289814642448  6.2837791001723478
  6.4521105907059315 10.6601496223604109  2.5176135270982525
  8.0795263198674370  4.6145276785012861 12.6816703707601608
  9.5434143449288413 11.3576458558107802  4.8719433971752224
  2.8196666792773168  3.3705397278443368  4.5849385615538214
  2.2874887295429840  2.6375859712207887 11.1255377881683515
  9.5042162400590637  7.4997945705249984  4.8699410821307936
  1.8338219093045516  0.3959804988831170  1.2234140784398098
 11.2341338841265301  2.3471694312277007  7.1000505377998993
  8.6553814749189968  9.9441960942812955  1.7678225159737453
  6.8734444095933664  8.4341414849268155  1.6153152048291020
  5.0503157016212468  0.2493060018812660  6.8980986299077438
  9.2469976162114165  1.5591308804649320  8.7088060961395950
  1.8999154528673616  6.0712193723080938  8.4955399506524216
 10.2124090306230038  5.5405234677181543  3.2993159825111813
 10.4761427223774817  5.4375719907179558 13.5260947075057487
 10.8622198351285455  5.9436891899725346 11.2602001936240743
  4.6930855394568551  7.2205510362796419  1.7763219015469038
  7.8129013121894744  0.3581911839883622 12.5568534298074805
 11.9098992202115888  4.6367189826486346  1.5638639829928032
  6.3745745939654732  6.0991202658792485  0.1970744762596731
  6.8345019305715766  7.1824326912907521  5.0598924807915155
  8.2688795693645751  8.4297123649616310 11.7694575639779568
  3.5422415246900694  8.6870000887257994  0.0056788889646127
 10.1211805008107216  9.9849645329089469 11.0484538882537215
  2.3806719983535971  5.8723859857812988  4.1560125975008670
  7.2863262541981078  3.7691128932834550  6.6511395761061154
Cartesian
  0.0009686744350439  0.0029878916287281  0.0003904107475756
  0.0036555356630499  0.0002714220167355  0.0043157334491208
  0.0027211856291097  0.0034749704110787 -0.0021698302002674
  0.0007324110779330 -0.0023462956363977 -0.0027984576347880
 -0.0016931639873390  0.0008562788671362 -0.0057801996362378
  0.0012610411584432 -0.0025861091896590  0.0041091588833002
 -0.0012392069360521  0.0016018249148681 -0.0028373376314188
 -0.0006678711238301  0.0013417641099435  0.0033867963357474
  0.0005525093541548  0.0000193617660424 -0.0073257704611189
  0.0065761150910889 -0.0121551672786522 -0.0057689300119055
  0.0014044992195453  0.0023854828402383  0.0014256112891678
 -0.0012817610729854  0.0050498095608500 -0.0042915269966642
 -0.0082722865458311  0.0034001797947494  0.0031361190673429
 -0.0027117767163023 -0.0012975982974579 -0.0033098534775473
  0.0192564577111343 -0.0014765489783794  0.0031590516651492
 -0.0003560532521773 -0.0028484967420928  0.0060006604629731
  0.0016380319707903  0.0074283391882592  0.0013306599202115
  0.0001481285918487 -0.0000682987710184 -0.0012346710888925
 -0.0051353668321787  0.0004391755776950 -0.0033309197626678
  0.0066962737355282 -0.0049040902564455 -0.0011094423868587
 -0.0046956245751818  0.0057366711254168 -0.0002724385042968
  0.0024254699503988  0.0001612961779195  0.0040508796042714
  0.0007421851360359  0.0023785732857105  0.0028170536056417
 -0.0010127086562255 -0.0027464061087034 -0.0026580045526871
  0.0002984479684500 -0.0080968497149379 -0.0014421632105946
 -0.0022712928549303 -0.0047754766494882  0.0005476140900390
  0.0005078345693220 -0.0022254846691966 -0.0002673534725989
  0.0010863816296317  0.0033344709020077 -0.0038311620012569
 -0.0019161802403150 -0.0016753181110527  0.0051455299330712
  0.0023227653689030  0.0058268689199508 -0.0022366589836705
  0.0017908145066901  0.0012264081412377  0.0009596628791584
  0.0003345673679829  0.0001570979700690 -0.0006329678283218
  0.0019196369294242 -0.0035065028939101 -0.0060682728605583
  0.0038364099406286  0.0002586825255026  0.0045847952072265
  0.0015013374214444 -0.0017741972799140  0.0010838305747382
  0.0012237063972493  0.0044670826192276  0.0043870961743036
 -0.0024540756280438  0.0029164672429529  0.0033244957662586
  0.0051957602431489 -0.0056240749799016 -0.0032641007173168
 -0.0001497735853413  0.0059215248930745 -0.0011104173570139
  0.0018299811788279  0.0002040251765799 -0.0032639566115475
  0.0033490146865409 -0.0053468736254667  0.0006307036974264
  0.0007632480373536 -0.0007544661233779  0.0011787025553911
  0.0014740361887785 -0.0010149798899144 -0.0013863182435055
  0.0021019115482666 -0.0031498188680897  0.0030414599087802
 -0.0012040352444907 -0.0026118747686158 -0.0004709522357223
 -0.0020087392734004  0.0044965972057486  0.0014988309488609
 -0.0025105209221794 -0.0055364872902728 -0.0032765272252785
 -0.0010072408188737 -0.0021906572883191 -0.0006633462581149
 -0.0038686505399239  0.0024986424546335 -0.0017709335466863
  0.0008471298891246  0.0022613938951142  0.0000828708179756
 -0.0055827198146349 -0.0038533704578730 -0.0035547078141038
  0.0014849384757937 -0.0021991445875267  0.0032704905274552
 -0.0014866216377019 -0.0046003291870380 -0.0060678605395475
 -0.0027574266223881  0.0000122508907452 -0.0043790953628338
  0.0034047396641660 -0.0001235015602697  0.0031223418072938
  0.0026193244211935  0.0007062075810746  0.0013381034658755
 -0.0051953588658609  0.0016753981564592 -0.0016483799864914
  0.0008182365523110 -0.0032839596854303 -0.0002341027919984
 -0.0044313969493010  0.0029284929346763 -0.0022481812761588
 -0.0035177631194735  0.0068747060153728  0.0010413275748683
 -0.0054392803569422  0.0049298642566162  0.0068160044054380
 -0.0007918732695247  0.0006327766791793  0.0054169000966248
  0.0025417465102021 -0.0019498782082698 -0.0006456551121946
  0.0009650886857758  0.0002545764837960  0.0001698410939421
 -0.0001925486536197  0.0039173626791525  0.0048794339277316
  0.0026659815264594  0.0029581969747190  0.0083191910009188
 -0.0055138754590661 -0.0003585426014673 -0.0059129355278891
 -0.0008973212590252 -0.0036577553577598  0.0004385576851941
  0.0021912730912399 -0.0036268154973460  0.0029646574577595
 -0.0016794680354197 -0.0051573014090087  0.0010432776640408
 -0.0056797624317238  0.0011586373782730  0.0045325638075855
  0.0057390983383163 -0.0015541578529682 -0.0031313859927042
  0.0016707611396855 -0.0055214635314396 -0.0052055786579952
 -0.0040981481663758  0.0013376770343527 -0.0003318461873960
 -0.0015215030478239  0.0044727560752366 -0.0017028377677098
  0.0053262703956311 -0.0050661721380298 -0.0011533458779054
 -0.0034520409149490 -0.0038315423393886  0.0032003306056112
  0.0025533290919809 -0.0000476193601168 -0.0023864586082721
 -0.0030227958265549 -0.0004413486862094  0.0008937797730114
 -0.0043345535994378 -0.0058344664889307 -0.0004457643200723
  0.0036255799881682  0.0011534365664699 -0.0047256091273344
 -0.0043937522371382  0.0001686407381994 -0.0006501696268300
  0.0021956649792899  0.0005456717629811 -0.0051895578668477
  0.0026561223865813  0.0015187399968316 -0.0001270978644773
 -0.0088346468774868 -0.0030942131338083  0.0064044537510570
  0.0026729380821945  0.0028951237978636  0.0018690244674050
 -0.0029220701821953  0.0011255995215743  0.0000503257213867
 -0.0025431753690096 -0.0007274346568438  0.0003328599948507
 -0.0005246942235698  0.0016573509960038  0.0012879781962364
  0.0021148379071976 -0.0037706226574499  0.0001687678959078
  0.0012047783261865  0.0010842381472312  0.0032288148492993
  0.0018887976358368  0.0025508260195754  0.0008815928421961
 -0.0007692691905778 -0.0025197340345258 -0.0119184890306142
 -0.0023052256000233  0.0005856122604674  0.0048131029726197
  0.0026863147336334 -0.0030598522479534 -0.0029878511110328
  0.0028533119092693 -0.0119232481120817 -0.0031582407136914
  0.0030082969001512  0.0001261912494794 -0.0033709692019059
  0.0038622884938279 -0.0030448786170848 -0.0004734927960892
 -0.0065106429511518  0.0022094047124570  0.0009919683073496
  0.0047517405061015 -0.0053079748378696  0.0011695217541179
  0.0118909744363394 -0.0011016993254667  0.0069685401023955
  0.0064381243848852 -0.0017225038360744 -0.0071442259471464
  0.0009720183956869 -0.0028847960785295  0.0044123474613008
 -0.0049760388687516 -0.0037646374651326  0.0029021844059028
 -0.0013844527556133  0.0062243248330744  0.0091619540894457
  0.0012781423574099 -0.0047700911366876  0.0033525356332221
 -0.0069023260311666 -0.0002077172718945  0.0134240713510086
  0.0002253666946894  0.0032541168727526  0.0008592589276536
  0.0040452605127316  0.0005242451985106  0.0010266743384419
  0.0056956773107522 -0.0079836180475171  0.0040345219522626
  0.0045423285215219  0.0003246939809735  0.0057888671866347
 -0.0058868859019771 -0.0011479900130316 -0.0007249079536094
  0.0018097282005335 -0.0087585519665243  0.0034365420068070
  0.0004388065155731  0.0019528778249806 -0.0062372420698624
 -0.0013645712251892 -0.0016666403282155 -0.0050814488655192
 -0.0025541881099278  0.0032557358080340  0.0051383330282154
 -0.0001108472986979 -0.0064774931847838  0.0030703416506434
  0.0029558910933703 -0.0006470657418380 -0.0006895352182546
  0.0024778454642259 -0.0032532529769304  0.0058327152103605
  0.0061175626450480  0.0021032632431195  0.0056285869441141
  0.0024479081352715  0.0020248628836995 -0.0022538918625555
 -0.0007217252777082  0.0014419142125550 -0.0014875882503411
  0.0019113840677993  0.0026390309376007 -0.0023093795700421
  0.0034111207219810  0.0038268967666958 -0.0107058386115795
 -0.0073352281454289 -0.0025170512380536  0.0022392787506290
  0.0015575222150195 -0.0008547207784786  0.0034747325820001
 -0.0047681645730214 -0.0029553214781640  0.0036568065424868
  0.0040700039555273  0.0063205100618271  0.0060205348011909
  0.0005320473854354  0.0002830994696912  0.0002259601729680
 -0.0013715965196913 -0.0035576299349728  0.0041250528705420
 -0.0042147677354676  0.0008325373993732  0.0018185925213654
 -0.0003342066029887 -0.0049396042003341  0.0027648494886624
  0.0051847058018275 -0.0006142346194877  0.0036137469884776
 -0.0017107739383246 -0.0053731786591337 -0.0012686395976748
 -0.0043463231676223 -0.0009457730658085 -0.0027240308020653
  0.0000432201345153  0.0040798542841859  0.0064885886384631
 -0.0007071055660631 -0.0061519706596809  0.0000336408031407
  0.0057751744807409  0.0035197361240358 -0.0059999369597135
 -0.0007462521742679  0.0006740541803197 -0.0014551812592607
  0.0028779379164005  0.0037262168164254  0.0018783671172772
 -0.0008040134090807  0.0034724579190316 -0.0056080563115776
 -0.0072654899162102  0.0057042916929748  0.0019895750161216
  0.0077966797109837 -0.0049638513276022 -0.0041916119696896
  0.0028614041502391 -0.0037253694994599  0.0044359073420668
 -0.0000480752668877  0.0048752799034082  0.0022144970870334
  0.0015694474043106 -0.0015505090212521  0.0005233868945633
  0.0004831912295129  0.0018822916607052 -0.0015485298727488
  0.0025723483166018 -0.0070920949781676  0.0001013437734568
  0.0070957632974728 -0.0007569851891707  0.0062792230658292
 -0.0021730189932792  0.0049681353756792  0.0008603608834236
  0.0070370346093977  0.0004108409315492  0.0044490119350764
 -0.0027744603251805  0.0089566225724666  0.0046667477752871
  0.0009219432650252  0.0060593154010804  0.0000924287488236
  0.0034228102198190 -0.0038768864893715 -0.0005583783086216
  0.0075246333167665  0.0004288661833288 -0.0037303101977150
 -0.0005731789301023  0.0083068455033864 -0.0003096191580192
  0.0074457692829219  0.0012314170372898 -0.0041531682354683
 -0.0020649549523918 -0.0017661919561274  0.0036898201875318
  0.0029345552109634  0.0002666478848127  0.0014790850688630
 -0.0003448518867747  0.0069760254562215  0.0003832227240423
  0.0096744582021346  0.0024317726359020 -0.0095491608162903
  0.0039446159105598  0.0012082131781279 -0.0015606602123898
