Cotton Phenanthrene Adsorption Energy Experiment
1.0
       22.7840003967         0.0000000000         0.0000000000
       -1.8709829262        16.2949391194         0.0000000000
        0.0000000000         0.0000000000        20.7600002289
    C    H    O
   86   94   61
Cartesian
     3.723223429         3.707098650         3.158634035
     2.189793728        12.587840470         8.348634092
     3.723223429         3.707098650        13.538634149
     2.189793728        12.587840470        18.728634206
     2.787731966        11.854568209         3.158634035
     3.125285191         4.440370910         8.348634092
     2.787731966        11.854568209        13.538634149
     3.125285191         4.440370910        18.728634206
     3.400100852         2.589265826         2.173572024
     2.512916305        13.705673293         7.363572081
     3.400100852         2.589265826        12.553572138
     2.512916305        13.705673293        17.743572196
     2.464609389        10.736735386         2.173572024
     3.448407768         5.558203734         7.363572081
     2.464609389        10.736735386        12.553572138
     3.448407768         5.558203734        17.743572196
     3.902696644         2.957531450         0.794070009
     2.010320512        13.337407669         5.984070066
     3.902696644         2.957531450        11.174070123
     2.010320512        13.337407669        16.364070180
     2.967205181        11.105001010         0.794070009
     2.945811976         5.189938110         5.984070066
     2.967205181        11.105001010        11.174070123
     2.945811976         5.189938110        16.364070180
     3.259819531         4.285568988         0.389250004
     2.653197626        12.009370131         5.579250062
     3.259819531         4.285568988        10.769250119
     2.653197626        12.009370131        15.959250176
     2.324328068        12.433038548         0.389250004
     3.588689089         3.861900571         5.579250062
     2.324328068        12.433038548        10.769250119
     3.588689089         3.861900571        15.959250176
     3.596151957         5.356146489         1.440744016
     2.316865200        10.938792631         6.630744073
     3.596151957         5.356146489        11.820744130
     2.316865200        10.938792631        17.010744188
     2.660660494        13.503616048         1.440744016
     3.252356663         2.791323071         6.630744073
     2.660660494        13.503616048        11.820744130
     3.252356663         2.791323071        17.010744188
     2.755942495         6.640187691         1.167750013
     3.157074661         9.654751428         6.357750070
     2.755942495         6.640187691        11.547750127
     3.157074661         9.654751428        16.737750185
     1.820451032        14.787657251         1.167750013
     4.092566124         1.507281869         6.357750070
     1.820451032        14.787657251        11.547750127
     4.092566124         1.507281869        16.737750185
    -0.787224823         7.805275838         0.449454005
    -0.787224823         7.805275838        10.829454119
    -0.905237894         9.646603959         4.654392051
    -0.905237894         9.646603959        15.034392166
    -0.495969136         7.031266230        18.841776208
    -0.495969136         7.031266230         8.461776093
    -0.852938720         7.903045473         2.854500031
    -0.852938720         7.903045473        13.234500146
    -0.881850608         9.442917220        19.481184215
    -0.881850608         9.442917220         9.101184100
    -0.271221690         5.548426770         3.601860040
    -0.271221690         5.548426770        13.981860154
     6.999997184         6.666316135        10.425861668
     6.999996801         6.666316135        11.864838472
     6.999997368         7.908795009         9.733857549
     6.999996617         7.908795009        12.556842591
     6.999997178         9.111265090        10.450047829
     6.999996807         9.111265090        11.840352474
     6.999997396         5.489916939         9.630816499
     6.999996589         5.490017211        12.659883642
     6.999997742         7.942988004         8.329660857
     6.999996243         7.942988004        13.961039284
     6.999997768         5.538047842         8.234915053
     6.999996217         5.538148114        14.055885042
     6.999997941         6.765285275         7.584287267
     6.999996044         6.765285275        14.706612758
    -0.965745032         6.648335161         9.844392109
    -1.375013790         9.263672889         3.271776036
    -1.083758104         8.489663281         5.639454062
    -1.375013790         9.263672889        13.651776151
    -1.083758104         8.489663281        16.019454177
    -0.965745032         6.648335161        20.224392223
    -1.018044207         8.391893646        18.424500203
    -1.018044207         8.391893646         8.044500089
    -0.989132318         6.852021900         3.911184043
    -0.989132318         6.852021900        14.291184158
    -1.599761236        10.746512349        19.171860211
    -1.599761236        10.746512349         8.791860097
     4.687713995         3.760871949         3.321600037
     1.225303162        12.534067171         8.511600094
     4.687713995         3.760871949        13.701600151
     1.225303162        12.534067171        18.891600208
     3.752222532        11.908341508         3.321600037
     2.160794625         4.386597611         8.511600094
     3.752222532        11.908341508        13.701600151
     2.160794625         4.386597611        18.891600208
     2.422758740         2.491496191         2.129976023
     3.490258417        13.803442928         7.319976081
     2.422758740         2.491496191        12.509976138
     3.490258417        13.803442928        17.699976195
     1.487267277        10.638965751         2.129976023
     4.425749880         5.655973368         7.319976081
     1.487267277        10.638965751        12.509976138
     4.425749880         5.655973368        17.699976195
     4.876644509         3.057745326         0.823134009
     1.036372648        13.237193794         6.013134066
     4.876644509         3.057745326        11.203134124
     1.036372648        13.237193794        16.393134181
     3.941153046        11.205214885         0.823134009
     1.971864111         5.089724234         6.013134066
     3.941153046        11.205214885        11.203134124
     1.971864111         5.089724234        16.393134181
     2.291133367         4.186984607         0.299982003
     3.621883790        12.107954513         5.489982061
     2.291133367         4.186984607        10.679982118
     3.621883790        12.107954513        15.869982175
     1.355641904        12.334454166         0.299982003
     4.557375253         3.960484953         5.489982061
     1.355641904        12.334454166        10.679982118
     4.557375253         3.960484953        15.869982175
     4.552987386         5.564721709         1.422060016
     1.360029770        10.730217410         6.612060073
     4.552987386         5.564721709        11.802060130
     1.360029770        10.730217410        16.992060187
     3.617495923        13.712191269         1.422060016
     2.295521234         2.582747850         6.612060073
     3.617495923        13.712191269        11.802060130
     2.295521234         2.582747850        16.992060187
     1.866928473         6.390060376         0.879186010
     4.046088683         9.904878744         6.069186067
     1.866928473         6.390060376        11.259186124
     4.046088683         9.904878744        16.449186181
     0.931437010        14.537529935         0.879186010
     4.981580146         1.757409184         6.069186067
     0.931437010        14.537529935        11.259186124
     4.981580146         1.757409184        16.449186181
     2.674620031         7.151848780         1.988808022
     3.238397126         9.143090340         7.178808079
     2.674620031         7.151848780        12.368808136
     3.238397126         9.143090340        17.558808194
     1.739128568        15.299318339         1.988808022
     4.173888589         0.995620780         7.178808079
     1.739128568        15.299318339        12.368808136
     4.173888589         0.995620780        17.558808194
     0.157844565         7.994297132         0.620724007
     0.157844565         7.994297132        11.000724121
     0.034679233         9.921173683         4.623252051
     0.034679233         9.921173683        15.003252165
     0.485866844         7.069559337        18.850080208
     0.485866844         7.069559337         8.470080093
     0.105347576         8.004074095         2.672850029
     0.105347576         8.004074095        13.052850144
     0.067204329         9.631123767        19.628580216
     0.067204329         9.631123767         9.248580102
     0.642805247         5.736633317         3.344436037
     0.642805247         5.736633317        13.724436151
    -0.256460372         4.992769346         4.395930048
    -0.256460372         4.992769346        14.775930163
     6.999997316        10.070974994         9.932044172
     6.999996669        10.071075265        12.358456084
     6.999997275         4.500024970        10.085556364
     6.999996710         4.500125242        12.205243730
     6.999997884         8.896280458         7.799064410
     6.999996102         8.896380730        14.490836195
     6.999997920         4.613232834         7.661543084
     6.999996065         4.613333105        14.629157080
     6.999998230         6.808001445         6.500007562
     6.999995755         6.808001445        15.790792533
    -1.905662160         6.373765437         9.813252108
    -2.356849770         9.225379782         3.280080036
    -2.028827492         8.300641987         5.810724064
    -2.356849770         9.225379782        13.660080151
    -2.028827492         8.300641987        16.190724179
    -1.905662160         6.373765437        20.193252223
    -1.976330502         8.290865024        18.242850201
    -1.976330502         8.290865024         7.862850087
    -1.938187256         6.663815353         4.058580045
    -1.938187256         6.663815353        14.438580159
    -2.513788174        10.558305802        18.914436209
    -1.614522554        11.302169773        19.965930220
    -2.513788174        10.558305802         8.534436094
    -1.614522554        11.302169773         9.585930106
     3.954660461         1.352479947         2.615760029
     1.958356696        14.942459173         7.805760086
     3.954660461         1.352479947        12.995760143
     1.958356696        14.942459173        18.185760201
     3.019168998         9.499949507         2.615760029
     2.893848159         6.794989613         7.805760086
     3.019168998         9.499949507        12.995760143
     2.893848159         6.794989613        18.185760201
     2.347962628        14.396578712         5.105922056
     3.565054529         1.898360407        10.295922114
     2.347962628        14.396578712        15.485922171
     3.283454091         6.249109152         5.105922056
     2.629563066        10.045829967        10.295922114
     3.283454091         6.249109152        15.485922171
     3.834194050         4.774417162        19.923372220
     2.078823107        11.520521957         4.353372048
     3.834194050         4.774417162         9.543372105
     2.078823107        11.520521957        14.733372162
     2.898702586        12.921886722        19.923372220
     3.014314570         3.373052398         4.353372048
     2.898702586        12.921886722         9.543372105
     3.014314570         3.373052398        14.733372162
     3.207396722         4.945514023         2.739282030
     2.705620435        11.349425097         7.929282087
     3.207396722         4.945514023        13.119282145
     2.705620435        11.349425097        18.309282202
     2.271905259        13.092983582         2.739282030
     3.641111898         3.201955537         7.929282087
     2.271905259        13.092983582        13.119282145
     3.641111898         3.201955537        18.309282202
     3.363888847         7.446787178         0.176460002
     2.549128309         8.848151942         5.366460059
     3.363888847         7.446787178        10.556460116
     2.549128309         8.848151942        15.746460174
     2.428397384        15.594256737         0.176460002
     3.484619772         0.700682382         5.366460059
     2.428397384        15.594256737        10.556460116
     3.484619772         0.700682382        15.746460174
    -0.166923149         5.589164118        20.756886229
    -0.166923149         5.589164118        10.376886114
    -0.969486737        10.273959115         2.326158026
    -0.969486737        10.273959115        12.706158140
    -0.401007735         8.848151942        17.205888190
    -0.401007735         8.848151942         6.825888075
    -0.406973813         7.340870073         5.134986057
    -0.406973813         7.340870073        15.514986171
    -0.938862527        11.430899792        18.123480200
    -0.938862527        11.430899792         7.743480085
     3.565054529         1.898360407        -0.084078001
     2.629563066        10.045829967        -0.084078001
    -1.469975191         7.446787178         1.635888018
    -1.464009114         8.954069046        -0.055014001
    -1.469975191         7.446787178        12.015888132
    -1.464009114         8.954069046        10.324986114
    -1.704059778        10.705775001         5.186886057
    -1.704059778        10.705775001        15.566886172
    -0.901496189         6.020980005        17.896158197
    -0.901496189         6.020980005         7.516158083
    -1.464009114         8.954069046        20.704986228
    -0.932120400         4.864039327         2.553480028
    -0.932120400         4.864039327        12.933480143
