C12 H14 O10
1.0
        7.7839999199         0.0000000000         0.0000000000
       -1.8709829262        16.2949391194         0.0000000000
        0.0000000000         0.0000000000        20.7600002289
    C    H    O
   72   84   66
Cartesian
    -1.722716286        15.952745398         0.449454005
    -1.722716286        15.952745398        10.829454119
    -0.787224823         7.805275838         0.449454005
    -0.787224823         7.805275838        10.829454119
     0.030253569         1.499134399         4.654392051
     0.030253569         1.499134399        15.034392166
    -0.905237894         9.646603959         4.654392051
    -0.905237894         9.646603959        15.034392166
    -1.431460599        15.178735790        18.841776208
    -1.431460599        15.178735790         8.461776093
    -0.495969136         7.031266230        18.841776208
    -0.495969136         7.031266230         8.461776093
    -1.788430183        16.050515033         2.854500031
    -1.788430183        16.050515033        13.234500146
    -0.852938720         7.903045473         2.854500031
    -0.852938720         7.903045473        13.234500146
     0.053640855         1.295447660        19.481184215
     0.053640855         1.295447660         9.101184100
    -0.881850608         9.442917220        19.481184215
    -0.881850608         9.442917220         9.101184100
    -1.206713153        13.695896330         3.601860040
    -1.206713153        13.695896330        13.981860154
    -0.271221690         5.548426770         3.601860040
    -0.271221690         5.548426770        13.981860154
    -1.901236495        14.795804720         9.844392109
    -0.965745032         6.648335161         9.844392109
    -0.439522327         1.116203330         3.271776036
    -0.148266640         0.342193722         5.639454062
    -0.439522327         1.116203330        13.651776151
    -0.148266640         0.342193722        16.019454177
    -1.375013790         9.263672889         3.271776036
    -1.083758104         8.489663281         5.639454062
    -1.375013790         9.263672889        13.651776151
    -1.083758104         8.489663281        16.019454177
    -1.901236495        14.795804720        20.224392223
    -1.953535669        16.539363206        18.424500203
    -1.953535669        16.539363206         8.044500089
    -0.965745032         6.648335161        20.224392223
    -1.018044207         8.391893646        18.424500203
    -1.018044207         8.391893646         8.044500089
    -1.924623782        14.999491459         3.911184043
    -2.310505253        17.411142449         3.271776036
    -1.924623782        14.999491459        14.291184158
    -2.310505253        17.411142449        13.651776151
    -0.989132318         6.852021900         3.911184043
    -0.989132318         6.852021900        14.291184158
    -0.082552743         0.244424087        18.424500203
    -0.664269773         2.599042790        19.171860211
    -0.082552743         0.244424087         8.044500089
    -0.664269773         2.599042790         8.791860097
    -1.599761236        10.746512349        19.171860211
    -1.599761236        10.746512349         8.791860097
    -2.019249566        16.637132841         5.639454062
    -2.019249566        16.637132841        16.019454177
    -1.817342071        17.590386779         9.101184100
     0.082552743        -0.244424086         2.854500031
     0.082552743        -0.244424086        13.234500146
    -1.817342071        17.590386779        19.481184215
    -1.840729357        17.794073518         4.654392051
    -1.840729357        17.794073518        15.034392166
     0.439522327        -1.116203329        18.841776208
     0.439522327        -1.116203329         8.461776093
     0.148266640        -0.342193721        10.829454119
    -2.535252699        18.893981909         8.791860097
    -0.053640856        -1.295447660         3.911184043
    -0.053640856        -1.295447660        14.291184158
    -2.535252699        18.893981909        19.171860211
    -0.030253569        -1.499134399        20.224392223
    -0.030253569        -1.499134399         9.844392109
     0.148266640        -0.342193721         0.449454005
     0.664269773        -2.599042789         3.601860040
     0.664269773        -2.599042789        13.981860154
    -0.777646898        16.141766692         0.620724007
    -0.777646898        16.141766692        11.000724121
     0.157844565         7.994297132         0.620724007
     0.157844565         7.994297132        11.000724121
     0.970170696         1.773704123         4.623252051
     0.970170696         1.773704123        15.003252165
     0.034679233         9.921173683         4.623252051
     0.034679233         9.921173683        15.003252165
    -0.449624619        15.217028897        18.850080208
    -0.449624619        15.217028897         8.470080093
     0.485866844         7.069559337        18.850080208
     0.485866844         7.069559337         8.470080093
    -0.830143887        16.151543655         2.672850029
    -0.830143887        16.151543655        13.052850144
     0.105347576         8.004074095         2.672850029
     0.105347576         8.004074095        13.052850144
     1.002695792         1.483654207        19.628580216
     1.002695792         1.483654207         9.248580102
     0.067204329         9.631123767        19.628580216
     0.067204329         9.631123767         9.248580102
    -0.292686216        13.884102877         3.344436037
    -0.292686216        13.884102877        13.724436151
     0.642805247         5.736633317         3.344436037
     0.642805247         5.736633317        13.724436151
    -1.191951835        13.140238906         4.395930048
    -1.191951835        13.140238906        14.775930163
    -0.256460372         4.992769346         4.395930048
    -0.256460372         4.992769346        14.775930163
    -2.841153623        14.521234996         9.813252108
    -1.905662160         6.373765437         9.813252108
    -1.421358307         1.077910223         3.280080036
    -1.093336029         0.153172428         5.810724064
    -1.421358307         1.077910223        13.660080151
    -1.093336029         0.153172428        16.190724179
    -2.356849770         9.225379782         3.280080036
    -2.028827492         8.300641987         5.810724064
    -2.356849770         9.225379782        13.660080151
    -2.028827492         8.300641987        16.190724179
    -2.841153623        14.521234996        20.193252223
    -2.911821965        16.438334583        18.242850201
    -2.911821965        16.438334583         7.862850087
    -1.905662160         6.373765437        20.193252223
    -1.976330502         8.290865024        18.242850201
    -1.976330502         8.290865024         7.862850087
    -2.873678719        14.811284913         4.058580045
    -3.292341233        17.372849342         3.280080036
    -2.873678719        14.811284913        14.438580159
    -3.292341233        17.372849342        13.660080151
    -1.938187256         6.663815353         4.058580045
    -1.938187256         6.663815353        14.438580159
    -1.040839039         0.143395464        18.242850201
    -1.578296711         2.410836243        18.914436209
    -0.679031091         3.154700214        19.965930220
    -1.040839039         0.143395464         7.862850087
    -1.578296711         2.410836243         8.534436094
    -0.679031091         3.154700214         9.585930106
    -2.513788174        10.558305802        18.914436209
    -1.614522554        11.302169773        19.965930220
    -2.513788174        10.558305802         8.534436094
    -1.614522554        11.302169773         9.585930106
    -2.964318955        16.448111547         5.810724064
    -2.964318955        16.448111547        16.190724179
    -0.868287134        17.778593326         9.248580102
     1.040839039        -0.143395464         2.672850029
     1.040839039        -0.143395464        13.052850144
    -0.868287134        17.778593326        19.628580216
    -0.900812230        18.068643242         4.623252051
    -0.900812230        18.068643242        15.003252165
     1.421358307        -1.077910222        18.850080208
     1.421358307        -1.077910222         8.470080093
     1.093336028        -0.153172427        11.000724121
    -3.449279637        18.705775362         8.534436094
    -2.550014017        19.449639333         9.585930106
    -1.002695793        -1.483654206         4.058580045
    -1.002695793        -1.483654206        14.438580159
    -3.449279637        18.705775362        18.914436209
    -2.550014017        19.449639333        19.965930220
    -0.970170697        -1.773704123        20.193252223
    -0.970170697        -1.773704123         9.813252108
     1.093336028        -0.153172427         0.620724007
     1.578296710        -2.410836242         3.344436037
     0.679031091        -3.154700213         4.395930048
     1.578296710        -2.410836242        13.724436151
     0.679031091        -3.154700213        14.775930163
    -1.102414612        13.736633678        20.756886229
    -1.102414612        13.736633678        10.376886114
    -0.166923149         5.589164118        20.756886229
    -0.166923149         5.589164118        10.376886114
    -0.033995274         2.126489555         2.326158026
    -0.033995274         2.126489555        12.706158140
    -0.969486737        10.273959115         2.326158026
    -0.969486737        10.273959115        12.706158140
     0.534483728         0.700682382        17.205888190
     0.534483728         0.700682382         6.825888075
    -0.401007735         8.848151942        17.205888190
    -0.401007735         8.848151942         6.825888075
    -1.342465276        15.488339633         5.134986057
    -1.342465276        15.488339633        15.514986171
    -0.406973813         7.340870073         5.134986057
    -0.406973813         7.340870073        15.514986171
    -0.003371063         3.283430233        18.123480200
    -0.003371063         3.283430233         7.743480085
    -0.938862527        11.430899792        18.123480200
    -0.938862527        11.430899792         7.743480085
    -2.405466654        15.594256737         1.635888018
    -2.399500576        17.101538605        -0.055014001
    -2.405466654        15.594256737        12.015888132
    -2.399500576        17.101538605        10.324986114
    -1.469975191         7.446787178         1.635888018
    -1.464009114         8.954069046        -0.055014001
    -1.469975191         7.446787178        12.015888132
    -1.464009114         8.954069046        10.324986114
    -0.768568315         2.558305442         5.186886057
    -0.768568315         2.558305442        15.566886172
    -1.704059778        10.705775001         5.186886057
    -1.704059778        10.705775001        15.566886172
    -1.836987652        14.168449564        17.896158197
    -1.836987652        14.168449564         7.516158083
    -0.901496189         6.020980005        17.896158197
    -0.901496189         6.020980005         7.516158083
    -0.528517650         0.806599486        20.704986228
    -0.528517650         0.806599486        10.324986114
    -1.464009114         8.954069046        20.704986228
    -1.867611863        13.011508887         2.553480028
    -1.867611863        13.011508887        12.933480143
    -0.932120400         4.864039327         2.553480028
    -0.932120400         4.864039327        12.933480143
    -1.102414612        13.736633678        -0.003114000
    -0.166923149         5.589164118        -0.003114000
     0.528517650        -0.806599486         5.134986057
     0.528517650        -0.806599486        15.514986171
    -1.336499198        16.995621501        17.205888190
    -1.336499198        16.995621501         6.825888075
    -1.904978200        18.421428674         2.326158026
    -1.904978200        18.421428674        12.706158140
    -0.534483728        -0.700682382         1.635888018
    -0.534483728        -0.700682382        12.015888132
    -2.399500576        17.101538605        20.704986228
    -2.639551241        18.853244561         5.186886057
    -2.639551241        18.853244561        15.566886172
     0.033995274        -2.126489555        17.896158197
     0.033995274        -2.126489555         7.516158083
    -1.874353989        19.578369352         7.743480085
    -1.874353989        19.578369352        18.123480200
     0.768568314        -2.558305441        20.756886229
     0.768568314        -2.558305441        10.376886114
    -0.528517650         0.806599486        -0.055014001
     0.003371063        -3.283430232         2.553480028
     0.003371063        -3.283430232        12.933480143
     0.768568314        -2.558305441        -0.003114000
