Na B  Si O 
1.0
       50.0000000000         0.0000000000         0.0000000000
        0.0000000000        50.0000000000         0.0000000000
        0.0000000000         0.0000000000        50.0000000000
   Na    B   Si    O   Al
  108  324 1026 2673   54
Direct
     0.084710000         0.002986667         0.043320000
     0.084710000         0.002986667         0.376653333
     0.084710000         0.002986667         0.709986667
     0.084710000         0.336320000         0.043320000
     0.084710000         0.336320000         0.376653333
     0.084710000         0.336320000         0.709986667
     0.084710000         0.669653333         0.043320000
     0.084710000         0.669653333         0.376653333
     0.084710000         0.669653333         0.709986667
     0.418043333         0.002986667         0.043320000
     0.418043333         0.002986667         0.376653333
     0.418043333         0.002986667         0.709986667
     0.418043333         0.336320000         0.043320000
     0.418043333         0.336320000         0.376653333
     0.418043333         0.336320000         0.709986667
     0.418043333         0.669653333         0.043320000
     0.418043333         0.669653333         0.376653333
     0.418043333         0.669653333         0.709986667
     0.751376667         0.002986667         0.043320000
     0.751376667         0.002986667         0.376653333
     0.751376667         0.002986667         0.709986667
     0.751376667         0.336320000         0.043320000
     0.751376667         0.336320000         0.376653333
     0.751376667         0.336320000         0.709986667
     0.751376667         0.669653333         0.043320000
     0.751376667         0.669653333         0.376653333
     0.751376667         0.669653333         0.709986667
     0.251376667         0.169653333         0.043320000
     0.251376667         0.169653333         0.376653333
     0.251376667         0.169653333         0.709986667
     0.251376667         0.502986667         0.043320000
     0.251376667         0.502986667         0.376653333
     0.251376667         0.502986667         0.709986667
     0.251376667         0.836320000         0.043320000
     0.251376667         0.836320000         0.376653333
     0.251376667         0.836320000         0.709986667
     0.584710000         0.169653333         0.043320000
     0.584710000         0.169653333         0.376653333
     0.584710000         0.169653333         0.709986667
     0.584710000         0.502986667         0.043320000
     0.584710000         0.502986667         0.376653333
     0.584710000         0.502986667         0.709986667
     0.584710000         0.836320000         0.043320000
     0.584710000         0.836320000         0.376653333
     0.584710000         0.836320000         0.709986667
     0.918043333         0.169653333         0.043320000
     0.918043333         0.169653333         0.376653333
     0.918043333         0.169653333         0.709986667
     0.918043333         0.502986667         0.043320000
     0.918043333         0.502986667         0.376653333
     0.918043333         0.502986667         0.709986667
     0.918043333         0.836320000         0.043320000
     0.918043333         0.836320000         0.376653333
     0.918043333         0.836320000         0.709986667
     0.248623333         0.330346667         0.290013333
     0.248623333         0.330346667         0.623346667
     0.248623333         0.330346667         0.956680000
     0.248623333         0.663680000         0.290013333
     0.248623333         0.663680000         0.623346667
     0.248623333         0.663680000         0.956680000
     0.248623333         0.997013333         0.290013333
     0.248623333         0.997013333         0.623346667
     0.248623333         0.997013333         0.956680000
     0.581956667         0.330346667         0.290013333
     0.581956667         0.330346667         0.623346667
     0.581956667         0.330346667         0.956680000
     0.581956667         0.663680000         0.290013333
     0.581956667         0.663680000         0.623346667
     0.581956667         0.663680000         0.956680000
     0.581956667         0.997013333         0.290013333
     0.581956667         0.997013333         0.623346667
     0.581956667         0.997013333         0.956680000
     0.915290000         0.330346667         0.290013333
     0.915290000         0.330346667         0.623346667
     0.915290000         0.330346667         0.956680000
     0.915290000         0.663680000         0.290013333
     0.915290000         0.663680000         0.623346667
     0.915290000         0.663680000         0.956680000
     0.915290000         0.997013333         0.290013333
     0.915290000         0.997013333         0.623346667
     0.915290000         0.997013333         0.956680000
     0.081956667         0.163680000         0.290013333
     0.081956667         0.163680000         0.623346667
     0.081956667         0.163680000         0.956680000
     0.081956667         0.497013333         0.290013333
     0.081956667         0.497013333         0.623346667
     0.081956667         0.497013333         0.956680000
     0.081956667         0.830346667         0.290013333
     0.081956667         0.830346667         0.623346667
     0.081956667         0.830346667         0.956680000
     0.415290000         0.163680000         0.290013333
     0.415290000         0.163680000         0.623346667
     0.415290000         0.163680000         0.956680000
     0.415290000         0.497013333         0.290013333
     0.415290000         0.497013333         0.623346667
     0.415290000         0.497013333         0.956680000
     0.415290000         0.830346667         0.290013333
     0.415290000         0.830346667         0.623346667
     0.415290000         0.830346667         0.956680000
     0.748623333         0.163680000         0.290013333
     0.748623333         0.163680000         0.623346667
     0.748623333         0.163680000         0.956680000
     0.748623333         0.497013333         0.290013333
     0.748623333         0.497013333         0.623346667
     0.748623333         0.497013333         0.956680000
     0.748623333         0.830346667         0.290013333
     0.748623333         0.830346667         0.623346667
     0.748623333         0.830346667         0.956680000
     0.052706667         0.003943333         0.216666667
     0.052706667         0.003943333         0.550000000
     0.052706667         0.003943333         0.883333333
     0.052706667         0.337276667         0.216666667
     0.052706667         0.337276667         0.550000000
     0.052706667         0.337276667         0.883333333
     0.052706667         0.670610000         0.216666667
     0.052706667         0.670610000         0.550000000
     0.052706667         0.670610000         0.883333333
     0.386040000         0.003943333         0.216666667
     0.386040000         0.003943333         0.550000000
     0.386040000         0.003943333         0.883333333
     0.386040000         0.337276667         0.216666667
     0.386040000         0.337276667         0.550000000
     0.386040000         0.337276667         0.883333333
     0.386040000         0.670610000         0.216666667
     0.386040000         0.670610000         0.550000000
     0.386040000         0.670610000         0.883333333
     0.719373333         0.003943333         0.216666667
     0.719373333         0.003943333         0.550000000
     0.719373333         0.003943333         0.883333333
     0.719373333         0.337276667         0.216666667
     0.719373333         0.337276667         0.550000000
     0.719373333         0.337276667         0.883333333
     0.719373333         0.670610000         0.216666667
     0.719373333         0.670610000         0.550000000
     0.719373333         0.670610000         0.883333333
     0.052706667         0.329390000         0.150000000
     0.052706667         0.329390000         0.483333333
     0.052706667         0.329390000         0.816666667
     0.052706667         0.662723333         0.150000000
     0.052706667         0.662723333         0.483333333
     0.052706667         0.662723333         0.816666667
     0.052706667         0.996056667         0.150000000
     0.052706667         0.996056667         0.483333333
     0.052706667         0.996056667         0.816666667
     0.386040000         0.329390000         0.150000000
     0.386040000         0.329390000         0.483333333
     0.386040000         0.329390000         0.816666667
     0.386040000         0.662723333         0.150000000
     0.386040000         0.662723333         0.483333333
     0.386040000         0.662723333         0.816666667
     0.386040000         0.996056667         0.150000000
     0.386040000         0.996056667         0.483333333
     0.386040000         0.996056667         0.816666667
     0.719373333         0.329390000         0.150000000
     0.719373333         0.329390000         0.483333333
     0.719373333         0.329390000         0.816666667
     0.719373333         0.662723333         0.150000000
     0.719373333         0.662723333         0.483333333
     0.719373333         0.662723333         0.816666667
     0.719373333         0.996056667         0.150000000
     0.719373333         0.996056667         0.483333333
     0.719373333         0.996056667         0.816666667
     0.219373333         0.170610000         0.183333333
     0.219373333         0.170610000         0.516666667
     0.219373333         0.170610000         0.850000000
     0.219373333         0.503943333         0.183333333
     0.219373333         0.503943333         0.516666667
     0.219373333         0.503943333         0.850000000
     0.219373333         0.837276667         0.183333333
     0.219373333         0.837276667         0.516666667
     0.219373333         0.837276667         0.850000000
     0.552706667         0.170610000         0.183333333
     0.552706667         0.170610000         0.516666667
     0.552706667         0.170610000         0.850000000
     0.552706667         0.503943333         0.183333333
     0.552706667         0.503943333         0.516666667
     0.552706667         0.503943333         0.850000000
     0.552706667         0.837276667         0.183333333
     0.552706667         0.837276667         0.516666667
     0.552706667         0.837276667         0.850000000
     0.886040000         0.170610000         0.183333333
     0.886040000         0.170610000         0.516666667
     0.886040000         0.170610000         0.850000000
     0.886040000         0.503943333         0.183333333
     0.886040000         0.503943333         0.516666667
     0.886040000         0.503943333         0.850000000
     0.886040000         0.837276667         0.183333333
     0.886040000         0.837276667         0.516666667
     0.886040000         0.837276667         0.850000000
     0.280626667         0.329390000         0.216666667
     0.280626667         0.329390000         0.550000000
     0.280626667         0.329390000         0.883333333
     0.280626667         0.662723333         0.216666667
     0.280626667         0.662723333         0.550000000
     0.280626667         0.662723333         0.883333333
     0.280626667         0.996056667         0.216666667
     0.280626667         0.996056667         0.550000000
     0.280626667         0.996056667         0.883333333
     0.613960000         0.329390000         0.216666667
     0.613960000         0.329390000         0.550000000
     0.613960000         0.329390000         0.883333333
     0.613960000         0.662723333         0.216666667
     0.613960000         0.662723333         0.550000000
     0.613960000         0.662723333         0.883333333
     0.613960000         0.996056667         0.216666667
     0.613960000         0.996056667         0.550000000
     0.613960000         0.996056667         0.883333333
     0.947293333         0.329390000         0.216666667
     0.947293333         0.329390000         0.550000000
     0.947293333         0.329390000         0.883333333
     0.947293333         0.662723333         0.216666667
     0.947293333         0.662723333         0.550000000
     0.947293333         0.662723333         0.883333333
     0.947293333         0.996056667         0.216666667
     0.947293333         0.996056667         0.550000000
     0.947293333         0.996056667         0.883333333
     0.280626667         0.003943333         0.150000000
     0.280626667         0.003943333         0.483333333
     0.280626667         0.003943333         0.816666667
     0.280626667         0.337276667         0.150000000
     0.280626667         0.337276667         0.483333333
     0.280626667         0.337276667         0.816666667
     0.280626667         0.670610000         0.150000000
     0.280626667         0.670610000         0.483333333
     0.280626667         0.670610000         0.816666667
     0.613960000         0.003943333         0.150000000
     0.613960000         0.003943333         0.483333333
     0.613960000         0.003943333         0.816666667
     0.613960000         0.337276667         0.150000000
     0.613960000         0.337276667         0.483333333
     0.613960000         0.337276667         0.816666667
     0.613960000         0.670610000         0.150000000
     0.613960000         0.670610000         0.483333333
     0.613960000         0.670610000         0.816666667
     0.947293333         0.003943333         0.150000000
     0.947293333         0.003943333         0.483333333
     0.947293333         0.003943333         0.816666667
     0.947293333         0.337276667         0.150000000
     0.947293333         0.337276667         0.483333333
     0.947293333         0.337276667         0.816666667
     0.947293333         0.670610000         0.150000000
     0.947293333         0.670610000         0.483333333
     0.947293333         0.670610000         0.816666667
     0.113960000         0.162723333         0.183333333
     0.113960000         0.162723333         0.516666667
     0.113960000         0.162723333         0.850000000
     0.113960000         0.496056667         0.183333333
     0.113960000         0.496056667         0.516666667
     0.113960000         0.496056667         0.850000000
     0.113960000         0.829390000         0.183333333
     0.113960000         0.829390000         0.516666667
     0.113960000         0.829390000         0.850000000
     0.447293333         0.162723333         0.183333333
     0.447293333         0.162723333         0.516666667
     0.447293333         0.162723333         0.850000000
     0.447293333         0.496056667         0.183333333
     0.447293333         0.496056667         0.516666667
     0.447293333         0.496056667         0.850000000
     0.447293333         0.829390000         0.183333333
     0.447293333         0.829390000         0.516666667
     0.447293333         0.829390000         0.850000000
     0.780626667         0.162723333         0.183333333
     0.780626667         0.162723333         0.516666667
     0.780626667         0.162723333         0.850000000
     0.780626667         0.496056667         0.183333333
     0.780626667         0.496056667         0.516666667
     0.780626667         0.496056667         0.850000000
     0.780626667         0.829390000         0.183333333
     0.780626667         0.829390000         0.516666667
     0.780626667         0.829390000         0.850000000
     0.003943333         0.052706667         0.140063333
     0.003943333         0.052706667         0.473396667
     0.003943333         0.052706667         0.806730000
     0.003943333         0.386040000         0.140063333
     0.003943333         0.386040000         0.473396667
     0.003943333         0.386040000         0.806730000
     0.003943333         0.719373333         0.140063333
     0.003943333         0.719373333         0.473396667
     0.003943333         0.719373333         0.806730000
     0.337276667         0.052706667         0.140063333
     0.337276667         0.052706667         0.473396667
     0.337276667         0.052706667         0.806730000
     0.337276667         0.386040000         0.140063333
     0.337276667         0.386040000         0.473396667
     0.337276667         0.386040000         0.806730000
     0.337276667         0.719373333         0.140063333
     0.337276667         0.719373333         0.473396667
     0.337276667         0.719373333         0.806730000
     0.670610000         0.052706667         0.140063333
     0.670610000         0.052706667         0.473396667
     0.670610000         0.052706667         0.806730000
     0.670610000         0.386040000         0.140063333
     0.670610000         0.386040000         0.473396667
     0.670610000         0.386040000         0.806730000
     0.670610000         0.719373333         0.140063333
     0.670610000         0.719373333         0.473396667
     0.670610000         0.719373333         0.806730000
     0.329390000         0.052706667         0.073396667
     0.329390000         0.052706667         0.406730000
     0.329390000         0.052706667         0.740063333
     0.329390000         0.386040000         0.073396667
     0.329390000         0.386040000         0.406730000
     0.329390000         0.386040000         0.740063333
     0.329390000         0.719373333         0.073396667
     0.329390000         0.719373333         0.406730000
     0.329390000         0.719373333         0.740063333
     0.662723333         0.052706667         0.073396667
     0.662723333         0.052706667         0.406730000
     0.662723333         0.052706667         0.740063333
     0.662723333         0.386040000         0.073396667
     0.662723333         0.386040000         0.406730000
     0.662723333         0.386040000         0.740063333
     0.662723333         0.719373333         0.073396667
     0.662723333         0.719373333         0.406730000
     0.662723333         0.719373333         0.740063333
     0.996056667         0.052706667         0.073396667
     0.996056667         0.052706667         0.406730000
     0.996056667         0.052706667         0.740063333
     0.996056667         0.386040000         0.073396667
     0.996056667         0.386040000         0.406730000
     0.996056667         0.386040000         0.740063333
     0.996056667         0.719373333         0.073396667
     0.996056667         0.719373333         0.406730000
     0.996056667         0.719373333         0.740063333
     0.170610000         0.219373333         0.073396667
     0.170610000         0.219373333         0.406730000
     0.170610000         0.219373333         0.740063333
     0.170610000         0.552706667         0.073396667
     0.170610000         0.552706667         0.406730000
     0.170610000         0.552706667         0.740063333
     0.170610000         0.886040000         0.073396667
     0.170610000         0.886040000         0.406730000
     0.170610000         0.886040000         0.740063333
     0.503943333         0.219373333         0.073396667
     0.503943333         0.219373333         0.406730000
     0.503943333         0.219373333         0.740063333
     0.503943333         0.552706667         0.073396667
     0.503943333         0.552706667         0.406730000
     0.503943333         0.552706667         0.740063333
     0.503943333         0.886040000         0.073396667
     0.503943333         0.886040000         0.406730000
     0.503943333         0.886040000         0.740063333
     0.837276667         0.219373333         0.073396667
     0.837276667         0.219373333         0.406730000
     0.837276667         0.219373333         0.740063333
     0.837276667         0.552706667         0.073396667
     0.837276667         0.552706667         0.406730000
     0.837276667         0.552706667         0.740063333
     0.837276667         0.886040000         0.073396667
     0.837276667         0.886040000         0.406730000
     0.837276667         0.886040000         0.740063333
     0.329390000         0.280626667         0.159936667
     0.329390000         0.280626667         0.493270000
     0.329390000         0.280626667         0.826603333
     0.329390000         0.613960000         0.159936667
     0.329390000         0.613960000         0.493270000
     0.329390000         0.613960000         0.826603333
     0.329390000         0.947293333         0.159936667
     0.329390000         0.947293333         0.493270000
     0.329390000         0.947293333         0.826603333
     0.662723333         0.280626667         0.159936667
     0.662723333         0.280626667         0.493270000
     0.662723333         0.280626667         0.826603333
     0.662723333         0.613960000         0.159936667
     0.662723333         0.613960000         0.493270000
     0.662723333         0.613960000         0.826603333
     0.662723333         0.947293333         0.159936667
     0.662723333         0.947293333         0.493270000
     0.662723333         0.947293333         0.826603333
     0.996056667         0.280626667         0.159936667
     0.996056667         0.280626667         0.493270000
     0.996056667         0.280626667         0.826603333
     0.996056667         0.613960000         0.159936667
     0.996056667         0.613960000         0.493270000
     0.996056667         0.613960000         0.826603333
     0.996056667         0.947293333         0.159936667
     0.996056667         0.947293333         0.493270000
     0.996056667         0.947293333         0.826603333
     0.003943333         0.280626667         0.259936667
     0.003943333         0.280626667         0.593270000
     0.003943333         0.280626667         0.926603333
     0.003943333         0.613960000         0.259936667
     0.003943333         0.613960000         0.593270000
     0.003943333         0.613960000         0.926603333
     0.003943333         0.947293333         0.259936667
     0.003943333         0.947293333         0.593270000
     0.003943333         0.947293333         0.926603333
     0.337276667         0.280626667         0.259936667
     0.337276667         0.280626667         0.593270000
     0.337276667         0.280626667         0.926603333
     0.337276667         0.613960000         0.259936667
     0.337276667         0.613960000         0.593270000
     0.337276667         0.613960000         0.926603333
     0.337276667         0.947293333         0.259936667
     0.337276667         0.947293333         0.593270000
     0.337276667         0.947293333         0.926603333
     0.670610000         0.280626667         0.259936667
     0.670610000         0.280626667         0.593270000
     0.670610000         0.280626667         0.926603333
     0.670610000         0.613960000         0.259936667
     0.670610000         0.613960000         0.593270000
     0.670610000         0.613960000         0.926603333
     0.670610000         0.947293333         0.259936667
     0.670610000         0.947293333         0.593270000
     0.670610000         0.947293333         0.926603333
     0.162723333         0.113960000         0.259936667
     0.162723333         0.113960000         0.593270000
     0.162723333         0.113960000         0.926603333
     0.162723333         0.447293333         0.259936667
     0.162723333         0.447293333         0.593270000
     0.162723333         0.447293333         0.926603333
     0.162723333         0.780626667         0.259936667
     0.162723333         0.780626667         0.593270000
     0.162723333         0.780626667         0.926603333
     0.496056667         0.113960000         0.259936667
     0.496056667         0.113960000         0.593270000
     0.496056667         0.113960000         0.926603333
     0.496056667         0.447293333         0.259936667
     0.496056667         0.447293333         0.593270000
     0.496056667         0.447293333         0.926603333
     0.496056667         0.780626667         0.259936667
     0.496056667         0.780626667         0.593270000
     0.496056667         0.780626667         0.926603333
     0.829390000         0.113960000         0.259936667
     0.829390000         0.113960000         0.593270000
     0.829390000         0.113960000         0.926603333
     0.829390000         0.447293333         0.259936667
     0.829390000         0.447293333         0.593270000
     0.829390000         0.447293333         0.926603333
     0.829390000         0.780626667         0.259936667
     0.829390000         0.780626667         0.593270000
     0.829390000         0.780626667         0.926603333
     0.150269395         0.085436062         0.192021917
     0.150269395         0.085436062         0.525355251
     0.150269395         0.085436062         0.858688584
     0.150269395         0.418769395         0.192021917
     0.150269395         0.418769395         0.525355251
     0.150269395         0.418769395         0.858688584
     0.150269395         0.752102729         0.192021917
     0.150269395         0.752102729         0.525355251
     0.150269395         0.752102729         0.858688584
     0.483602729         0.085436062         0.192021917
     0.483602729         0.085436062         0.525355251
     0.483602729         0.085436062         0.858688584
     0.483602729         0.418769395         0.192021917
     0.483602729         0.418769395         0.525355251
     0.483602729         0.418769395         0.858688584
     0.483602729         0.752102729         0.192021917
     0.483602729         0.752102729         0.525355251
     0.483602729         0.752102729         0.858688584
     0.816936062         0.085436062         0.192021917
     0.816936062         0.085436062         0.525355251
     0.816936062         0.085436062         0.858688584
     0.816936062         0.418769395         0.192021917
     0.816936062         0.418769395         0.525355251
     0.816936062         0.418769395         0.858688584
     0.816936062         0.752102729         0.192021917
     0.816936062         0.752102729         0.525355251
     0.816936062         0.752102729         0.858688584
     0.316936062         0.252102729         0.192021917
     0.316936062         0.252102729         0.525355251
     0.316936062         0.252102729         0.858688584
     0.316936062         0.585436062         0.192021917
     0.316936062         0.585436062         0.525355251
     0.316936062         0.585436062         0.858688584
     0.316936062         0.918769395         0.192021917
     0.316936062         0.918769395         0.525355251
     0.316936062         0.918769395         0.858688584
     0.650269395         0.252102729         0.192021917
     0.650269395         0.252102729         0.525355251
     0.650269395         0.252102729         0.858688584
     0.650269395         0.585436062         0.192021917
     0.650269395         0.585436062         0.525355251
     0.650269395         0.585436062         0.858688584
     0.650269395         0.918769395         0.192021917
     0.650269395         0.918769395         0.525355251
     0.650269395         0.918769395         0.858688584
     0.983602729         0.252102729         0.192021917
     0.983602729         0.252102729         0.525355251
     0.983602729         0.252102729         0.858688584
     0.983602729         0.585436062         0.192021917
     0.983602729         0.585436062         0.525355251
     0.983602729         0.585436062         0.858688584
     0.983602729         0.918769395         0.192021917
     0.983602729         0.918769395         0.525355251
     0.983602729         0.918769395         0.858688584
     0.280695011         0.012195011         0.279382603
     0.280695011         0.012195011         0.612715937
     0.280695011         0.012195011         0.946049270
     0.280695011         0.345528344         0.279382603
     0.280695011         0.345528344         0.612715937
     0.280695011         0.345528344         0.946049270
     0.280695011         0.678861678         0.279382603
     0.280695011         0.678861678         0.612715937
     0.280695011         0.678861678         0.946049270
     0.614028344         0.012195011         0.279382603
     0.614028344         0.012195011         0.612715937
     0.614028344         0.012195011         0.946049270
     0.614028344         0.345528344         0.279382603
     0.614028344         0.345528344         0.612715937
     0.614028344         0.345528344         0.946049270
     0.614028344         0.678861678         0.279382603
     0.614028344         0.678861678         0.612715937
     0.614028344         0.678861678         0.946049270
     0.947361678         0.012195011         0.279382603
     0.947361678         0.012195011         0.612715937
     0.947361678         0.012195011         0.946049270
     0.947361678         0.345528344         0.279382603
     0.947361678         0.345528344         0.612715937
     0.947361678         0.345528344         0.946049270
     0.947361678         0.678861678         0.279382603
     0.947361678         0.678861678         0.612715937
     0.947361678         0.678861678         0.946049270
     0.114028344         0.178861678         0.279382603
     0.114028344         0.178861678         0.612715937
     0.114028344         0.178861678         0.946049270
     0.114028344         0.512195011         0.279382603
     0.114028344         0.512195011         0.612715937
     0.114028344         0.512195011         0.946049270
     0.114028344         0.845528344         0.279382603
     0.114028344         0.845528344         0.612715937