Na B  Si O  Al
 1.0000000000000000
    37.5594525315178700    0.0000000000000000    0.0000000000000000
     0.0000000000000000   37.5594525315178700    0.0000000000000000
     0.0000000000000000    0.0000000000000000   37.5594525315178700
 Na  B   Si  O   Al 
 108 324 1026 2673  54
Cartesian
 -0.7854314681067159 -87.0698568793524288 85.9162952964274069
 -2.4877290721090688 -41.6063263089037463 -153.8786714718724511
 111.8057596524870263 24.1361128004945158 116.7095419120137478
  0.5087216252438929 -39.0258536800074083 -11.4654287741384788
 90.2308390469246717 58.2318888828081285 -30.7453618440522405
 -22.4752559108445844 -41.3933944731170342 100.6048301141952237
 19.4720976986018179 30.3270990288571802 37.4514244273636621
 82.0632359395348345 -61.6915384167743781 -11.5520507535765073
 96.8549287593508126 -108.0321154730798980 55.2285591509305576
 24.0210114731614048 -17.6498182727434170 11.7491003851222899
 24.7128642496667830 10.3690548666456692 18.8450585994483006
 -28.5812488380538596 94.6901528395223124 66.2097331632430581
 -43.4052898257500175 -1.6154392846082326 72.7892629213821891
 -33.3145135524860123 14.3882690155577659 60.0830076256694667
  3.9543758214673970 62.5886501501222270 22.1294496335897897
  9.7752395515832671 -46.7065575366224905 115.9901539646833157
 -70.0522680057736267 -40.7570024789608851 103.2690086791294988
 45.3220290379835831 -44.9307081749018735 111.9838677338517385
 74.5920895541544411 40.1854038313953552 -60.9136855195099045
 -41.5773990551865538 50.4880278083677894 18.0425115678567138
 32.6677646739857863 -105.6790459381808915 20.6018093308892105
 -56.5316097101694623 11.1878316267817066 107.7238992221821974
 -4.0813427556801143 89.4873534235128574 102.1409349875821562
 265.9965513994602020  6.8388775243170494 -82.0138606544746409
 79.6399306003950755 69.4112992702887510 -27.0178817116484922
  9.2717491550725271 41.5472812974979107 18.9150184218607258
 75.0730207919331747 -95.5860848280567694 96.9458143893475892
 -73.9359220980178975 -9.5387525734443361 -49.4895522890906108
 -16.9312150358710305 -122.2333753584830873 119.7529990281129244
 92.0583844066162698 -16.7656580863397870 -9.5086468823786596
 62.1992351353249902 -43.7815036659865342 24.0206435106305136
 27.1283230251722323 160.7409935340645859 12.1841479305407141
 89.2655439388800147 -31.0579375431135638 -94.2799655329240380
 -20.8629431650347534 85.7687288396667498 -21.9656242203824377
 87.9181820701346908 26.2062989566495936 -69.0522318415061420
  7.6436649426849357 89.0739053820018114  5.0212165909482982
 31.5299454249914994 -57.9309625648188060 -41.3035768728424415
 62.1403032296017059 155.1346957549308456 41.5648447352733967
 134.9174450894417419 29.4309927345272797 -41.5334102021333393
 65.3560933426950612 -45.2094375329422462 -0.3522662823979845
 12.9460434776414424 11.5453003676627155 -21.2431984148081909
 -27.8388472522671861 41.3097199001691422 80.0007669525602694
 18.3975377484803460 -6.7250510075822092 24.0668986024561526
 137.7329746914637383 63.5113782700520986 32.7083203519875170
 153.2218022403631323  9.9949420536943414 136.9758409327477011
 78.9242796970541036 46.2336111259208593 79.0161911564095902
 103.2510851088639754 -23.4340538822360394 -2.8345414000192855
 108.1084852293817988 33.2622391860998050 39.2383883883458822
 121.4243877983606978 99.7600248803015006 25.8566329405250457
 68.5018374869511746 54.3668879798028826 -11.7843065216260108
 55.5942280676700875 36.7393760217533796 40.0971521084492863
 106.1767547715431874 -11.8420462688541832 -52.1938975832980745
 -17.2798828320021904 77.0194965441670405 152.0853191449265296
 -131.1490389525571629 -118.0963549084950444 -28.7764306937006076
 -66.4416425741983687 -133.4872836256792255 53.1795024147461106
 28.2567455604245694 -66.7754944027131074 114.9089295553508521
 -57.3340944253656275 51.4249537929520741 61.5933752543682971
 -77.4389576771851864 -47.7752870977497679 -39.8034924791577964
 -35.7134510004842554  6.7227791939672610 48.4045642643919791
  4.9507883438446418 74.2562189167160227 -12.2948999052065684
 -70.1584643413290365 42.6737478552237164 136.9184119132042667
 -45.5834079830245713 -0.5195149705869426  5.8281637852286217
 -34.5630772868773519 59.5947901665921549 129.8559831667020035
 127.6079772226538438 67.2363156391897405 -42.0918693635452854
 -12.0001243018031918 -9.1251669360608467 48.1699173307436013
 69.4052250541023312 97.9923888085493928 78.8307035020994533
 -11.5203720184153298 37.8983704852957786 -80.2239215116218105
 89.4731102776345466 47.2181701326371339 -24.9862484993445371
 32.5435567807771022 27.1993363280170151 79.7893924206005636
 55.0126892691783098 63.4197407354711018 59.6837161282251358
  4.6599869477119551 48.4122581943680288 75.9839091859923315
 65.4914222530806427 41.7981213291868983  8.7389844175751961
 11.6027340859501287  7.1769854003320317 -74.9573247561754812
 66.3821718576267585 118.0176699757819136 154.4556426429769260
 68.3343592678512550 31.1336236533941140 162.6653611473193166
 -110.4256702969546069 72.9446206555680874 89.7932469588656232
 49.6004339606265034 43.4422619954856231 24.8613012694160709
 -46.0635620979898377 121.1590975351825108 30.4888207440417069
 -46.7468193499673816 88.7644889516871416 -140.2166145558909136
 77.5455631357437767 73.7547356872783411 40.5791417924828224
 51.3003417852854326 59.4575163153010280 88.6043679889346549
 -77.7786953208413934 60.2045113937656211 -48.9694236556608260
 -4.6620459642964889 47.7154768009206052 15.6457825422452501
 -21.5761945920715092 -47.4413734240591083 86.0728382961066814
 85.0692281712503018 -47.7402571185888362 13.7884409520266242
 115.1091140536675397  3.3542920396820306 136.1197648265952864
 45.7583097931520797 -51.0757457998853184 -62.4481710205360372
 -48.9498173330700652 -89.9272844029782021 -2.9716448736800238
 73.0208809459122250 -71.6214049070285910 56.1538879300210638
 -19.8827336963861754  3.8865961884937970 27.7344724700025651
 -25.2501845255962287 -3.9028366648772703 28.4362992934458170
 -30.4974314285717973 -46.8686064577951029 117.8007730121553465
  8.2705083282436771 -174.2254131877588463 67.5286340896894757
 91.7545047966944054 125.4415048338981649 -45.6821353007644788
 -28.0614035083872686  8.5821699974999746 33.9620482028920776
 -30.6577864413325933 -63.6869072201410447 52.2221762842126864
 100.3349353681493596 -3.9864252199572219 -24.8204225640007792
  1.2548435169167054 106.6755855102084212 105.3629368809154130
 149.6524262580066704 -92.7423930175039857 48.8657353128718412
 45.0324029260157488 -71.2099340308364077 39.6735271673998611
 137.4718852758866205 -29.1559031770663815 -80.5063644148110598
 -78.6299080184856649 -66.0080413994273272 -35.1936177067359068
 75.5123890222401855 -85.3411286393367732 -22.5277749043370328
 -33.9663082438655550 31.0308769974526193 -24.2644197982789755
 79.0239852128807883 -18.8163555986737840 49.7023680847427372
 76.7044924616445627 49.2412025516280707 39.3196948206827841
 15.4127699814966537 156.3636247543234390  6.6937540977868331
 66.6450970546966346 100.3634538431576999 37.9624004381826907
  0.2442858375162255 -4.7372245202338616 14.6292958378306359
 -10.3413488468000523 26.6938216210499455 14.7396121345396516
 -1.9456543409547609 33.1441930783087457 39.2481214769139299
 -31.5950363685030915 49.0378983518717320 -33.9428745533142120
 45.2239579814147632 -31.9226212728245926 68.3381288575964305
 48.7882938554976988 15.3433435395029107 15.7983545759536455
  7.6930347136074611 44.1675256899750934 15.7137313566095944
 48.3262431024808663 22.6381101357959693 27.4380086616866343
 -10.2823606975848900 53.7483303267445223 82.4681530989867468
 -14.3685287034554356 33.8224302428667087 26.1490926537686228
 16.6968080357239153 -17.4340770059278114 21.5544358881444467
 70.5491874003504762 11.7764561201601197 -9.7029750424437680
 43.4510668303716088 20.3216222328461882 -33.4187756174863040
 -19.9548558928597046 34.5319851673568365 -2.8954700648393388
 -10.5351811395091950  4.4075900786176971 38.7459348199145950
 -16.5847991682243894 70.5388220035757598 24.8791310270313595
  2.1853553783281274 38.3281985605981959 14.7155010152422054
  1.6710722176896737 13.2378663058438359  4.7307702677356351
 -3.0035350010625192 42.3068652200075306 -23.9089886784325607
  4.9524542012605020 24.0071093888253557 104.5662031818511934
 62.3794324987166604 25.0389448761930780 17.8524100950411508
 21.1726338321195087 61.8632572505589735 -40.4276655686578934
 74.4070968807944126  2.2326164940910012 -2.2159372627207756
 35.2663903033207617 34.1042544716679643 54.5358201531265223
 43.5230050883826252 23.0334834391793919 31.5852081471828363
 76.4956291669670492 33.5750785671719640 39.0878468086267787
 33.4427877575872046 36.0926642819626906 16.7028989318149783
 -38.8374768968416788 59.3971029045223844 -41.2633748378531635
 27.2138755054740180 25.8485089997439879 24.9338246441179692
  3.1495979399948641 16.9368707297942898 122.1930499222022064
 30.6317017840650330 51.0005715403352795 -3.8738261688663087
  8.4264616629943223 35.0320986349759735 22.3339584064872128
 -50.1905695355045012 -2.0474401320442168 42.7083775182553538
 34.9361149272379024 11.7672705100265649 12.2163708826043536
 -4.9830095356567634 36.1791926730211131 -13.2522003746657244
 -23.2216738676760954 41.9848671644925702 23.0482958261734652
 20.7320219527424001 -31.9178200876677529 52.5755363281829702
 67.2261422685800056 -12.7341677806242632 78.6113794960864567
  0.1321427215306130 -17.0534193351142314 35.3412030027792099
 28.9492888027489705 23.8911991070184406 -10.5250104807762224
 -13.2016644718972280 -8.1317433866292106 14.0996810352180386
 14.3433447654818824 34.9127026832368799 14.9182277222230208
 -39.0870104335066486 34.5838277564796570 -22.9401085083498799
 69.5903382851112866 83.3323279145630096 -6.0825130897880166
 27.3062000232531545 58.9651563384678781 11.3003086167135756
 40.1215282941775087 19.7875518851461401 -1.4698781994214232
 -12.9407938612107802 38.7626607631362106 26.8763409193116445
 47.1351161452174381 23.6333620248328131  8.4772654989233800
  4.9603106401635229 74.0407842034128265 -3.3736726108086437
 -5.0056073750347716 -32.0517080110257311 -2.8186442026330383
 36.9734961348072915 -29.1260499289272090 14.7621707898147303
 69.2191784011258164 -26.9102476501438090 39.5940601039812066
 64.3499062244297022 11.7866744239516699  8.1306893807943368
 22.9128904188268017 45.7539622470072516 -39.8299449137918700
 71.5269122954237417 66.6589879501645441 49.9425164765330294
 -27.1673817630099812 61.3045488443026869 60.9066363775579234
 52.9671829420954126 26.7231138146391238 -11.0333872285929768
 -35.0285432318756946 44.5488489091770745 62.8139992245192644
 13.0615392296293553 36.4857007028815872 -14.1317413597557273
 -6.5721457339805411 30.8555464671198969 -6.8888565128587560
 22.2467032272946703 21.0678981080274390 19.9088672234544930
 14.4706977459222017 10.3009159417625522  3.2001613986002120
 13.3893524277841323 29.0270416393945858 35.7265155756874151
 76.3462203608102215 16.3430684762874918 36.3373688527536274
 55.8738567761448621  6.9914629600033003  5.3152648577812975
 39.7922826774022695 12.1196934866305632 29.1505027539773103
 41.5784428127791159 -34.0380074363430865 -7.2779606505459995
 85.9100372775559151 41.8782775965441161 -8.5656928082730861
 -28.8677754999864433 -23.3239937747086188 18.6062489625711436
 -2.5009143795811202 32.8669717224638589 -18.1855740354983340
  3.6116380124717251 37.6301417465149299 59.1112414740959551
 58.9448586182189302 52.8441918328604245 16.9741890804409188
 45.0584968528169370 -1.5215509377504910 57.6246654789413952
  5.6896614590867376 20.1332542518743978 -0.2414430391951072
 27.7560497922213614 26.0321766711687310 27.5053250728586498
 72.7368574953217717 -6.9828108236182569 43.8813772015318690
 30.1056873640365019 -17.1081317310765932 42.6332694482997709
 22.6616919334041782 -19.7529342882714332 33.8770690314931215
 110.6527727612499064 10.9977526253096141 -7.0394557858261297
 85.1261252204865997 39.7438405145428746 72.6935330173257483
  7.7693454863586187 54.5228372610988643  5.6247142190866253
 19.9109271979917750 -30.3392478451952279 24.1075036621182193
 26.5657372394024272 57.0669657792068961 65.3732940108237841
 57.6367410049973969 43.0587321224254964 -8.1083411952443765
 67.0188712713020038 -4.8218357314637368 35.5474742603322156
 31.7316592261558093 -23.9838429360445566 40.7844639364928483
  7.1006406362871957 16.7127971832927713 40.6769843197141086
 -10.7568457365415586 57.8073690547301595 36.0468794285622991
 -41.7686604556706271 15.3029954567638367 48.6312063009536288
 -10.5767702791703115  2.8904283362607357 72.4142744857175700
  5.2341614954508886 -37.0731569071709188 -5.7880373193521644
 -0.3060661717264578  8.6321539527136846 -65.6648823703164624
 38.2409317814061964 -41.5586641701236204 27.8210883572316376
 65.6814208074187746 34.9054185102724830 -0.3561927579061236
 98.3816459165637127 28.6578118535990995 49.7259845364008868
 30.0219238487861375 -15.4724508431946930 44.8250381694876054
 26.1143770058889437 97.1814338364198420 37.5830254129094783
 -4.3753611722214565 60.0058272460577911 27.9916497392844050
 47.6066382656344231 -7.1524559619044155 31.7954853523544188
 41.5727065834960783 57.9952687324858331 -16.8548109863620148
 35.9742015908564170 -79.5910672003733595 31.2298016198249293
 84.5002727537190026 34.2439977443179444  2.0849490793289620
 35.5486795814712337 -13.1904186745863257 34.6774492900752804
 77.7242561159026337 77.0855265533552512 41.9176868368568734
 -9.9854087699555727 36.2600704296259053 72.4842155999635764
 103.0840003547461379 53.2412385701993998 -18.3649258642024442
 16.3488063783556115  1.4731923102905125 88.4517413495139664
 29.6514191030879672 36.8411485667943879 33.1412367435687045
 29.5243835963098959 15.7645723111067007 52.0871809847094127
 14.1085378953970029 70.3493163840978184  0.8495726862799738
 -25.2330826161927320 40.9382580643615128 -5.8375854640401190
 32.8058636922703570 19.8827874177207384  4.8848260398830909
 -11.5335381339890883 -23.8096138609355918 36.8889719807016832
 -43.9470863541714323 -32.4330494824143827 103.0832293418950769
 19.9138686327670733 55.0219786490446054 64.7180794428061716
 23.0991333682569007 40.2460046255221684 -28.2998447994959825
 -16.4074169889385253 30.0390983977650059 101.8112189611503879
 25.7584790150407414 -9.1423455468884498 -39.1266816787548706
 41.1306591255703680 -1.9049315231254222 -20.2088109908637819
 18.6259234770797164  7.2409978732878066 59.0496490481951568
 -3.6213109783785193  3.3982590094802143  0.6716193433164558
 50.7913696423243763 36.2407909370334380 63.7055376020041990
  6.7935532239769083  4.3758065717581136 -16.6831270729557524
 27.0981252293096944 -3.7414461602356495 -56.1949071367227120
 33.6188656761659672 -35.1636388084450431  9.3243157903169234
 -6.1710855996959362  8.0406663397127058 10.7347504516600605
 -2.3810893965231390 -34.0426564943608057 -6.9867406050324163
 36.1699096074195694 20.0758615065056816 67.0665493863108111
 48.6869761282997970  0.5847292290504573 41.0271492568488227
 36.8932179573837544 62.7719630903903578 25.7736577125639279
 96.2876994700214510 -10.6615428023826304 49.8287174463199065
 12.0051947695436958  3.8670890771093385 54.2579650921803633
  1.7164047569982726 14.2432552293140553 20.7231787132691530
 51.2339084356204708 11.2672622399303126 61.0961906401305725
 10.9569659107042714  8.6128361940444478 65.6814582282213308
  2.1401113207631242 74.7740366497582585  0.0473045278051430
 19.8046319601323653 -10.6702862484242083  1.5380970106264256
 23.7524021361758706 46.2002424073750575 15.7020361976269154
  7.1671333041993055 37.1655803313187008 23.1312535708418210
 -28.9781764226636298 22.9491175923955097 -6.0311767191009382
 24.7876644643717938 -20.7804517853231232 12.5690346089043050
 -44.7232779337702766 82.7699276090257854 42.3720413748222811
 38.5521763667638027 19.6307224889472032 -14.6815172654797017
 25.9612044959250561  3.1513597817252674 11.0255597349263645
 43.9821010411299937  8.6029352541374173 52.1434502367828330
 84.4104811726025304 48.0508847241401682 -6.5817533369856882
 -17.1508751358002201 -11.2116869892111382  9.8271468106452105
 73.2087972999069621 55.8003254730395568 35.7312541441839500
 69.6072509710363931 -0.5769286142861821 -28.2851511254486425
 26.9957704554949132 35.7530597847546616 81.9340688569836573
 -7.1236850320441780 79.1849476426968266 11.9822740203169982
  6.1777651349236349 101.1958120338184841 27.1604860031508899
 63.6786531065842638 16.9929535322434582 39.9087426478352683
  3.7567871937370803 -48.5672057001650330 -42.0227248679062058
 28.3087208265777903 46.1568519772043402 51.6967080999102393
 72.3129872405718004 21.2618734127574349 23.0221154919713058
 20.2133418167226893 -17.6538043412477883 -15.2881487757186338
 16.5268925586918485 -9.3483696929644537 23.8790385448926621
 22.0042497747249257 -4.2168881247764478 33.3679743435146747
 34.2807951242183933 32.0281803975788719 -9.0587419933140954
  8.3837703604433198 56.3902550836530381 31.9521698896047432
 58.3482409394853860 62.9664261848503344 22.3646088954216538
 -40.9556353285335817 -34.1635730033360687 28.0636049395646410
 17.3363395153370554 -15.2088836953771125  2.6457722891258317
 -44.7139052919014830 58.1336779382474802 32.1198694476595819
 -1.6738356229492286 72.0251285934789536 -8.7589693636797126
 41.7078382411346951 20.6090245474307814 -5.2778133036530210
 -1.5869735568661874 16.4334536012820607 40.0643343908106644
 10.4788911000288909 74.6103136744412581 32.3204427369982312
  0.8438639042102556 44.4957060148807173 33.2168605742639258
 -35.3204817317096698 31.1653769486705059  8.3388394606757981
 -34.4203171005836666  6.5949159210351143 -3.7301824679104101
 29.1845731395306700 -37.8052057466299303 30.9010510641056797
 11.3247095501356529  5.9060766084973171 50.1477993715354415
 11.4435168555666120 12.2407643899484100 -7.0518823757120188
 67.2390682452431889 27.6992849574476736 -47.9395808617441688
 18.1201243734872861 -2.1177619541474582 48.7636562975538581
 -11.0310055250168038 51.7215148113440151 -8.5725909326981817
 -15.7852495643364783 80.8386199869450195 45.3993067336251315
 -18.6602319663745675  4.3357141012445819 -0.9620993156305276
 66.2438163010147036 -3.9672881909088904 33.3486047508546335
 -27.4083341764329091 20.9015447024380094 54.5381124054283504
  0.0087607071787543 11.1733277718841570 80.9700776772755120
 35.7113328151195475 96.2401985447873187  4.7459042045330397
 -32.6817911719965366 -23.7764921377080434  6.9075970277437131
 61.4843961195448827 -37.4203051437942307 43.1989305883655348
 97.8739789278140790 11.4805756563788481 -38.9806776550226601
  1.3797583267877194 36.6662664382790311 -19.6482842177985262
  8.0712527879787164  1.3139579312755298 57.1127008075464957
 24.4643776017864596 -25.2355651268232286 -24.8478637268373994
 18.1480513765955251 -37.3328294342117530 -0.7100060322562256
 30.6662668734382997 59.6038334865367574 66.6717032818921354
 25.0280336683440545 43.2755415701848563 -26.1949911956097417
 24.6434676742700987 -1.6626279137940356 48.6711287609244252
 -5.2238588796393524 -12.4319405435788664 45.7108991086601577
 -19.6391430911724250 -60.1755684431471138 -48.4836473085198136
 27.0034771288350584 -22.2642475507548774 -50.6495278197592924
 -23.3106081008799570 15.5523095020630269 28.5457429389611796
 67.5685777067330662 -44.7668139394557514 -2.7512245024850404
 47.8931778520716378  6.4302503868680940 47.6257142536773088
 57.8653711814153695  2.2850318896422768 -13.0910279566387686
 10.3841060231777131 36.3341433171136998 -16.1453675589783785
  6.3394903389613120 -11.0283050897596198 -42.9481112570269588
  8.3940898056898572 11.7106560030018567 20.1345710536212650
 21.6258783770362548 55.3309500103393148 21.4982928277996557
  7.9037822406356320 38.8831842392486351 -28.9428998952893863
 22.4540477921391108 37.2499311193321887 24.2156835042886520
 62.4383950177168146 -49.4359148199478682 -22.3452510047645845
 49.5900739255083067 42.8918455158761702  7.0984381206305942
 102.3021537199730062 -23.4430666679843078  1.4713365178862050
 50.1699866162772352 12.2905982045387674  6.3895953514215202
 46.3927032599771749 -2.0788485051628478  9.6036191648352425
 38.2827347044953825 44.3395292324285109 -19.7840310914480533
 25.1439247966312962  2.5477659315597618 56.2528467816147071
 20.3393407378714102 88.9766770496560184 -3.9290943491794525
 59.4709069297107931 18.1951980833518725 38.0966913065221746
 10.1492144403098745 70.4736354276740400 45.0810310316975773
 61.4163342909878196 28.0560188723569546 24.0758253484648357
  9.1403001423073640 -10.6346609118747537 -0.8434001615299657
 42.1496054819346782 17.4282092809241718 18.3760383866632679
 49.3651107173064503 71.3381905066381989  4.5308199311671933
 -39.3564846792332759 45.5641422969840519 -37.5125375577770370
 -29.7012114370269806 62.6786101886475819  0.0624034285906443
 -21.6592351415685584 78.1180479270766881 68.2022188562040697
 46.5982048282690826 30.4091461168764496 20.8461087409031478
 -47.7562340507658689 -9.1022982570956579 26.7387461829631903
 -4.3504895315214114 -27.1621950050720180 -15.7585353025174282
 46.5710466768273648  2.1861595766854127 -22.2211947044604763
 -10.4029098980105807  9.3179960321912887 -13.4715051889085355
 -23.3668085322849137 61.1704996699401278 44.3005199212128176
 68.3171798867813607 28.0193384270435040 75.4236330555162766
 -11.5617590707010400 21.0739475347525840 15.2335610194338571
 71.7517201480694098 -16.1502888009336516 18.1770982711915323
 -14.6868244024746897  5.7874457369326073 74.0265427138184293
 53.7687991072313238 51.5821828591775926  4.5234757182437706
 30.3176863824263485  2.2622349940850150 59.4150410056166081
 29.9788501847710833 26.2519798466034509 45.6358885622926209
 97.9010641008394771 -8.8072284032460360 -35.6185223174321806
 32.2195204371460449 -46.6737879459679448 24.4063882649240718
 -59.7036195990583565 -23.2487575119128991 46.8972245827569481
 -58.1823081371498674  1.0273314947805612 34.7356008146954096
 -0.2860609021772000 17.3120869816481182 -24.8907317112261914
  7.2428746923974083 -36.6962584286065621 51.2642255127311159
 48.5554179598466433 17.6783221270116719 14.3396845482848416
 -17.9241432711518343 35.6141485130039399 -7.1565330501838735
 -20.8772263319129969 -14.4747614085549294 10.6520464789679590
  2.5676306537338247 -3.3347523848781750 -11.4984802436286966
 71.6799619235813026 21.8809296193020160 48.1446334297108223
 -19.6899977114156215 16.2883649820864918 -15.3043774394055330
 -24.9905380418626386 56.6647923914780733 -24.6612992971901335
 39.5741576691299244 -25.9071237867060056 20.4391405346188080
 -40.6748659323437707  7.6238521097077347  5.3097840247213224
 17.1581185021780236 50.6377525132472712 20.5650344626964561
  7.6017617029647901 -17.9160194531007946 43.9717849671337291
 50.0587541163319472  0.3477207139910022 19.0673243147390608
 -18.5736530634185435 66.8453060779538788 -54.4632400133643912
 36.4984173412283539 14.2112986954063860 -1.9634754614628562
 69.9120964106007960 -2.3967590261161740  6.7524298420913018
 10.0498601367017475 51.6788653102606546 -3.7441592917723092
 -33.2770120021905740  6.0180027719490239 -18.5884676761516552
 57.7941160775349161  2.0988274911756153 66.9846376474301195
 -27.0346157295886194 -15.2210977908307186 19.1062220931301141
 -23.8623322240272771 65.5709228206351185 30.5481322779767481
 37.7669720962903170 35.1967687471236204 57.2042756224197859
 101.4286794765291972 36.6983668746784204 26.6973145631540554
 28.9335237096034739 55.3198060584624400 -9.0051287469767001
 28.2038404620569452 19.9208882836170673 -18.3550937299305943
 93.3708827193462554 38.7216470675107445 -17.2930613588843265
 73.2155326330579186 59.3280924559311202 57.9998127985724210
 11.8297763807410927 -11.4931314160473406 68.7476696563548586
 67.1860244443656285 81.0457434992408707 11.1317260108939848
 63.5063377849577861  7.0437141542827106  8.8534149411622298
 43.0380586238456786 55.4258897799195225 38.7648994974504291
 24.0837165168351497 35.2255549627411995 23.9643260916571030
 -8.5539991412475231 16.7695909588990268 35.3888235996803076
 10.0086936527290504 -19.9377649972857824 48.4176135000015364
 -6.3625628756799655 64.2813051668431683 -1.6896615719465045
 29.7921138998775064 33.5963141139349446 -27.4857933131900865
 -4.0262885281532741 29.2717116427382642  2.3301302925382950
 25.8082818722026452 23.1400005437807295 39.8491461101648241
 15.6248976184432156 45.3246712430032517 38.5636984214221243
 17.2523122585845563 25.6455569031164039 32.6695199925266309
 26.9596112234486895 -30.5567127768515050 19.7629066588383147
 -4.2275702116112406 19.7998245692564616 27.2654332636003325
 -10.6383539139030070 -14.3725380267310214 54.2656560647630926
  0.7459918979704281 12.4831784560082912 51.4777557250474587
 26.1449049523835697 89.4813677967080139 11.7495578465205099
  2.4335629493293061 42.4153220875995416 -16.8490403730853657
 41.8294442247096541 -21.7933355910362252 -24.2081500265790872
 -2.9999977475163915 -21.0067357125056482  1.1033058804757483
 33.6742903108632987 24.0704107282694260 10.1991167006846695
 11.7760810920161685 36.3452809300605182 -0.4953896985635850
 38.8761816116362908 -4.7409676449918638 18.5692180670804490
 26.7347527887928891 11.4880000500844979 58.4026291041349026
 92.5939265438282604  6.4960210213112921 -8.2357219055460504
 76.3212583770773847 -5.6334759006895112 10.6679403363163061
 -23.2059547419688421 -8.8003276619940696 83.1108572602181539
 -58.8257159429643934 -18.6055766613101987 19.2909137765547598
 -7.7901588580820018  6.2755888296806290 -52.5145135266517613
 43.3403870238963123 14.5809816345211445 15.2144650241398569
  2.9549221360654423 -8.5900849372422385  5.7672722977121946
 -43.7410103435235058 -3.9642567554288592 70.6621592357714263
 10.1686650738382731 45.5779230917098204 60.2464458511419778
 30.5478246578685706 37.3261371480019193 40.3926804377320323
 -18.0899291833525240 56.9309991497947507 37.6227198761865509
 -37.2298126470339383 32.6656786237936956 70.5864324014694375
 -30.7628000693278700 -16.4114712482977048 -26.4378737450340999
  8.0168493450144620 54.2996975139304041 -8.6408817114162382
 -14.3724452246661762  5.4410454509824211 21.4541736001569276
 39.4653118101864493 -19.1164896142193577 34.7003788709848138
 -3.2402280198542028 62.2475170163727114 66.5526103374297406
 16.0562098424078066 38.5525626038977123 79.3355146007573211
 -16.7323790234807888 21.3328982036128174 104.2773296763970734
 -30.2772772239307564 47.2499079722989066 77.0422970976248251
 -68.3988062170552666 29.8024031192148087 40.0608956323967789
 -6.5437289982136484 -33.8984881948486390 40.0703205049006499
 76.2624798772675661 -6.7817963663319931 27.4991207822045318
 102.6559736682399517 -11.4353134754261276 58.1122765373225860
 14.3409388764689574 37.0108253570963868 -3.8689284229926244
 -1.1699830440074597 -25.5375453656689508 56.1278706858333720
 49.6770477151531864 30.1533560036460209 39.9042342700467429
 25.4928971652024963 70.1193706695543568 72.3353891826416486
 51.0116911251351794 -5.3510914898221182 44.8274657451460783
 34.1280463362497102 28.9860317149043354 27.0234380642453544
 -61.2630219845929602 23.3478393969979443 17.0438429745425672
 -25.0830514275943166 37.3519212376183773 30.1076997237864994
 -70.4604978635132682 47.4532493964147477 -5.9313530861724102
 16.6674168240605631 26.3096886435900217 38.3110706380669512
 -39.3420059450387569 -0.6467180516001897 56.7499730673534799
 -65.0802582692783034 -11.3158502822152656 -27.7074290592266657
 -2.5888324157005442  5.0874583430806100 42.2544156441187582
 37.4629278171874560 -81.6028627872130699 -12.4783887497965349
 -35.2066711444090288 67.1025862404926841 76.5073666087200479
 31.8017372614207510 70.8474304069623884 29.4638921079558607
 -22.8337455329145484 25.9041370943306077 -28.9791894614050598
 -27.1946046229804566 58.2421042651538912 -5.8461260707972835
 55.4707445107999391 41.8718849074785666  3.1010515685934017
 63.7121470222274766  0.8091451621461884 22.3076410516174484
 -56.1155044933142761 -69.5895916890018356  7.6143691576528649
 60.0174140186956961 10.6022983633960326 -6.4359694053062464
 22.1076091070003748 18.8893691833403068 28.6882710701778763
 41.2901988151822152 -27.9418202466563592  7.6548994185504942
 -19.7259130069726396 35.1434509686846255 23.0228859600752145
 -11.5056562825952327 75.7489671079861466 52.6953273886551585
 38.1908063125243089 14.8830839779184938 44.3870979925468063
 76.1709611193663676 40.4529504858731883 30.3327430257059625
 35.4727512331047166 19.6908786078622242 -12.3604794205084083
 -2.5675201476495406 -20.5800457162645110 -4.1319279173563661
 19.2375364958204962 53.9137732150978337 -3.0151302046050650
  1.2660265209064079 51.4038409241791356 74.6535825299949636
 20.9636463784815206 49.3313715238295600 15.0764739064323035
 -8.1675978573625390 -45.0177138463211080  1.7615604252390418
 37.2184957899435247 45.6920825821181893 -15.2120916901433532
 36.8520119382180553 -13.0763368006587815 23.2333497724538418
 22.3753617523659791 44.5191090480985210  1.8676156391026499
 16.0892454962732536  3.4172370580371374 19.8021750457090029
 -37.3984567120208524 -2.4913729873264456 60.2455298150005731
  0.4172126301862109 10.9853356578317403 -15.1342151499192141
 -5.6950558900088595  5.8985626584442841 -61.5297997245635457
 -13.2613737921410859 69.7123918142330723 -5.1346760041739001
 94.5068070037798407 10.7274743565122535 41.0359923080578355
 78.2105623205078615  2.4895521992480756 47.2540161839406352
 66.4712073549275573 23.5304696107147606 -6.4914814502313245
 33.5435707057832815  3.0692928700446345 15.6708936748765719
 86.4830343528523144 13.1312871608358588 -37.8038579280384397
 55.1239708036181426 47.3515547823881917 -1.6112354851305322
 34.5228454165181944 43.5450996868057274 76.7925507556026901
 41.4535793553161511 27.8177197516424464 27.0050044776123954
 -6.2128799916268616 28.2641286196853265  9.2878259132858911
 21.8730620599281416 33.2804155183219024 -26.3568326244108775
 83.3232519677755477 10.8639626551355040  5.6121756259352393
  0.3377933551267931 14.1348126263810894 -19.5647794463203830