LAMMPS data file via write_data, version 22 Jul 2025, timestep = 160000, units = metal

340 atoms
5 atom types

0 18.779726265758935 xlo xhi
0 18.779726265758935 ylo yhi
0 13.145808386031254 zlo zhi

Atom Type Labels

1 Al
2 B
3 Na
4 O
5 Si

Masses

1 26.982
2 10.811
3 22.99
4 15.999
5 28.086

Pair Coeffs # buck/coul/long

1 351.94 0.36 0
2 121.1 0.35 0
3 0 1 0
4 9027.03 0.265 85.0321
5 834.4 0.29 0

Atoms # charge

326 4 -0.945 6.7876017832732405 1.4696651875843096 4.9288468020029175 0 0 1
239 4 -0.945 7.112554572469932 1.4729941491388139 2.30648727147354 0 1 0
5 3 0.473 4.4175801578330525 1.5269087446135214 1.6670439763635752 1 0 0
332 4 -0.945 0.42099156692350626 2.073133801997319 2.5475064650792483 1 -1 0
19 2 1.418 0.06074769644422895 0.9899305336509248 1.6225116944111044 0 0 1
117 5 1.89 1.4338391399865378 2.5831904228648743 3.6707216667386544 0 0 0
76 5 1.89 7.0809546244749075 0.5970214457654002 3.692595781736398 -1 1 0
29 2 1.418 6.659764469300016 0.86876834351532 6.23191437239137 0 1 0
230 4 -0.945 8.254636225240763 3.6379222327686302 1.860496842557331 0 1 0
281 4 -0.945 1.8722419261929832 1.3528089790294782 4.58925616002527 0 1 0
298 4 -0.945 1.1566404187989883 0.08249533327735745 1.3950299108243907 0 0 1
141 4 -0.945 2.8559649625096255 3.183936098137454 3.0892738114380918 0 0 0
55 5 1.89 7.40729225796872 2.520777239234911 1.0944168199355475 0 1 1
212 4 -0.945 6.004142410235021 3.1049724067124913 0.6068268625322591 0 0 1
34 2 1.418 9.124896892396551 3.278363949943019 2.8606595928575276 1 1 1
1 3 0.473 4.6504743517007245 2.4174416976912463 4.556777868319483 0 1 -1
213 4 -0.945 8.825031516164895 3.632375411266396 4.170798603268416 -1 0 -1
148 4 -0.945 0.6225219120377855 3.695387258987241 4.567686258282907 0 1 0
262 4 -0.945 3.6711189960721473 3.2594262735400923 12.561621607753514 1 0 0
182 4 -0.945 7.937016517243676 0.15702657840945677 9.341243211829813 1 0 0
10 3 0.473 7.143102364348298 0.26338839784198964 11.882251592919413 0 0 -2
130 4 -0.945 5.640801693474609 3.3742041720575524 11.13147123958178 1 0 -1
4 3 0.473 0.9107115161065625 0.5218745286884772 8.079752274463127 1 0 0
75 5 1.89 8.267980062539108 1.5434407238449874 8.60780585781411 0 -1 -1
105 5 1.89 2.2595516430712173 3.2540691165256606 8.679134678220796 1 1 -1
133 4 -0.945 5.1750460154455205 1.9882447750450214 9.034086301158613 1 1 0
273 4 -0.945 2.5720664596215284 2.8729265198860134 10.207451460178621 0 0 -1
134 4 -0.945 2.9025849202456673 2.019159598454855 7.840157138888051 1 1 0
289 4 -0.945 3.40922342927125 0.6593899837829517 11.510374083549763 0 1 -1
73 5 1.89 6.043480153163728 3.1860579050597297 9.614852263973116 0 1 1
222 4 -0.945 7.521519163611905 2.756203683192527 9.439549665465268 0 0 0
242 4 -0.945 1.2891785104367641 1.9601148448690418 12.13465160938694 1 0 0
327 4 -0.945 7.612114294267092 1.4392515644534645 7.1700734947595315 1 0 0
110 5 1.89 4.269118213994363 1.2149592541556993 7.964966827795094 0 1 0
95 5 1.89 2.8124573536238757 2.1603167059608137 11.67407417955447 0 0 0
191 4 -0.945 8.244645677954113 1.9811702058478373 13.041884035615094 0 1 -1
255 4 -0.945 0.6725323225056745 3.4005137869860347 8.351109771843351 0 0 0
192 4 -0.945 5.260440581585777 1.0447512940839303 6.690113709341151 1 1 0
336 4 -0.945 0.949352070498484 6.703686267540577 1.1510888397886798 1 0 2
27 2 1.418 3.4982741917900064 4.392225273261296 3.0067665517195366 0 0 0
227 4 -0.945 4.708753414560834 6.561172183172398 4.673559948474096 0 -1 0
28 2 1.418 4.009320135275777 6.882509596436205 5.8173743834522265 0 0 0
51 5 1.89 5.719532017269799 5.924427760901037 3.5330704033290536 -1 0 0
168 4 -0.945 2.7318710929651293 5.4192463958210135 2.4263199144112932 0 0 0
138 4 -0.945 7.1615384110456635 5.591610541364463 4.13689120091449 0 1 2
61 5 1.89 8.510541083735134 4.983867275893122 4.837088393539593 0 1 1
334 4 -0.945 5.743539346006866 6.9440037937071235 2.331478071557986 0 0 1
275 4 -0.945 0.5722447504128061 6.190514153364181 5.057410488830942 1 0 1
126 4 -0.945 4.907735931099436 4.623803108535582 3.101912148823169 1 0 1
121 5 1.89 2.2772626974589376 6.857252563067201 2.0085592555186405 0 0 0
127 4 -0.945 8.23273276009791 5.110058916823513 6.401621617305596 0 0 0
6 3 0.473 1.4033010363984586 4.453542430886583 0.013156444750808979 0 0 0
309 4 -0.945 4.545073746190312 4.131736062940842 6.1523835186988505 0 0 1
297 4 -0.945 3.5993978285883377 7.314619718205674 1.176418887692272 1 1 0
243 4 -0.945 2.7436721774991946 7.511593118673962 5.794453646185029 1 0 1
296 4 -0.945 3.0660155008936685 4.588528543767371 8.270690186081195 1 0 0
48 5 1.89 4.508770852953682 4.911958187507815 7.575409982138384 0 0 1
244 4 -0.945 7.823943071454566 7.102811862299094 8.23089668926009 -1 0 1
165 4 -0.945 5.887496694517935 5.323342787530243 12.610963797166578 -1 0 1
215 4 -0.945 8.007981372799795 5.304715724915655 11.410245826307472 0 0 0
13 2 1.418 7.09693133086589 5.9911318202237975 12.264600642570821 0 0 1
72 5 1.89 8.752111697975542 5.946867939686464 7.557701217710832 0 0 0
153 4 -0.945 5.569818055143087 4.430310081448667 8.645696456897856 1 1 0
299 4 -0.945 7.4501779166089745 7.278751889970834 12.746243287367525 -1 0 -1
235 4 -0.945 4.533466062086569 6.424777755687545 7.070007874029377 1 0 -2
283 4 -0.945 9.011614792621549 5.111463187459572 8.909820576744192 0 -1 0
109 5 1.89 5.157821236106815 3.8440221551336013 12.573770221547202 0 0 0
83 5 1.89 9.29714857939991 4.855301040374184 10.465817467415938 -1 0 0
2 3 0.473 4.407733967635378 7.445783474444989 11.984454301676221 0 0 0
186 4 -0.945 2.4579886287209805 10.450262257526086 3.6378762043806 0 -1 0
278 4 -0.945 4.406873877703764 8.930050616487096 2.641305175493866 0 0 0
50 5 1.89 3.369051475677999 10.181609890734714 2.354843124615692 0 0 -1
280 4 -0.945 1.9272509162284879 7.6006026824096775 3.370317489850708 0 0 2
172 4 -0.945 2.497901540165581 10.068073705576756 0.929877536569057 0 0 1
164 4 -0.945 8.27449977688696 9.515278615541334 0.9556177527425249 0 -1 0
26 2 1.418 4.844742801318306 7.920877653171593 1.68814874380362 0 0 0
203 4 -0.945 8.401229703141139 10.134646175903233 5.876808737538073 0 -1 0
292 4 -0.945 5.664723269460455 8.626168870573268 0.6806058527889693 1 0 1
94 5 1.89 8.75649279340269 10.9713376918379 4.530164604121203 1 0 0
135 4 -0.945 2.2502647776964135 10.74813585402862 6.2270600298391905 1 0 0
218 4 -0.945 0.18772484495043967 8.661457525468848 5.306118432747783 1 0 0
111 5 1.89 1.3695570427030628 7.591064619127535 4.889588342300254 0 0 0
11 3 0.473 6.657749920136224 9.369622804505097 3.3741120865304395 0 0 1
300 4 -0.945 9.101006535549736 10.161087602142063 3.176086339577255 0 0 1
31 2 1.418 9.230315596348579 10.156375059272488 1.7607111183277415 0 1 1
17 2 1.418 1.6963335328675884 11.263207148972212 0.42174485256212035 0 0 0
87 5 1.89 7.095736987217669 8.829676237125447 0.010400933035885629 0 1 1
3 3 0.473 4.846607793641633 8.370567288566134 8.593685309961993 0 0 0
154 4 -0.945 6.385009078576073 7.791854854084197 10.283729331166471 0 0 -1
40 5 1.89 7.629910443958002 8.207997638280084 9.43683434154522 -1 0 0
253 4 -0.945 3.1042544502767857 10.428549753730394 8.480916368722234 1 0 0
64 5 1.89 3.399545887090819 10.626636099174325 10.03485302040847 0 0 0
284 4 -0.945 2.718293619135353 9.469318740408356 10.922616506914236 0 1 0
234 4 -0.945 0.35211712092540803 9.059360789757706 10.119970404732149 0 1 0
237 4 -0.945 8.99213484189251 8.174290959431389 10.323058403821186 0 0 0
293 4 -0.945 4.941568230339537 10.579234693913786 10.357034284907073 1 0 -1
120 5 1.89 8.73711312489106 10.32811941213274 7.450832447074089 0 1 0
163 4 -0.945 6.867883913177111 10.00692960783981 11.962481854214587 0 0 -1
122 4 -0.945 0.5543183617174605 8.41542239504851 12.49796689569743 0 0 -1
194 4 -0.945 7.6598490089228335 9.641674406930449 8.530580392968222 0 0 -1
68 5 1.89 1.1845766702574922 9.487934252057313 11.44348731164193 0 0 0
145 4 -0.945 1.1856690127723999 10.858552697726765 12.239662863170075 0 0 0
20 2 1.418 2.3305865190146955 11.15547181834592 7.589589831725893 1 0 -1
100 5 1.89 4.823192999340111 14.724913526827784 2.552720109772962 0 0 1
101 5 1.89 3.0057755080807946 14.228070975743696 4.849580046175798 0 0 0
270 4 -0.945 7.568180700008911 11.932435318910581 3.946944539086938 0 0 0
307 4 -0.945 8.379741084561994 13.94608107141885 5.176262074436128 0 0 1
325 4 -0.945 4.090978706248195 14.16385281978517 6.013964310350412 0 0 0
119 5 1.89 7.428975764407401 13.568248758262179 3.868309707701946 0 0 0
180 4 -0.945 5.9202653023671115 13.986745626290054 3.577825590916272 0 0 0
330 4 -0.945 4.5378142240715675 13.981596627048186 1.1521301226046472 0 0 1
65 5 1.89 4.275274273449512 12.440270415614597 0.6265277444013497 0 0 1
201 4 -0.945 2.3159552489268345 12.795857810193146 4.798626873120909 0 0 0
303 4 -0.945 8.119556428759914 14.399632385128962 2.6496680111434188 0 0 0
208 4 -0.945 3.449002330624744 14.617090808562828 3.3542616696396843 0 -1 1
231 4 -0.945 4.336236831016272 11.461569042901571 1.90585218441052 0 0 -1
290 4 -0.945 0.6196835270407448 11.450779146784763 1.3256301932052217 1 1 0
143 4 -0.945 2.694080260336701 12.358740365822259 0.3074334978103021 0 0 0
250 4 -0.945 0.14964465780698283 11.342188638174383 4.780358917894171 1 0 0
44 5 1.89 1.7419698526130212 11.268521704177891 4.801215265293857 0 0 0
137 4 -0.945 8.234572565133865 14.311032843137268 9.379389706017447 0 -1 0
312 4 -0.945 9.076208983897935 11.878208382608744 7.632354482004393 0 0 0
158 4 -0.945 6.621679788236508 12.454749956776848 10.320655676965053 1 0 0
181 4 -0.945 2.775626449224783 12.132517481612997 10.28210966668985 1 0 -1
260 4 -0.945 1.631277509528328 12.236630694571923 8.100665553778018 1 0 0
85 5 1.89 6.697679557652952 13.877232450541133 9.48671862198003 0 0 0
248 4 -0.945 5.247008535179532 11.866458403582843 12.629780952981795 0 0 -1
99 5 1.89 4.600862902315925 14.528887998759092 7.48044607868772 0 0 0
277 4 -0.945 6.002206497007796 14.034905380009713 8.06436422008589 0 -1 -1
113 5 1.89 2.3039292233060364 13.205786426530274 9.225024536980195 0 -1 0
152 4 -0.945 5.9801225429710545 14.887976574071054 10.460378237738576 1 0 1
224 4 -0.945 3.5844917063690356 13.747783814314467 8.483977022167625 0 0 1
333 4 -0.945 1.5535734453032604 14.542434757510733 9.733286818046567 -1 0 -1
7 3 0.473 2.128318119079998 14.458438951068489 12.462163898860986 1 0 0
90 5 1.89 6.008191681537461 11.319564889877567 11.381523013053025 0 0 0
118 5 1.89 6.115071561856401 17.11891944628658 1.0761047659978404 0 -1 0
129 4 -0.945 5.430406032234091 18.443861454556 0.5463162668630378 0 0 0
92 5 1.89 2.0823246794528294 18.51125633330761 4.711432561356991 0 -1 0
220 4 -0.945 0.9123968273018701 16.23863309450814 1.482929019366429 0 0 -1
264 4 -0.945 8.592039190983488 18.69568244936636 3.897988106903651 0 -1 1
238 4 -0.945 2.620528096101649 18.08586115136832 6.1640157222434455 0 -1 0
32 2 1.418 4.641383380314921 17.747976789446458 3.9883000084516973 1 0 0
81 5 1.89 1.4368924828488048 17.462968685510614 0.6369339543933061 1 -1 0
210 4 -0.945 5.7166102726133685 18.49817140958213 3.507709542441968 0 0 1
144 4 -0.945 8.941940680222194 16.95510935566883 5.941006158045851 0 -1 0
249 4 -0.945 3.2934656889586424 18.14574956358718 3.723100239358831 1 0 0
267 4 -0.945 7.647238198935793 17.38306249139218 1.4948068566633517 0 -1 0
279 4 -0.945 0.5808955398574417 18.063573426710757 4.365005103980482 0 0 0
22 2 1.418 8.710464200158762 17.10322568527758 0.652152224424033 -1 0 1
214 4 -0.945 5.276272092864546 16.173561652581608 2.106506299073823 0 0 -1
258 4 -0.945 4.806761137386021 16.7128817829707 4.808472281191576 0 0 0
232 4 -0.945 6.920353914255416 18.216923082926073 6.165346748507658 0 -2 0
329 4 -0.945 1.7170386540741847 15.260595434633347 5.0818279160875415 0 0 0
93 5 1.89 0.16379985119013474 15.213596659314575 4.922106474658818 1 1 0
211 4 -0.945 2.444188678635563 16.83636024492004 10.7831726813793 0 0 0
200 4 -0.945 3.8214790596961845 18.521493863283823 8.339048747835083 0 0 0
187 4 -0.945 0.3402758096825749 17.63204028390073 12.502628507434398 1 0 -1
54 5 1.89 6.166145328718184 16.253693808941307 11.274949790379614 1 -1 0
52 5 1.89 3.5086954354577267 17.834386830585487 11.585008982244126 1 -1 0
162 4 -0.945 9.123200880998674 17.903051893165305 12.733448671607457 1 -1 0
116 5 1.89 3.235233838030713 17.29825079951645 7.470768267101541 0 -1 0
261 4 -0.945 4.910573936296488 17.30019989703752 11.111021242492779 1 -1 0
49 5 1.89 1.468874779644601 16.110217568288007 9.649823676295522 0 -1 0
147 4 -0.945 2.012474868560163 16.71877656097396 8.237543036750482 1 0 0
328 4 -0.945 6.236257148803627 16.08417899665436 12.869516869987395 0 -1 0
169 4 -0.945 7.352245428955191 17.026171385917774 10.517509410979496 -1 -1 1
24 2 1.418 7.578324828183254 17.592219373927136 9.248646245586368 1 0 0
128 4 -0.945 7.654248704965359 16.979889407372937 8.01753423064748 0 0 0
272 4 -0.945 4.302702599999449 16.08735222144109 7.617919276456542 2 0 -1
324 4 -0.945 2.8764361922481783 17.468517962678384 13.089819618218256 0 0 -2
245 4 -0.945 0.14259977410598138 17.060167338256374 9.933668389717711 1 -1 0
21 2 1.418 7.8400276672722145 17.273726919985254 6.6968657166882055 0 -1 0
108 5 1.89 14.086920238362758 2.2586684907019703 0.6264714974065949 0 1 1
219 4 -0.945 11.065061544508195 3.7158285526239783 6.2252025104308455 0 0 1
41 5 1.89 16.24877976759696 0.3647013461448238 1.6738246616941754 -1 1 0
173 4 -0.945 10.944327028193436 0.7906151467536603 0.5244466008202056 1 1 0
317 4 -0.945 15.270246467639769 1.6877188179867424 1.597221894028375 -1 1 0
226 4 -0.945 12.033435725075622 0.6412159562815559 2.8697065160440336 0 0 1
189 4 -0.945 12.717447767867448 2.56098212863533 1.4161588595242682 0 1 0
285 4 -0.945 12.364961353907047 1.5973623141083173 5.199744256020596 0 0 1
178 4 -0.945 18.215541339141332 1.4403420332744057 0.3993818675251668 0 0 0
295 4 -0.945 10.236543093040371 2.533892514938042 2.4947714685169506 0 1 0
74 5 1.89 11.370881804707341 1.6230657163910853 1.7922356662990189 0 -1 0
306 4 -0.945 16.891196678202746 1.2214120837893137 5.065288114038494 0 0 1
161 4 -0.945 17.7087060609846 0.34418067670853547 2.3737713518005163 -1 0 0
112 5 1.89 12.471047954084597 3.0075349335936314 5.98485099582861 0 1 0
8 3 0.473 16.97144607743811 3.6699511353955256 1.3621177855766273 0 0 0
9 3 0.473 9.731356185093203 1.9043622546133778 5.568689685368362 0 1 0
38 5 1.89 12.374011442471646 0.2093298237950579 4.372369997239022 0 0 0
321 4 -0.945 18.175262293649805 0.6727939324218731 11.201333181820253 -1 1 0
15 2 1.418 18.701530911824083 1.5547308810414564 12.208322811929573 0 1 -1
256 4 -0.945 10.589440534982462 0.9107481937769737 11.11227983478818 0 0 -1
276 4 -0.945 17.39290607739133 2.115855452317971 7.441517972344793 -1 0 1
301 4 -0.945 15.373879939445478 0.31571038565445286 7.221486071771482 0 1 -1
160 4 -0.945 9.978180291368014 3.4708157815770617 10.768461827089313 1 0 0
294 4 -0.945 13.189083819975831 2.8910574508031366 7.389211068997522 -1 0 -1
33 2 1.418 13.31340911452523 2.9410749449569717 8.81537463306524 1 0 0
271 4 -0.945 9.833573971517604 1.7667250622768114 8.755569881433836 0 1 0
318 4 -0.945 12.25301017976272 2.510757283983419 9.640539513982432 0 0 0
84 5 1.89 10.740934025307167 2.1795348827146332 10.106863766475772 0 1 -1
313 4 -0.945 13.824411072623617 1.0737292923866046 12.689967324295807 -1 1 0
57 5 1.89 16.68945109787839 0.9748764418558697 6.6489828041124355 1 1 0
62 5 1.89 17.897252353939756 3.5888033746484327 7.939339216887395 0 0 0
305 4 -0.945 14.408148615993833 3.568483507848698 9.39181740994983 -1 0 1
155 4 -0.945 12.36287987601023 5.778113616064721 0.7197439327647402 0 1 0
247 4 -0.945 12.746152308705799 6.527045427752937 3.627105921044771 0 0 1
115 5 1.89 15.755251809451126 5.914327991507549 3.617590811788545 0 0 -1
204 4 -0.945 12.287196520889943 6.39261573911489 6.02325869186218 0 0 1
340 1 1.418 13.741382231970059 4.979113226540038 1.2861273930781723 0 0 0
66 5 1.89 13.307437495738268 5.763418822372811 4.975670372836321 0 0 1
315 4 -0.945 17.14644573882266 5.1100782109235405 4.1023869160119215 -1 0 0
63 5 1.89 18.415996371000265 4.872243358911367 5.107291123619278 0 1 -1
202 4 -0.945 14.907022145862488 6.1459030394420076 5.003837841907384 -1 1 0
196 4 -0.945 14.82924894972862 5.0219057269637615 2.6617932385460708 0 -1 1
35 5 1.89 10.780992854121967 6.922846653268648 5.645424428002165 0 0 0
89 5 1.89 11.930865190244784 7.322889921739305 0.4118953332958326 0 0 0
188 4 -0.945 9.834506070122702 5.958321018268722 4.683575276067572 0 0 1
223 4 -0.945 16.077633390486415 7.288284982612824 2.9594881173963157 -1 0 0
170 4 -0.945 13.295811913420685 4.174611817274712 5.130935999168439 0 0 0
265 4 -0.945 14.527728738028069 3.777845143891531 0.26881692970448196 -1 0 0
157 4 -0.945 10.4358487561749 5.963262584620516 10.728696562973745 0 0 0
286 4 -0.945 15.863801588558115 5.364757890547377 11.065826442601288 0 1 -2
71 5 1.89 15.502796352754038 4.720692045003023 9.610572725683912 0 0 0
225 4 -0.945 9.984356615390617 6.806525798423513 7.033419353917259 0 0 1
102 5 1.89 17.259864166898055 5.586664643972872 11.854450317877777 -1 0 0
159 4 -0.945 18.066869612520915 6.472842361639402 10.745708883046385 -1 0 0
320 4 -0.945 16.937284433870346 4.100643583164528 9.125172594815863 -1 0 0
209 4 -0.945 15.22052892021867 5.832213121675931 8.447752886739073 0 0 0
193 4 -0.945 17.874229284223404 4.206686783862413 12.309726988466586 0 1 -1
103 5 1.89 15.961397132094174 7.034236270931867 7.754236853524605 0 1 0
287 4 -0.945 17.34581156436938 6.63481453527628 13.067565006695064 0 1 -1
308 4 -0.945 17.299368486533382 7.43974059171824 8.559565740666145 0 0 0
139 4 -0.945 17.87561664987759 4.562641114563954 6.628902522384572 0 0 0
288 4 -0.945 13.392280630430017 8.001180526948243 0.21405228451994956 -1 0 1
177 4 -0.945 17.801203325560607 8.554543973524334 1.5764231978864718 0 0 0
319 4 -0.945 12.740562242974312 10.696561073805839 5.098450858884838 0 0 1
337 4 -0.945 13.064008570221814 10.434203632272405 0.5253283044746409 0 0 1
18 2 1.418 17.767207830906898 9.42343359019603 5.219284187959345 0 1 0
42 5 1.89 16.512003056758978 8.872214928563109 2.5135895099311325 0 0 0
199 4 -0.945 14.546316372200229 10.97159878852688 3.510672315790285 -1 -1 1
198 4 -0.945 11.04534426244365 8.169356032151242 4.6664113726309635 0 1 0
229 4 -0.945 17.050676515733024 9.414714337588649 3.967970428909918 0 0 0
16 2 1.418 13.121731525286474 10.49219299597582 3.695103844033884 0 0 0
335 4 -0.945 13.034526984892164 9.096557324010663 3.3579222053824376 0 0 -1
79 5 1.89 11.963341801191877 7.971117985493403 3.3163160249099803 0 0 0
252 4 -0.945 15.453732162838941 9.321083151391596 1.3914759146332398 0 0 1
150 4 -0.945 10.301984066985693 10.844754852483085 1.221163580922248 -1 0 1
131 4 -0.945 11.21765419671546 7.934740468407644 1.8293761726118771 -1 0 0
67 5 1.89 14.223044726093688 9.406156542344823 0.2389067362377588 0 0 1
197 4 -0.945 17.158096466865214 9.79227924021232 6.416385011293791 -1 0 1
82 5 1.89 18.52372902473065 7.614018793830859 0.48777938637295726 0 0 2
316 4 -0.945 12.227496083558142 11.248486046128226 2.8759936836410644 0 0 0
78 5 1.89 11.398132537537816 9.473810834552925 8.703446222736364 0 0 0
91 5 1.89 12.960351711571812 10.868357542363501 6.612920834344162 0 0 1
104 5 1.89 15.858522723616401 10.082936288793183 10.70078261222279 0 0 -1
114 5 1.89 15.786800797892491 9.909284414427669 7.32346159526001 0 0 0
259 4 -0.945 14.600200991848283 10.842679075708029 6.80428299912024 0 0 -1
140 4 -0.945 12.523762165717516 9.723537947345548 7.616438054643868 0 -1 0
322 4 -0.945 15.715217032281421 10.124442783880411 9.015349683111651 0 -1 0
146 4 -0.945 11.03559051186502 7.786607610298092 12.258762534931652 0 0 -1
274 4 -0.945 16.820703546732794 8.797092646826908 10.803316939171774 -1 0 0
236 4 -0.945 11.451821087849586 8.288834500099597 9.742351429170158 0 0 -1
124 4 -0.945 14.770965949677464 9.762972805898379 11.862480360177324 0 0 -1
69 5 1.89 17.900421009245157 7.904276072859064 10.060595116738584 0 0 -2
206 4 -0.945 15.263198152339692 8.322744559879201 7.227609479173509 0 0 -1
132 4 -0.945 10.017909172621994 9.427685995048419 7.832281185947843 0 0 -1
302 4 -0.945 11.219572579224385 10.821634818993212 9.504338824444199 -1 -1 0
56 5 1.89 10.434233307899408 7.568219879031371 10.728304476759105 0 0 0
269 4 -0.945 18.408781489919807 13.657424694160628 5.190657588370557 0 -1 0
175 4 -0.945 9.864018623884547 12.053471466062478 5.08755296016313 -1 0 -1
12 2 1.418 17.964423244970877 12.319480301378285 5.044634118594305 -1 0 -1
142 4 -0.945 13.004976990707657 14.102666232776592 3.3396442466543044 0 0 0
36 5 1.89 18.02931874258853 12.247278427731498 1.386461470235995 -1 -1 1
88 5 1.89 14.471179808496501 14.54642167726937 2.9504226402257188 0 0 1
310 4 -0.945 16.606841675403306 12.088385558172918 4.909417902349656 0 0 0
70 5 1.89 15.830407583319229 11.908303413113318 3.548126224855546 -1 -1 0
311 4 -0.945 12.174879944728524 12.743691860352426 0.6670614419511296 0 0 1
190 4 -0.945 10.645409703666195 14.123717468678713 2.697680516430058 1 0 -1
241 4 -0.945 17.109470484111274 12.315346392713552 0.05263448586529014 0 0 0
205 4 -0.945 15.464300923317378 13.358595976245928 3.09309961372104 -1 0 0
282 4 -0.945 18.397406008691714 13.777750361309906 1.8326945222557702 0 -1 0
185 4 -0.945 16.988272401579636 11.52387709320917 2.462269199945042 -1 0 1
14 2 1.418 11.939085238781022 14.568692393332634 2.629690229268592 0 0 0
23 2 1.418 9.5702489072734 13.32036085133064 5.680145340621694 -1 0 -1
106 5 1.89 11.871953360644886 11.278364786840772 1.3265462483576302 0 0 0
156 4 -0.945 10.555945092333284 13.97761265932305 6.403840121851727 0 -1 -1
216 4 -0.945 12.394016732241951 12.2804681887765 7.163599196183712 0 0 -1
207 4 -0.945 9.641710807754503 12.70407842993664 10.859665617068728 -1 -1 0
136 4 -0.945 10.942210773227481 13.542654580572774 9.07200418579748 0 0 0
60 5 1.89 11.644707379304633 13.701905476904887 7.512206143521049 1 0 0
174 4 -0.945 16.156029845112887 11.681117395566918 10.960803574783215 0 -1 1
59 5 1.89 9.655768168617561 14.11031945874743 10.008441725598194 0 0 -1
323 4 -0.945 14.401735637299765 12.87662076457078 12.622920364486749 0 0 0
45 5 1.89 15.947815636054791 12.773469019720386 12.121240816618464 0 0 0
86 5 1.89 11.056800100425855 12.165760437123398 10.342752638328568 0 0 0
123 4 -0.945 16.211233149653346 14.386641999772367 11.973631484977057 0 0 0
176 4 -0.945 12.312250129406198 12.565953881577364 11.183801666514654 0 0 -1
80 5 1.89 12.87476831524016 13.292861232306084 12.52579787691029 0 0 -3
251 4 -0.945 12.769654488406418 14.867326267772006 7.8163032676803095 1 -1 0
195 4 -0.945 12.648457178941486 14.913123718621344 12.342478287737466 0 -1 1
263 4 -0.945 18.60448104539087 14.926262732375292 12.13115043292257 -1 0 1
338 4 -0.945 17.28846142599711 15.858195078003371 0.8773269086856305 -1 0 1
221 4 -0.945 18.278210195351228 15.629870621447035 3.5116931191918948 0 0 0
25 2 1.418 13.394965964536372 16.075853798415064 1.0943497688670456 0 -1 0
240 4 -0.945 10.966782077636772 18.189839686994198 4.837651448637548 -1 0 1
246 4 -0.945 15.929828507278385 18.569930352725923 0.18628443853268878 0 0 0
96 5 1.89 17.126764951265336 17.040296895177917 6.213505231379033 0 0 0
37 5 1.89 15.07949357689872 17.34749965604967 3.9721701066389405 -2 0 0
254 4 -0.945 12.258728536565865 15.675040196077578 1.8026930745365917 0 0 1
184 4 -0.945 14.770104622736543 15.818618564530219 3.8714593687784267 0 0 1
228 4 -0.945 9.650889341006856 16.355378320374825 3.4914870228659156 0 -1 1
257 4 -0.945 13.736973327152878 18.161277021342876 4.476351464081751 0 0 -1
266 4 -0.945 16.5526198908409 17.430273339071594 4.740420479869055 0 -1 0
171 4 -0.945 18.298397473804137 15.99123534338191 6.185919595212257 -1 -1 0
331 4 -0.945 15.460565481381217 18.062131428771 2.625586917469204 0 0 1
167 4 -0.945 13.689086853579036 17.342763794525915 0.6848141282754782 0 0 0
97 5 1.89 9.54343778496511 17.55419992658034 4.541288282076118 0 -1 0
43 5 1.89 18.330910484055323 15.38308483063561 1.932476791985872 0 0 1
125 4 -0.945 14.436049239323175 15.146829957982943 1.3835936768930348 0 1 0
339 1 1.418 17.79222372706881 18.751523214625745 4.124463392342074 0 -1 1
183 4 -0.945 9.398602453247856 15.89072451987907 0.887376261367725 0 0 0
77 5 1.89 9.502376949079663 15.159888234809825 2.3813378870635007 0 0 -1
233 4 -0.945 15.99090875940405 17.830782382530217 9.205380064817101 0 0 0
30 2 1.418 15.178160970688355 17.84915876291602 7.968185688143928 0 -1 -1
39 5 1.89 13.423805777570875 15.997874016015247 8.79500800473906 -1 0 0
291 4 -0.945 16.898513955253435 16.809913009050014 11.399230463518025 0 -1 -1
217 4 -0.945 13.80242629081621 17.44845226892056 8.242662576660853 -1 -1 0
47 5 1.89 15.554813598262779 16.91209043407668 10.434717989372526 0 0 -1
46 5 1.89 14.363933159525033 18.328339936525428 12.78155202991556 0 0 0
314 4 -0.945 12.48837641826253 16.13296726784537 10.068390903778164 -1 0 0
166 4 -0.945 14.850841305610212 15.700340938716616 9.660395601242879 0 0 0
58 5 1.89 17.23579546294568 15.524144250783774 12.444481795801051 -1 0 -1
268 4 -0.945 15.774527328738671 16.78527068081962 7.091466777964023 0 0 0
151 4 -0.945 11.437770742737365 17.324756103723782 12.104796928496533 0 0 -1
304 4 -0.945 14.49772966773016 17.60455791744922 11.368100515683885 0 -1 -1
149 4 -0.945 17.735462938656713 18.42345200409102 6.785500552036915 -1 0 0
107 5 1.89 11.710519412431358 15.907800612310641 11.405044461522852 1 0 -1
98 5 1.89 18.279542964006616 17.804591483301422 11.182309194229 0 0 -3
179 4 -0.945 10.292277128220361 15.189505713727094 11.006364651465175 0 -1 0
53 5 1.89 10.511918882035944 18.670829931096705 12.37222071355883 0 -1 -1

Velocities

326 -1.3579203929943622 -4.0104384027888464 5.985039172535568
239 -1.621620901440007 -4.5271836952896605 0.9415393966400825
5 3.0779626957239667 5.5920580791602585 1.3294396590194462
332 -0.5272436959103403 -1.2745106262394181 -2.1284490532928575
19 -7.771866477596659 10.513333991902726 4.239297881992093
117 1.7739315139956622 -3.0798832803991063 -2.897393000367863
76 2.026570934686083 1.8355361333148414 0.15488547837176023
29 3.0887886991891302 2.517517193491291 3.4533876254557367
230 2.111266323455164 -2.4416199924086097 -0.7791807145883791
281 -1.4186792399970798 0.1601805917542043 0.035290900012125155
298 -1.7231498410094237 -1.7621143002374235 -2.4359592806045356
141 0.92932346167738 4.58093713911105 -2.6087532532838584
55 1.1924548527232843 -0.48218113893535197 -0.44943317952034595
212 -6.471735323658438 3.112556417375013 3.542600095363297
34 -3.797242701731567 -8.15693442764546 -4.008001362932336
1 -4.500378133432107 1.0280771034251839 -1.1860743578321822
213 1.9652662100727618 -2.646130906202781 3.75835221504804
148 0.7045180248312255 -0.754680330230118 -0.28369863820509544
262 -1.058859604865347 0.3967178816831019 3.06011336940331
182 -3.364018905538101 1.160097072964429 0.5851035158649716
10 -2.921825382726412 2.8251036839092225 6.775094251564147
130 1.121195949778877 1.3218731886717623 -2.009882306232289
4 2.35463321217175 2.3690603301960396 -2.0951967003523104
75 6.208980231469094 2.477158768195302 0.7175472273720875
105 5.37341055998626 -1.7019861516979937 6.32642409441729
133 1.2538787169941144 3.609868872166189 -3.8407850009759708
273 5.373897341260679 2.359749614713557 -1.2118714587505592
134 -5.150892830119675 -1.2218369778780542 -3.5884239841261882
289 0.4796156216437156 1.4024783091389545 2.7338139415689735
73 -1.3827508622482674 -3.4973862073728865 -5.9124271637481165
222 5.087168986823151 -1.2374984878478923 -2.5760135344809396
242 -1.106574441068158 1.364793733179045 2.4121390126742903
327 5.772791341308728 5.881669772920893 5.988647403907393
110 3.3809971295030317 4.360869102436058 0.5061312031177775
95 -0.323599872022742 3.3535156568344986 5.314148372243473
191 -5.476566921582514 -1.0665053755287253 -1.9143649132347382
255 -0.3601499958471734 -4.195138571393822 -3.540318333228638
192 3.476070266146091 -1.2428253908240319 1.5975001140516327
336 0.6473366306844004 2.8807104588816173 1.338078806891292
27 0.4072950060640625 6.108864574785472 -5.327393890446681
227 -5.161167777075499 1.045777790405768 -0.48205201160392247
28 4.283947041690215 1.172767881919147 -13.401286590659995
51 3.8118408924210447 -1.9773435406732534 2.5240420601051485
168 -0.744904064012826 3.251975000832655 -7.138486786960512
138 -1.3609626018737682 11.06110649851127 -0.06649902621102821
61 8.005280655124233 -0.572657568238289 0.46721110079144296
334 4.2463878775934 -2.7288120207301034 0.0765953448322908
275 1.424116753052665 1.9062051189302112 -0.1732614051433298
126 1.4885145753635236 -0.4893958503508104 4.411901993532444
121 4.841551403594561 -0.8152783588666976 -0.9934923951552216
127 1.8862679493709678 1.7683927576545238 -1.2396402107251963
6 2.051257323105149 2.5570736877943325 -1.0951996874086591
309 -1.562334816104092 -4.1403690940769815 -1.3427515739682043
297 3.273756117391622 -0.3204393492046897 -3.655075710361643
243 0.8062527261635765 -0.9835948314965223 -4.155672570012726
296 2.5144993551077355 -8.44139916006088 -1.9367386091437406
48 -2.5827614592996895 6.298714669837756 -1.8436245458532265
244 -0.08827146503492081 -4.009349360293807 -6.851907976536128
165 -6.711930505560075 -0.30001827758917265 1.6714732647118253
215 -4.425075870460237 2.383611748799236 -0.4897341648569342
13 8.061061326843951 -2.958385135953458 -3.7506757285181234
72 -0.9437132086112726 2.2264431845326182 -4.998166718917243
153 -2.640645178029516 -5.814128704544054 -3.187164307266854
299 2.726665441584761 3.351595264866589 -1.117750358394066
235 0.9712813170036804 0.9733900476429799 2.942099744317006
283 1.66945542796625 -5.404539642130755 -0.4535908749404425
109 4.420656884607136 0.9085998923490796 2.8088462318528546
83 -3.7514303236862476 -3.1804921528519463 5.94898595322539
2 -6.6162928141695065 1.976836792166286 3.947368200238976
186 1.553566371013416 1.9534520049334927 -1.7758742048959784
278 -1.4577914492415875 3.0631506268612774 -2.2360329979116744
50 1.671208431145904 1.714699895211021 2.647276483892661
280 -0.9571958425807885 6.480312262541988 0.2568067381454
172 -0.445600972548848 0.036406419072551786 -0.7439949503262522
164 5.91738844173105 0.6743132799230773 -2.317997026968392
26 2.1498189774831284 1.7848830756350618 -1.7369489081332254
203 1.5554004620071065 7.24510918257015 0.18132499546930747
292 -0.9639036686158474 -5.625628460448633 4.86213900563302
94 -0.6414904486019317 -5.525253398861524 5.001401585444831
135 1.4212038376822675 9.208167491748926 1.2961292912606672
218 -4.5268530223071 -0.15482928015722075 -1.0547757779900448
111 -1.747718085004698 -1.3652186183166621 -0.634926738821706
11 -4.145992157417907 -0.8701270376762348 3.247252845632863
300 1.4079286412068055 -2.183431067963115 6.25097534105285
31 4.568808402302683 -0.906782630602117 -1.681195223113309
17 -6.059925271916906 -11.436749464797801 -2.9217147516548265
87 0.947640561604497 -1.8861770603601427 0.08755986495023285
3 -0.411006962820798 -0.7631956064676956 -0.0032143157984349524
154 -0.6485335894696503 0.4639485338517632 -6.383158831287189
40 0.25455869488112254 -0.47261394747689756 -1.7023438056440878
253 2.8469626883245027 2.5844078588122645 3.630113869106911
64 -1.0598450075625436 -3.8718942791316158 -0.879775544970827
284 -3.449712128861144 -2.0439814985529936 -3.007008259412799
234 -0.7313590588660023 0.493093457873493 -0.5720460082999009
237 -0.8329246866357669 2.8237133048684284 2.4417851357256652
293 2.11016502889999 -6.148718824962036 2.8888542568011166
120 -1.2747813320147423 0.120919259931066 0.5223998561422049
163 -0.4855121576821776 3.1295456825849493 -5.010570963173647
122 -0.7776659849994408 -4.499730851927575 0.7009077575368245
194 5.77853169900967 -3.890611842750995 -3.3633869717809466
68 2.1526173564625957 -2.1633990677474113 0.06064420664084782
145 -4.715917113121763 4.336323374787436 -3.0942103196363164
20 -2.260009763661855 6.417566597239843 3.786045045178334
100 7.747740798441821 -0.3529249752521357 -0.6831480743607395
101 5.175008273911279 -1.6298258947375361 1.414542395295577
270 -2.191457685523234 -1.6430759918471665 1.4064074550836763
307 -5.568506022837894 -1.4340999927190645 -7.293964480280384
325 -5.423553974174093 -0.9770975374159505 0.17523583643481747
119 -1.7974239817343773 2.639705823762455 3.54276042640098
180 6.27902173662025 2.221769031009262 0.5533405198116885
330 -6.885991394123961 -5.1559398738092295 2.3195930998592984
65 2.542192514334398 0.5882337119680641 -1.1126519856719546
201 0.8397919390442996 -2.044141577345108 3.234500525578981
303 -4.3791340206484115 1.1892598455494043 2.095295325966891
208 -1.0467399475830692 -5.103083403257723 6.5406998643723275
231 -1.158752554385046 -8.242853156459798 2.0776655398771013
290 1.5439221421272047 -0.42468402858881205 3.2776554144670316
143 0.6987787858097163 8.321489048664795 -3.453467880532158
250 2.275710998985742 -3.850372826213701 -6.013907209589566
44 -0.17610269153766026 0.5145851687670379 -0.7088106609630351
137 -5.172913816068725 0.5233598122533948 2.522623460907688
312 -3.252732390741312 4.212122818738092 3.3145246699733217
158 2.3409992079880895 0.49599365666131784 1.9217958171547025
181 -4.019103829031535 -5.366442143448399 0.6370142293598808
260 1.7703628883390266 4.8157481260295905 -1.455833251332982
85 3.945290081145852 1.5117033165062232 -5.294708406848966
248 -5.657534381911903 1.8968221727897985 3.4274907210172603
99 -2.1700785252535635 3.7440462172155398 -2.0962613853048575
277 1.319165252879724 -6.189322261471064 3.4714150060030065
113 -6.282496984947443 -2.805633383477386 -4.131768590331548
152 -1.3234789399715658 7.098853316542175 -2.4877072589933293
224 0.4361599632570006 -0.7585796269009359 2.511133487116293
333 -3.863574370695003 1.748477275797398 -7.840922704243968
7 0.3288141522579915 3.7279134556310423 4.788747403927685
90 -2.4356552662724456 -2.993130771167853 2.1525234270774405
118 3.094849796827722 3.7696813775896483 -4.1955147277101075
129 -0.6334112185373915 2.337763789614655 -2.4044478510278156
92 -0.893224640628282 2.0972246549476123 -0.25962707424267023
220 5.361007948656477 -0.5638147332026607 0.5020682828223781
264 -1.063240916908645 5.874967958947333 -11.659918645946123
238 -0.38607485931792074 0.6371625195529887 2.9616619879196553
32 -2.888659766711887 -2.706723548288425 0.1651235558044858
81 2.6251455271483675 -4.334581096309097 3.711373077311842
210 -2.8777464915004143 -1.8489322023442654 -0.9277971606664425
144 -0.1060364005664614 2.8196840314020974 -6.888549345067042
249 0.051204797986063554 3.4819415932373547 -3.1865909385017335
267 -9.739149798291107 -9.995943987069852 -1.286372842416027
279 -2.6085698086780433 -0.3189047996010553 -3.9526376201859947
22 2.316129278472743 2.0451146607486708 2.5680063874053656
214 4.884445559949549 6.468126907421805 -2.939579926124784
258 -6.935213726492955 2.3315969595880515 0.2620675583212566
232 4.116221567616865 -7.840369836649668 -0.7712498238735428
329 4.7224768389693965 3.461130465528578 4.043087004882346
93 -1.9586900054555014 4.664714253217553 -1.684250570374576
211 1.3639159159308534 -0.7110433420108794 2.5013669244681664
200 -8.515377718774253 -4.444357952326914 -11.004119054321766
187 -1.7316595420974112 4.501574657938987 4.7218933896076365
54 0.6305303175594241 -0.6464163524927931 0.21121362020298295
52 1.9792948373115147 -1.1610999507091588 5.860396825972534
162 -1.0781827830498734 7.848121949200816 5.643936575280091
116 0.20242015527502175 0.15511542192415584 0.9856436854726525
261 -4.313235796828018 -1.3775711917844273 2.1725722280336837
49 -3.0850161494454897 0.8214639818512678 0.5771227491581742
147 0.7749421421965667 0.2615720541460294 -4.81175433911656
328 1.257444273223616 5.76658569424018 -2.600631491803668
169 -5.183625955602116 5.162675195589827 7.0442569185184
24 1.825548270556772 -1.449246986988231 -6.468068394392043
128 -5.147957087832453 0.0712927325872866 -3.0847326834760778
272 3.5899577370497275 -2.8905599374122275 -1.9844932831143203
324 1.379191921509465 1.5117177099333805 -2.3848541318526895
245 -3.2274625918397324 0.6885350199829098 1.13059634037391
21 -5.077456764853593 6.775409447512017 4.880530510763197
108 -4.763944543781221 -3.302097675311466 -2.3742803924592546
219 -2.5563284289312405 2.870824977040201 -3.8014288091601394
41 1.6965295721132412 -0.7753891279361094 -2.9693764965844474
173 -1.4144658005229427 3.104562329776217 7.612634446240685
317 1.6974495154156948 -0.3746455627119005 -3.169423964044343
226 -0.5523542410500952 -1.0827719066915333 -2.690656844764
189 -6.364540532559223 2.747817655177693 -0.9795654161862126
285 -0.6942866608671094 -0.8818310630179511 -1.8883213430440802
178 0.6934153161556339 0.23436687468272596 2.340937086974157
295 -1.593240375415571 -1.7900935202617487 0.34441011567343527
74 -5.7170429020788465 3.3768188886696846 3.262949569776485
306 3.1652731943386114 0.2006309761939325 1.4357083791972567
161 3.302513569056185 -0.7456482333618631 4.685596436497888
112 0.7657226253910249 2.673235025794824 -0.12333609053067501
8 -0.9259505787297121 2.4524604574163997 2.525044149613414
9 0.2815014339872223 1.895596036647145 5.400455900327389
38 2.9176657495644793 -4.321140176607944 3.436285474861721
321 2.1767595272929534 2.122010891141288 7.284278023415818
15 5.569446047520858 5.5574198910808486 3.758704057090518
256 7.128038540729635 4.813415207205722 2.674046727132705
276 -0.4585950459949753 -0.4297244910420359 2.5764857340137066
301 -5.901155040525097 0.10230653147117674 -0.5452808705895559
160 2.8106391528077617 -0.024516996360537578 -0.3826877304229867
294 1.223798145994916 3.2343885859923907 1.4217535120444096
33 0.8747441692020779 -1.619899092953053 -2.092113395313271
271 -0.5447093775032028 -3.928168822069265 1.9805555879609
318 -2.2148311383560553 -1.4045881638099735 2.939882167545715
84 -0.0277659077695921 1.6933862173763106 -5.833435906674513
313 1.7368322905876445 0.5888992839747533 -0.45188203488597817
57 -2.831802712954394 -0.6104137840667632 -2.599692571756669
62 1.3483087890276975 5.016381624570617 -0.05256517610574887
305 -3.6637095551148255 -9.586117297624128 -0.999033547058583
155 -3.0492706095205406 3.437975038478873 2.0180022737628316
247 2.6884779870220528 0.31245270182735696 0.9500623488495915
115 -1.9938607608956538 -4.166819859895419 -1.4946765158655602
204 -4.294892467803773 -3.440492024553951 -1.4215594096969653
340 -2.216845115836598 4.147382568494578 -4.202477251826502
66 -3.224412079492628 4.219865059073923 -2.7484218564584224
315 2.1945703755496497 -0.5041630740473126 2.455126039734249
63 -7.328412768464904 -0.6379077573152647 -1.4794175152857523
202 -4.16059925864993 -3.320975208522987 0.5408362003758161
196 0.2166151472428455 -1.7993523533318119 0.12229476009471367
35 2.358201934746247 3.0605401606098814 3.9855150934702688
89 -1.623296113587438 -1.4852441896767599 -1.9451004393417912
188 -1.0329771106717907 -8.046742871424145 -6.867088109507913
223 -4.338037313540512 2.3328389852792433 -2.4623735599863608
170 5.607846183789753 1.5432460401951404 1.5974646695121415
265 9.128344765292729 0.7623847074534779 -0.7147587008976258
157 -4.55174130266359 -2.722529886482559 -0.7610090524354474
286 7.16660860596826 -4.47304954540209 3.1255698753355783
71 2.6134207347512795 -3.2410004366490606 1.5818935317966714
225 2.312392792989204 -2.2600141094446036 3.779935001279481
102 6.579110712734706 -2.038310815415145 -6.059663298784984
159 6.262543446178933 1.8469540156516282 -0.9416094899011697
320 -4.44131808941123 -3.624856427178682 -0.6783734985345035
209 -1.9237767561075838 1.6674498712079198 3.006984030938499
193 -1.7103724871626436 -8.345462784415467 -2.385387410420958
103 -2.987930721413573 -0.9596244768108885 2.5800584353423486
287 0.8589451696639948 -2.2819170554600228 -2.7768424653736146
308 -6.584358260565557 1.5352863680755113 6.138846278740794
139 5.261881545896639 1.9599780732286216 5.587294173171267
288 -6.322000055298133 0.21766704576997337 5.601553282139455
177 3.9772208386913057 1.1471887541002344 0.6642071636540245
319 4.676316826007838 1.6262829170307547 -0.7433258306005271
337 -9.668387616524242 -7.809593031044673 5.3099781230349565
18 1.7136006108680202 0.018464660658577603 -5.732090055223567
42 -1.2077973397289958 4.731128374727391 2.6045905212144893
199 -5.455393160529293 -2.2913934966976934 -0.3775094703217983
198 8.118363525242058 -1.0600781971431539 -3.4871545213277666
229 -4.514208427815065 -1.9160943556067835 -3.2874801639368796
16 5.783505653061306 1.538556980428061 -8.59761275330845
335 3.762492369335492 -5.053046961744918 -2.8869612059700454
79 0.495317972585751 -2.5184941259003057 -0.7703722124646541
252 -0.1616533832686067 -0.6344356730059743 0.05990237691422439
150 3.2462441816088163 -8.251009009952805 0.6239331379465093
131 0.4056296160330824 4.565490161918895 -2.5737370905891015
67 -3.4446576308584658 -3.1845107342990264 4.244744497894101
197 3.2156717395088266 7.459153669344707 -6.244436299119676
82 1.7801269892632738 -9.448332697095816 -0.3664232918716327
316 -1.6510491173588502 -0.7212604884630818 6.63774718901271
78 -1.1980288597016417 -0.07241444866943711 -0.38515028430160153
91 -0.7460617933554863 0.3324672654917884 -1.548324914370336
104 -4.708723012256564 -1.438127491123402 -0.2678595040883609
114 0.8942308699348557 2.7514073077884396 -2.2260640371399822
259 -2.280873081232206 1.319435389771496 -2.9707481475204967
140 2.0128125863421884 5.926783981829181 2.8987819492841367
322 -1.6372759677005375 0.17814920558975503 3.0058042048781455
146 -1.0735012789378304 2.403831779598103 -1.6113741444889842
274 -2.9274678155010725 -0.5416319672620326 -1.1416258280955642
236 1.5306560922713055 8.488040764617702 -2.3110012898374
124 0.16118845776256344 5.684767119852267 -0.5641113046774243
69 4.408146920254976 -4.902007499571605 7.262283023539315
206 -2.857137081115523 -0.6256933061438615 -4.590570274451511
132 3.306758813856233 4.222905504217573 -1.4032080089994061
302 -1.1986922294653917 -1.8864060148949637 0.9233178421912683
56 3.2426508544736903 0.46812244485804744 1.4592323280420403
269 -3.3473721520908883 -2.622158814753732 0.1244135327632645
175 -1.1720318495996276 -3.0593793395090993 -4.992498506156538
12 -11.053418317227923 2.004957387521436 -0.8909560962431436
142 3.367531239727698 2.53572919668658 3.270617058816697
36 3.6232351867593784 -5.658153168139353 0.5519744617839261
88 4.798179889241085 -0.2974729344053182 -3.6760652076056997
310 -0.6219027982909546 -4.478593901289948 -4.253659936118807
70 -1.697171527513238 2.1426017364131136 2.1206425818404497
311 -2.0874489644087735 -2.297846054163195 3.366330914986323
190 -5.229664260564983 1.995131326194748 -5.4428247073614795
241 4.013362837511232 -1.622147824029135 -5.529528559638366
205 -4.94038338958858 3.638666048490466 -4.10963955886597
282 4.235111593002666 1.4618251873766233 0.07586895090323444
185 3.154133360393393 -4.797560324317037 3.8314284222523196
14 -1.3499758907324984 2.5369102888252577 3.2089328653109854
23 -1.5748347561933247 -4.32270365979789 1.670938624012849
106 2.759201753928115 0.8267912487410654 -6.703123238953169
156 -0.17176200794620225 1.9731049879988602 1.3291651499810884
216 -3.8275922764403494 1.3863268775378115 -0.06777100741809479
207 0.36012968571336496 6.030470548668466 -6.7620702580905165
136 4.601485143561202 -3.24691350687827 4.719244403125563
60 -1.2459562228392478 1.1831585715078718 -2.7672064058128005
174 5.023412585578062 -3.2221910937715936 -3.2513996294719947
59 -0.3215317671596714 -1.0587272934330851 -1.8442259957161002
323 0.2130833745319958 -0.5026419192808926 0.20128576514750926
45 5.810791150519963 -0.8963635892845251 2.352567908118376
86 -1.9479030314312646 2.5938406337299442 0.4791816712403021
123 -0.008083007573055774 -0.7683392356709198 2.5667191920461296
176 -1.134983888975504 3.211334757223067 -2.886772936593917
80 1.0242839055998438 1.7681879873155892 0.9649937217666411
251 3.6170875602617905 0.13800040048790352 -1.4407933695584767
195 -2.7480080096969264 3.801230354831674 -2.4961584630852114
263 -9.03817354870708 -2.56919967234677 -2.197400279069699
338 6.127889656438127 2.8528003705402205 2.471279656952412
221 3.7753111372698234 3.2904525045780857 -2.758820573098379
25 1.5332558905184948 -1.419666976167313 1.0324606225888626
240 -2.991411157598359 -5.849190041669909 -4.360329801240132
246 -11.103430553866879 -2.98267111552266 8.844408278837179
96 0.33776094056387096 2.773008482898871 -2.5839338813480963
37 -0.5010401753071442 2.391912718814376 1.9424142585411945
254 0.5083193748133114 5.039094783305891 1.7593132544382444
184 1.837747634586911 -10.664113819622063 -7.404823407436031
228 -6.065365767929419 2.643376159227097 -0.2839043101687067
257 -4.7838185379100775 -6.899513660065842 2.267423906837074
266 0.7197553479999818 1.7883470996226556 -0.60561906215558
171 1.39549780592557 -1.0874099329950906 0.8446647519027912
331 1.4300157712274117 6.5851520256017935 6.126437929929217
167 6.651706354011518 -3.9023948766724006 1.5860242998488905
97 -0.28748610833623794 -1.9644863214513313 -1.9072245557720426
43 -1.8654731947028198 -2.0835180275173784 0.669281131252051
125 2.6224096876648235 0.5215307459727956 3.3403346144373463
339 1.0770775996497188 2.2830216431997865 8.45702147132167
183 -2.200132441245605 -1.715142834783727 2.4036907546430415
77 4.394412103162478 0.36983406128840524 4.603541692195765
233 2.7121519589946774 5.904985997047144 -5.735557484812282
30 -5.708013931404536 0.21004241675316657 -1.6809681152505298
39 -1.1370654564683815 -1.4512010243784361 7.088255649076125
291 0.7367233133124068 -10.438776322149225 -0.6883167516754022
217 -1.085339929554459 -0.7482779719270873 1.6819086952555022
47 1.9644307156082017 -4.320513332750386 5.7261112786151145
46 0.2301991469060572 1.093880777307623 -0.13607676329642088
314 9.932359913170279 1.3246678893291457 -1.4485536194368518
166 -1.8810044431765374 -1.0305439826096119 -1.228484092961076
58 3.257588974719541 0.2948918981352119 -2.2404582442953345
268 -3.3741535053626865 -5.334980893165696 3.129803145504304
151 1.6625851031677292 4.8408038408720975 -1.3751704777686615
304 -0.35421986421534996 -0.9651332462303919 5.076525077821455
149 2.335666719632204 -7.677431225969299 -6.44011692368526
107 0.4846852808257977 0.6129760706349897 -1.2829434743702226
98 -6.161925223470744 -4.387162294632126 -0.8169792378182817
179 2.5479341636070076 1.5899442786640308 -4.80294527645088
53 1.3171558954369949 -2.110893223479275 1.33718536917483
