Date              = Sun Feb 15 02:54:30 PM PST 2026
Hostname          = compute036
Working Directory = /home/sabeel/VOCC_Simulation/structures/BorosilicateGlassSlab/Trial5
--- Starting Simulation ---
LAMMPS (22 Jul 2025 - Update 3)
  using 8 OpenMP thread(s) per MPI task
Reading data file ...
  orthogonal box = (0 0 0) to (18.779726 18.779726 13.145808)
  2 by 5 by 2 MPI processor grid
  reading atom labelmap ...
  reading atoms ...
  340 atoms
  read_data CPU = 0.025 seconds
Setting atom values ...
  87 settings made for charge
Setting atom values ...
  217 settings made for charge
Setting atom values ...
  23 settings made for charge
Setting atom values ...
  11 settings made for charge
Setting atom values ...
  2 settings made for charge
--- STARTING SOFT RAMP ---

CITE-CITE-CITE-CITE-CITE-CITE-CITE-CITE-CITE-CITE-CITE-CITE-CITE

Your simulation uses code contributions which should be cited:
- Type Label Framework: https://doi.org/10.1021/acs.jpcb.3c08419
The log file lists these citations in BibTeX format.

CITE-CITE-CITE-CITE-CITE-CITE-CITE-CITE-CITE-CITE-CITE-CITE-CITE

Generated 0 of 10 mixed pair_coeff terms from geometric mixing rule
Neighbor list info ...
  update: every = 1 steps, delay = 0 steps, check = yes
  max neighbors/atom: 2000, page size: 100000
  master list distance cutoff = 4.5
  ghost atom cutoff = 4.5
  binsize = 2.25, bins = 9 9 6
  1 neighbor lists, perpetual/occasional/extra = 1 0 0
  (1) pair soft, perpetual
      attributes: half, newton on
      pair build: half/bin/atomonly/newton
      stencil: half/bin/3d
      bin: standard
Setting up Verlet run ...
  Unit style    : metal
  Current step  : 0
  Time step     : 0.001
Per MPI rank memory allocation (min/avg/max) = 9.364 | 9.364 | 9.365 Mbytes
   Step          Temp          E_pair         E_mol          TotEng         Press     
         0   300            0              0              13.145757      3028.5788    
       100   2530.7002      95.474798      0              206.36803      102068.41    
       200   3346.309       137.57108      0              284.20363      171448.36    
       300   4203.4088      160.67131      0              344.86128      232586.32    
       400   4775.7358      185.26807      0              394.53694      286293.18    
       500   5312.4147      204.92419      0              437.70989      338636.59    
       600   5955.8354      215.05364      0              476.03351      387610.28    
       700   6404.8181      230.55597      0              511.2099       427769.85    
       800   6557.7837      256.48599      0              543.84276      479078.15    
       900   6542.5866      287.55428      0              574.24512      526702.7     
      1000   7079.1188      293.17028      0              603.37152      569745.32    
      1100   7370.373       307.68943      0              630.65319      599361.32    
      1200   7750.3166      317.41198      0              657.02457      632043.07    
      1300   8544.7303      307.5751       0              681.99825      674991.35    
      1400   8578.7905      329.93321      0              705.84885      735009.89    
      1500   9149.9714      328.26164      0              729.20596      757388.31    
      1600   9488.5629      335.27613      0              751.05727      787220.66    
      1700   9617.7142      350.25857      0              771.699        810401.53    
      1800   10008.287      353.28957      0              791.84459      869162.46    
      1900   10072.301      370.94316      0              812.30321      857341.12    
      2000   10428.611      374.55307      0              831.52637      916767.61    
      2100   10275.138      400.50037      0              850.74857      960234.72    
      2200   10399.486      413.63568      0              869.33274      1024464.2    
      2300   10819.479      413.28616      0              887.38697      1016896      
      2400   10790.476      431.91531      0              904.74521      1042446.5    
      2500   11676.549      410.46378      0              922.1207       1080333.5    
      2600   12015.932      411.95808      0              938.48647      1094273.3    
      2700   11834.571      437.00085      0              955.58214      1152295.1    
      2800   12261.006      434.02537      0              971.29271      1152149.8    
      2900   12042.009      459.41185      0              987.08291      1209687.1    
      3000   12813.345      441.37579      0              1002.8462      1201665.2    
      3100   12850.66       454.17558      0              1017.2811      1253400.7    
      3200   12900.11       466.70511      0              1031.9775      1302968.2    
      3300   12832.651      484.11424      0              1046.4306      1339264      
      3400   12086.513      532.01372      0              1061.6349      1411884.8    
      3500   14017.131      460.11836      0              1074.3377      1348839      
      3600   13283.835      507.30246      0              1089.3893      1413342.9    
      3700   13455.572      512.30508      0              1101.9173      1442726.3    
      3800   13694.034      515.64128      0              1115.7028      1426951.5    
      3900   14266.834      503.05477      0              1128.2159      1518385.4    
      4000   13475.823      552.66666      0              1143.1663      1546224.5    
      4100   14123.748      537.32632      0              1156.2175      1578972.2    
      4200   15510.459      488.29895      0              1167.9547      1509718.1    
      4300   14951.576      527.06362      0              1182.2296      1604407.9    
      4400   14811.745      546.8513       0              1195.89        1655948      
      4500   14480.482      575.64971      0              1210.1727      1694931.3    
      4600   15192.138      554.89622      0              1220.6034      1644182.4    
      4700   15681.122      545.32486      0              1232.4589      1682680.1    
      4800   15571.918      564.05128      0              1246.4001      1678159.3    
      4900   15762.686      569.02489      0              1259.733       1713945.1    
      5000   16259.145      559.04837      0              1271.5109      1745865.4    
      5100   16580.817      555.3195       0              1281.8775      1750177.4    
      5200   16330.801      577.13342      0              1292.7359      1786138.6    
      5300   16076.186      599.99436      0              1304.4398      1829883.4    
      5400   17301.258      558.00226      0              1316.1294      1851133.3    
      5500   15929.064      631.42371      0              1329.4224      1895426.3    
      5600   16744.574      608.59071      0              1342.3243      1916527.7    
      5700   16680.791      621.55047      0              1352.4892      1942053.9    
      5800   17291.238      606.8348       0              1364.5228      1942541.5    
      5900   17056.292      625.19072      0              1372.5836      2002963.6    
      6000   16828.02       647.82276      0              1385.213       2030516.1    
      6100   17032.675      648.41805      0              1394.7761      2072072.6    
      6200   17689.459      630.53542      0              1405.6732      2017537.4    
      6300   16621.582      687.92932      0              1416.2736      2173860.1    
      6400   18705.735      606.90967      0              1426.5798      2050990.9    
      6500   16981.122      690.43517      0              1434.5342      2166923.1    
      6600   18844.392      620.26694      0              1446.0129      2117404.4    
      6700   18659.873      640.83524      0              1458.4957      2147078.3    
      6800   19365.157      621.38709      0              1469.9526      2142755.5    
      6900   19108.388      645.85893      0              1483.173       2206369.3    
      7000   17536.547      724.83106      0              1493.2683      2290715.9    
      7100   18464.033      698.92396      0              1508.0029      2296755.4    
      7200   19909.486      646.28577      0              1518.7033      2260360.4    
      7300   19428.992      675.36271      0              1526.7254      2289711.8    
      7400   19621.434      677.31285      0              1537.1082      2327575      
      7500   19264.382      706.4226       0              1550.5722      2375421      
      7600   19160.5        721.33324      0              1560.9308      2415702.6    
      7700   19085.067      732.29699      0              1568.5892      2400189.6    
      7800   20257.694      693.30083      0              1580.9766      2418137.8    
      7900   20977.628      669.04999      0              1588.2726      2363587.1    
      8000   21244.342      666.12499      0              1597.0348      2409710.1    
      8100   20799.809      697.86626      0              1609.297       2455100.3    
      8200   19876.752      749.60468      0              1620.5878      2513034.7    
      8300   21825.483      674.95493      0              1631.3299      2571593.8    
      8400   21738.076      685.18553      0              1637.7304      2464341.7    
      8500   20423.117      755.44433      0              1650.3688      2596281.9    
      8600   21374.09       721.10428      0              1657.6996      2597906.8    
      8700   20114.765      790.25752      0              1671.6702      2624845      
      8800   22351.799      698.22943      0              1677.6672      2606491.1    
      8900   20874.405      782.23257      0              1696.9321      2689676.6    
      9000   21546.737      770.93904      0              1715.0996      2672057.5    
      9100   22095.507      765.32571      0              1733.5329      2783710.2    
      9200   22689.295      745.17248      0              1739.399       2728509      
      9300   23824.637      710.40068      0              1754.377       2706777      
      9400   21911.166      807.77227      0              1767.9018      2852025.8    
      9500   22454.25       790.99067      0              1774.9177      2837646.3    
      9600   21754.772      838.41765      0              1791.6941      2905744      
      9700   22672.447      813.92324      0              1807.4115      2809742.8    
      9800   23077.248      809.69589      0              1820.9222      2810825      
      9900   23098.957      817.27385      0              1829.4514      2796631.6    
     10000   23428.772      813.65593      0              1840.2857      2974752.4    
Loop time of 241.862 on 160 procs for 10000 steps with 340 atoms

Performance: 3.572 ns/day, 6.718 hours/ns, 41.346 timesteps/s, 14.058 katom-step/s
38.9% CPU use with 20 MPI tasks x 8 OpenMP threads

MPI task timing breakdown:
Section |  min time  |  avg time  |  max time  |%varavg| %total
---------------------------------------------------------------
Pair    | 0.048074   | 0.051421   | 0.071612   |   2.2 |  0.02
Neigh   | 0.017446   | 0.017977   | 0.019331   |   0.3 |  0.01
Comm    | 177.47     | 195.85     | 200.48     |  38.5 | 80.98
Output  | 0.0042988  | 0.0070373  | 0.017985   |   3.3 |  0.00
Modify  | 0.027458   | 0.030894   | 0.051081   |   3.0 |  0.01
Other   |            | 45.91      |            |       | 18.98

Nlocal:             17 ave          19 max          14 min
Histogram: 1 0 0 0 7 0 3 0 8 1
Nghost:         249.35 ave         256 max         241 min
Histogram: 1 1 3 2 2 1 1 3 4 2
Neighs:         220.95 ave         262 max         174 min
Histogram: 1 0 2 2 2 6 3 2 1 1

Total # of neighbors = 4419
Ave neighs/atom = 12.997059
Neighbor list builds = 864
Dangerous builds = 0
--- SOFT RAMP COMPLETE ---
PPPM initialization ...
WARNING: System is not charge neutral, net charge = 0.018
For more information see https://docs.lammps.org/err0029 (src/kspace.cpp:330)
  using 12-bit tables for long-range coulomb
  G vector (1/distance) = 0.29520851
  grid = 15 15 10
  stencil order = 5
  estimated absolute RMS force accuracy = 0.00093146502
  estimated relative force accuracy = 6.4686666e-05
  using double precision KISS FFT
  3d grid and FFT values/proc = 1680 135
Generated 0 of 10 mixed pair_coeff terms from geometric mixing rule
Neighbor list info ...
  update: every = 1 steps, delay = 0 steps, check = yes
  max neighbors/atom: 2000, page size: 100000
  master list distance cutoff = 12
  ghost atom cutoff = 12
  binsize = 6, bins = 4 4 3
  1 neighbor lists, perpetual/occasional/extra = 1 0 0
  (1) pair buck/coul/long, perpetual
      attributes: half, newton on
      pair build: half/bin/atomonly/newton
      stencil: half/bin/3d
      bin: standard
Setting up cg style minimization ...
  Unit style    : metal
  Current step  : 10000
Per MPI rank memory allocation (min/avg/max) = 11.05 | 11.05 | 11.05 Mbytes
   Step          Temp          E_pair         E_mol          TotEng         Press     
     10000   23428.772     -948.48014      0              78.149639      347739.73    
     10094   23428.772     -3881.2998      0             -2854.67        206781.9     
Loop time of 1.45444 on 160 procs for 94 steps with 340 atoms

34.9% CPU use with 20 MPI tasks x 8 OpenMP threads

Minimization stats:
  Stopping criterion = energy tolerance
  Energy initial, next-to-last, final = 
     -948.480140946131  -3881.08854729329  -3881.29979214381
  Force two-norm initial, final = 267.0117 5.5390438
  Force max component initial, final = 29.566117 1.8043954
  Final line search alpha, max atom move = 0.054149461 0.097707038
  Iterations, force evaluations = 94 123

MPI task timing breakdown:
Section |  min time  |  avg time  |  max time  |%varavg| %total
---------------------------------------------------------------
Pair    | 0.048566   | 0.051849   | 0.073564   |   2.3 |  3.56
Kspace  | 0.16727    | 0.19969    | 0.21523    |   2.9 | 13.73
Neigh   | 0.00066748 | 0.00075314 | 0.00087451 |   0.0 |  0.05
Comm    | 0.79502    | 0.83316    | 0.86427    |   1.9 | 57.28
Output  | 0          | 0          | 0          |   0.0 |  0.00
Modify  | 0          | 0          | 0          |   0.0 |  0.00
Other   |            | 0.369      |            |       | 25.37

Nlocal:             17 ave          20 max          12 min
Histogram: 1 1 0 2 0 5 3 2 2 4
Nghost:        2047.25 ave        2090 max        2015 min
Histogram: 2 3 1 7 1 1 1 1 1 2
Neighs:         4503.1 ave        5452 max        3206 min
Histogram: 1 1 0 3 2 2 6 1 2 2

Total # of neighbors = 90062
Ave neighs/atom = 264.88824
Neighbor list builds = 5
Dangerous builds = 0
--- RELAXING AT 300K FOR 60ps ---
PPPM initialization ...
  using 12-bit tables for long-range coulomb
  G vector (1/distance) = 0.29520851
  grid = 15 15 10
  stencil order = 5
  estimated absolute RMS force accuracy = 0.00093146502
  estimated relative force accuracy = 6.4686666e-05
  using double precision KISS FFT
  3d grid and FFT values/proc = 1680 135
Generated 0 of 10 mixed pair_coeff terms from geometric mixing rule
Setting up Verlet run ...
  Unit style    : metal
  Current step  : 0
  Time step     : 0.001
Per MPI rank memory allocation (min/avg/max) = 9.926 | 9.928 | 9.929 Mbytes
   Step          Temp          Press          Volume        Density         PotEng    
         0   23428.772      206781.9       4636.239       2.3176046     -3881.2998    
      1000   314.94188     -30710.602      4636.239       2.3176046     -3949.5788    
      2000   308.40679     -32397.955      4636.239       2.3176046     -3957.8435    
      3000   297.03266     -27538.496      4636.239       2.3176046     -3958.8246    
      4000   314.23218     -29579.169      4636.239       2.3176046     -3958.8331    
      5000   312.2127      -21544.172      4636.239       2.3176046     -3958.5446    
      6000   305.32857     -22764.24       4636.239       2.3176046     -3959.1145    
      7000   305.98121     -25965.417      4636.239       2.3176046     -3958.6797    
      8000   308.11711     -29124.379      4636.239       2.3176046     -3958.1195    
      9000   295.94095     -29557.162      4636.239       2.3176046     -3959.3781    
     10000   311.50915     -26857.989      4636.239       2.3176046     -3958.5473    
     11000   298.98115     -32874.213      4636.239       2.3176046     -3958.2718    
     12000   282.73432     -19460.292      4636.239       2.3176046     -3960.3539    
     13000   303.67264     -26129.404      4636.239       2.3176046     -3959.0089    
     14000   292.22865     -26191.398      4636.239       2.3176046     -3960.782     
     15000   293.20524     -25291.859      4636.239       2.3176046     -3959.13      
     16000   296.49831     -22275.898      4636.239       2.3176046     -3960.2278    
     17000   285.92903     -27083.132      4636.239       2.3176046     -3958.9525    
     18000   287.34417     -26485.881      4636.239       2.3176046     -3959.6225    
     19000   296.80778     -25692.526      4636.239       2.3176046     -3960.2301    
     20000   314.16237     -34011.175      4636.239       2.3176046     -3960.8474    
     21000   287.84242     -28992.392      4636.239       2.3176046     -3960.7552    
     22000   290.8695      -19059.229      4636.239       2.3176046     -3959.3913    
     23000   293.45467     -25331.238      4636.239       2.3176046     -3961.2588    
     24000   304.6944      -27913.265      4636.239       2.3176046     -3960.419     
     25000   276.22736     -26678.467      4636.239       2.3176046     -3960.4772    
     26000   297.45531     -15594.271      4636.239       2.3176046     -3960.2606    
     27000   303.67089     -29059.879      4636.239       2.3176046     -3960.7796    
     28000   296.9419      -20495.652      4636.239       2.3176046     -3961.0505    
     29000   306.26627     -27433.176      4636.239       2.3176046     -3960.7686    
     30000   290.57446     -22587.706      4636.239       2.3176046     -3961.0696    
     31000   332.20526     -21216.497      4636.239       2.3176046     -3960.8567    
     32000   307.75713     -24664.763      4636.239       2.3176046     -3964.0996    
     33000   297.57617     -27988.42       4636.239       2.3176046     -3963.3175    
     34000   289.70542     -20464.527      4636.239       2.3176046     -3964.5952    
     35000   307.50659     -23802.075      4636.239       2.3176046     -3965.8389    
     36000   296.32761     -31898.474      4636.239       2.3176046     -3964.4772    
     37000   297.34097     -29859.866      4636.239       2.3176046     -3965.0005    
     38000   286.23727     -30540.694      4636.239       2.3176046     -3964.6871    
     39000   308.30354     -23081.877      4636.239       2.3176046     -3965.5423    
     40000   304.39497     -20234.378      4636.239       2.3176046     -3964.9913    
     41000   289.6932      -26592.617      4636.239       2.3176046     -3965.288     
     42000   313.27662     -25318.776      4636.239       2.3176046     -3965.0403    
     43000   309.87904     -32146.933      4636.239       2.3176046     -3965.2262    
     44000   282.19088     -25207.06       4636.239       2.3176046     -3964.4805    
     45000   302.94859     -23620.306      4636.239       2.3176046     -3964.199     
     46000   292.59808     -21387.311      4636.239       2.3176046     -3965.0922    
     47000   298.07989     -28142.173      4636.239       2.3176046     -3963.5804    
     48000   288.00484     -22497.154      4636.239       2.3176046     -3965.0778    
     49000   296.5461      -20961.034      4636.239       2.3176046     -3964.4097    
     50000   311.67711     -18173.152      4636.239       2.3176046     -3965.4069    
     51000   286.02104     -23103.391      4636.239       2.3176046     -3965.5398    
     52000   289.47364     -17546.81       4636.239       2.3176046     -3963.7455    
     53000   304.5473      -30400.267      4636.239       2.3176046     -3965.3011    
     54000   308.47026     -25891.714      4636.239       2.3176046     -3964.3357    
     55000   291.65136     -19059.459      4636.239       2.3176046     -3964.467     
     56000   292.78267     -20715.505      4636.239       2.3176046     -3965.7216    
     57000   302.63401     -26655.809      4636.239       2.3176046     -3964.8885    
     58000   301.41216     -24004.641      4636.239       2.3176046     -3964.7361    
     59000   306.11534     -30431.344      4636.239       2.3176046     -3965.2219    
     60000   292.01938     -26549.192      4636.239       2.3176046     -3964.2484    
Loop time of 112.982 on 160 procs for 60000 steps with 340 atoms

Performance: 45.883 ns/day, 0.523 hours/ns, 531.056 timesteps/s, 180.559 katom-step/s
43.6% CPU use with 20 MPI tasks x 8 OpenMP threads

MPI task timing breakdown:
Section |  min time  |  avg time  |  max time  |%varavg| %total
---------------------------------------------------------------
Pair    | 8.0466     | 10.312     | 13.226     |  40.0 |  9.13
Kspace  | 52.894     | 55.711     | 57.942     |  17.5 | 49.31
Neigh   | 0.041359   | 0.049878   | 0.060753   |   2.3 |  0.04
Comm    | 16.459     | 16.984     | 17.425     |   6.1 | 15.03
Output  | 0.0037704  | 0.0048079  | 0.012261   |   2.5 |  0.00
Modify  | 2.1031     | 2.4425     | 2.6988     |  10.8 |  2.16
Other   |            | 27.48      |            |       | 24.32

Nlocal:             17 ave          21 max          12 min
Histogram: 2 0 0 4 3 2 2 3 3 1
Nghost:         2054.6 ave        2111 max        1998 min
Histogram: 3 1 2 1 2 2 3 3 2 1
Neighs:        4495.55 ave        5731 max        3208 min
Histogram: 2 1 1 5 2 1 1 2 3 2

Total # of neighbors = 89911
Ave neighs/atom = 264.44412
Neighbor list builds = 328
Dangerous builds = 0
--- RELAXING STRUCTURE WITH NVT AND NVE ---
PPPM initialization ...
  using 12-bit tables for long-range coulomb
  G vector (1/distance) = 0.29520851
  grid = 15 15 10
  stencil order = 5
  estimated absolute RMS force accuracy = 0.00093146502
  estimated relative force accuracy = 6.4686666e-05
  using double precision KISS FFT
  3d grid and FFT values/proc = 1680 135
Generated 0 of 10 mixed pair_coeff terms from geometric mixing rule
Setting up Verlet run ...
  Unit style    : metal
  Current step  : 60000
  Time step     : 0.001
Per MPI rank memory allocation (min/avg/max) = 11.18 | 11.18 | 11.18 Mbytes
   Step          Temp          Press          Volume        Density         PotEng    
     60000   292.01938     -26549.192      4636.239       2.3176046     -3964.2484    
     61000   268.48658     -19421.179      4636.239       2.3176046     -3965.4931    
     62000   298.82818     -24884.231      4636.239       2.3176046     -3965.3959    
     63000   316.1315      -37516.959      4636.239       2.3176046     -3963.4929    
     64000   308.79523     -24853.623      4636.239       2.3176046     -3965.497     
     65000   307.28386     -25739.849      4636.239       2.3176046     -3964.4918    
     66000   298.58537     -20511.792      4636.239       2.3176046     -3965.3227    
     67000   294.03698     -25966.075      4636.239       2.3176046     -3964.8144    
     68000   306.63593     -31582.84       4636.239       2.3176046     -3964.2895    
     69000   280.66626     -25479.449      4636.239       2.3176046     -3965.2391    
     70000   291.15222     -33101.939      4636.239       2.3176046     -3964.5298    
     71000   310.94273     -25484.902      4636.239       2.3176046     -3964.1098    
     72000   320.15906     -29713.488      4636.239       2.3176046     -3965.8526    
     73000   302.96696     -26582.343      4636.239       2.3176046     -3963.771     
     74000   302.439       -30982.783      4636.239       2.3176046     -3964.1149    
     75000   281.24738     -33269.312      4636.239       2.3176046     -3965.55      
     76000   325.20991     -25968.224      4636.239       2.3176046     -3964.4076    
     77000   308.09071     -21362.809      4636.239       2.3176046     -3965.4009    
     78000   343.57448     -24965.629      4636.239       2.3176046     -3963.906     
     79000   290.68728     -27944.008      4636.239       2.3176046     -3964.8016    
     80000   317.04439     -16483.659      4636.239       2.3176046     -3964.726     
     81000   288.94345     -22623.976      4636.239       2.3176046     -3964.9903    
     82000   322.15557     -30811.608      4636.239       2.3176046     -3964.5403    
     83000   290.55779     -24730.126      4636.239       2.3176046     -3964.7832    
     84000   311.64609     -20997.52       4636.239       2.3176046     -3963.5203    
     85000   285.06168     -28080.538      4636.239       2.3176046     -3965.1015    
     86000   303.71948     -21616.798      4636.239       2.3176046     -3964.8205    
     87000   278.0191      -28558.698      4636.239       2.3176046     -3965.2951    
     88000   320.38309     -24699.679      4636.239       2.3176046     -3965.3839    
     89000   303.23103     -20499.475      4636.239       2.3176046     -3965.5582    
     90000   270.17927     -24802.245      4636.239       2.3176046     -3965.3759    
     91000   311.00853     -18947.352      4636.239       2.3176046     -3966.3923    
     92000   294.94814     -24591.506      4636.239       2.3176046     -3966.7915    
     93000   312.84476     -23014.804      4636.239       2.3176046     -3966.0117    
     94000   302.99339     -26629.921      4636.239       2.3176046     -3966.4019    
     95000   314.23841     -19720.06       4636.239       2.3176046     -3966.4445    
     96000   303.58129     -19478.61       4636.239       2.3176046     -3966.4366    
     97000   301.45053     -30183.713      4636.239       2.3176046     -3966.3029    
     98000   303.01343     -20415.23       4636.239       2.3176046     -3965.2138    
     99000   297.34522     -35088.647      4636.239       2.3176046     -3966.2767    
    100000   289.06819     -26917.914      4636.239       2.3176046     -3965.3844    
    101000   312.67731     -22436.793      4636.239       2.3176046     -3966.1163    
    102000   300.45257     -27977.058      4636.239       2.3176046     -3966.1296    
    103000   298.73745     -31901.639      4636.239       2.3176046     -3967.2583    
    104000   295.70434     -28299.534      4636.239       2.3176046     -3965.7013    
    105000   299.52196     -24652.4        4636.239       2.3176046     -3966.6859    
    106000   300.58582     -23961.312      4636.239       2.3176046     -3966.2547    
    107000   304.20204     -28723.875      4636.239       2.3176046     -3964.426     
    108000   308.46149     -23591.473      4636.239       2.3176046     -3966.5311    
    109000   292.56438     -26090.504      4636.239       2.3176046     -3965.8156    
    110000   294.28263     -23544.098      4636.239       2.3176046     -3967.0027    
Loop time of 86.9012 on 160 procs for 50000 steps with 340 atoms

Performance: 49.712 ns/day, 0.483 hours/ns, 575.366 timesteps/s, 195.624 katom-step/s
44.7% CPU use with 20 MPI tasks x 8 OpenMP threads

MPI task timing breakdown:
Section |  min time  |  avg time  |  max time  |%varavg| %total
---------------------------------------------------------------
Pair    | 5.7881     | 8.1379     | 10.771     |  42.1 |  9.36
Kspace  | 40.971     | 43.518     | 46.113     |  18.5 | 50.08
Neigh   | 0.028696   | 0.037622   | 0.045894   |   2.2 |  0.04
Comm    | 12.445     | 12.885     | 13.595     |   8.1 | 14.83
Output  | 0.0031851  | 0.0039899  | 0.0099781  |   2.2 |  0.00
Modify  | 1.3775     | 1.7782     | 2.169      |  17.1 |  2.05
Other   |            | 20.54      |            |       | 23.64

Nlocal:             17 ave          22 max          12 min
Histogram: 1 0 3 3 2 0 4 5 1 1
Nghost:        2068.55 ave        2145 max        1994 min
Histogram: 1 3 1 1 3 5 2 1 2 1
Neighs:        4496.15 ave        6011 max        3262 min
Histogram: 2 2 4 1 1 3 3 2 1 1

Total # of neighbors = 89923
Ave neighs/atom = 264.47941
Neighbor list builds = 247
Dangerous builds = 0
PPPM initialization ...
  using 12-bit tables for long-range coulomb
  G vector (1/distance) = 0.29520851
  grid = 15 15 10
  stencil order = 5
  estimated absolute RMS force accuracy = 0.00093146502
  estimated relative force accuracy = 6.4686666e-05
  using double precision KISS FFT
  3d grid and FFT values/proc = 1680 135
Generated 0 of 10 mixed pair_coeff terms from geometric mixing rule
Setting up Verlet run ...
  Unit style    : metal
  Current step  : 110000
  Time step     : 0.001
Per MPI rank memory allocation (min/avg/max) = 11.18 | 11.18 | 11.18 Mbytes
   Step          Temp          Press          Volume        Density         PotEng    
    110000   294.28263     -23544.098      4636.239       2.3176046     -3967.0027    
    111000   286.61539     -19817.977      4636.239       2.3176046     -3966.6638    
    112000   298.88578     -29758.962      4636.239       2.3176046     -3967.2047    
    113000   296.10234     -20042.976      4636.239       2.3176046     -3967.0686    
    114000   298.59754     -26441.235      4636.239       2.3176046     -3967.1882    
    115000   288.31703     -26315.092      4636.239       2.3176046     -3966.7443    
    116000   289.64404     -26905.495      4636.239       2.3176046     -3966.7896    
    117000   293.67392     -18105.743      4636.239       2.3176046     -3966.9812    
    118000   286.52512     -25439.851      4636.239       2.3176046     -3966.6567    
    119000   277.48081     -29776.639      4636.239       2.3176046     -3966.2576    
    120000   280.89218     -20649.679      4636.239       2.3176046     -3966.4052    
    121000   279.33366     -25424.122      4636.239       2.3176046     -3966.3375    
    122000   293.84019     -31871.267      4636.239       2.3176046     -3966.9792    
    123000   288.45773     -16916.647      4636.239       2.3176046     -3966.7422    
    124000   292.72019     -24151.239      4636.239       2.3176046     -3966.9342    
    125000   300.18357     -18534.214      4636.239       2.3176046     -3967.2652    
    126000   299.94236     -23477.284      4636.239       2.3176046     -3967.2457    
    127000   287.70802     -15390.27       4636.239       2.3176046     -3966.7015    
    128000   301.91573     -21310.857      4636.239       2.3176046     -3967.3334    
    129000   277.90725     -25307.503      4636.239       2.3176046     -3966.2703    
    130000   287.3279      -22893.51       4636.239       2.3176046     -3966.7013    
    131000   287.47985     -21507.784      4636.239       2.3176046     -3966.7061    
    132000   301.42121     -21990.973      4636.239       2.3176046     -3967.3233    
    133000   306.87899     -25932.996      4636.239       2.3176046     -3967.5607    
    134000   279.01362     -25910.302      4636.239       2.3176046     -3966.3211    
    135000   288.19217     -24693.033      4636.239       2.3176046     -3966.7265    
    136000   276.97164     -21661.483      4636.239       2.3176046     -3966.2398    
    137000   284.07274     -23956.528      4636.239       2.3176046     -3966.5489    
    138000   296.95877     -21960.624      4636.239       2.3176046     -3967.113     
    139000   286.975       -20014.505      4636.239       2.3176046     -3966.679     
    140000   283.56931     -29081.859      4636.239       2.3176046     -3966.5257    
    141000   294.55304     -28815.729      4636.239       2.3176046     -3967.0121    
    142000   285.5573      -28047.916      4636.239       2.3176046     -3966.6078    
    143000   290.90703     -25731.792      4636.239       2.3176046     -3966.8439    
    144000   287.80232     -22399.729      4636.239       2.3176046     -3966.7096    
    145000   303.54865     -23100.4        4636.239       2.3176046     -3967.3985    
    146000   296.00389     -20581.451      4636.239       2.3176046     -3967.0797    
    147000   302.27417     -27229.417      4636.239       2.3176046     -3967.3438    
    148000   282.1068      -25087.203      4636.239       2.3176046     -3966.4623    
    149000   295.14074     -22925.22       4636.239       2.3176046     -3967.0441    
    150000   288.12114     -28652.131      4636.239       2.3176046     -3966.7233    
    151000   283.92869     -28825.762      4636.239       2.3176046     -3966.5407    
    152000   294.14766     -24288.79       4636.239       2.3176046     -3966.9935    
    153000   278.21434     -27938.073      4636.239       2.3176046     -3966.2898    
    154000   286.78977     -25427.917      4636.239       2.3176046     -3966.6649    
    155000   286.99639     -23430.392      4636.239       2.3176046     -3966.6745    
    156000   292.50934     -25089.415      4636.239       2.3176046     -3966.9158    
    157000   292.98745     -24864.06       4636.239       2.3176046     -3966.9445    
    158000   301.818       -21126.073      4636.239       2.3176046     -3967.3289    
    159000   293.52196     -31610.119      4636.239       2.3176046     -3966.9637    
    160000   283.40517     -23562.259      4636.239       2.3176046     -3966.5177    
Loop time of 69.488 on 160 procs for 50000 steps with 340 atoms

Performance: 62.169 ns/day, 0.386 hours/ns, 719.549 timesteps/s, 244.647 katom-step/s
47.9% CPU use with 20 MPI tasks x 8 OpenMP threads

MPI task timing breakdown:
Section |  min time  |  avg time  |  max time  |%varavg| %total
---------------------------------------------------------------
Pair    | 5.6171     | 7.8729     | 9.6892     |  39.4 | 11.33
Kspace  | 33.753     | 35.537     | 37.601     |  18.1 | 51.14
Neigh   | 0.021122   | 0.029586   | 0.042541   |   2.6 |  0.04
Comm    | 9.3776     | 9.74       | 10.089     |   7.7 | 14.02
Output  | 0.0030576  | 0.0040015  | 0.011751   |   2.9 |  0.01
Modify  | 0.024546   | 0.037619   | 0.052478   |   5.8 |  0.05
Other   |            | 16.27      |            |       | 23.41

Nlocal:             17 ave          21 max          12 min
Histogram: 1 0 3 1 1 5 4 3 1 1
Nghost:         2072.9 ave        2151 max        2016 min
Histogram: 5 1 0 4 2 1 4 1 1 1
Neighs:         4499.5 ave        5661 max        3316 min
Histogram: 2 0 3 3 2 3 2 1 2 2

Total # of neighbors = 89990
Ave neighs/atom = 264.67647
Neighbor list builds = 186
Dangerous builds = 0
System init for write_data ...
PPPM initialization ...
  using 12-bit tables for long-range coulomb
  G vector (1/distance) = 0.29520851
  grid = 15 15 10
  stencil order = 5
  estimated absolute RMS force accuracy = 0.00093146502
  estimated relative force accuracy = 6.4686666e-05
  using double precision KISS FFT
  3d grid and FFT values/proc = 1680 135
Generated 0 of 10 mixed pair_coeff terms from geometric mixing rule
WARNING: Not all mixed pair coeffs generated from mixing. Use write_data with 'pair ij' option to store all pair coeffs. (src/write_data.cpp:364)
--- SIMULATION COMPLETE ---
Total wall time: 0:08:35
--- Simulation finished ---
