C12 H14 O10
1.0
        7.7839999199         0.0000000000         0.0000000000
       -1.8709829262        16.2949391194         0.0000000000
        0.0000000000         0.0000000000        20.7600002289
    C    H    O
   96  112   80
Cartesian
    -1.722716286        15.952745398         0.449454005
     7.635733280         0.342193722         5.639454062
    -1.722716286        15.952745398        10.829454119
     7.635733280         0.342193722        16.019454177
    -0.787224823         7.805275838         0.449454005
     6.700241816         8.489663281         5.639454062
    -0.787224823         7.805275838        10.829454119
     6.700241816         8.489663281        16.019454177
     5.882763425        14.795804720        20.224392223
     0.030253569         1.499134399         4.654392051
     5.882763425        14.795804720         9.844392109
     0.030253569         1.499134399        15.034392166
     6.818254888         6.648335161        20.224392223
    -0.905237894         9.646603959         4.654392051
     6.818254888         6.648335161         9.844392109
    -0.905237894         9.646603959        15.034392166
    -1.431460599        15.178735790        18.841776208
     7.344477593         1.116203330         3.271776036
    -1.431460599        15.178735790         8.461776093
     7.344477593         1.116203330        13.651776151
    -0.495969136         7.031266230        18.841776208
     6.408986130         9.263672889         3.271776036
    -0.495969136         7.031266230         8.461776093
     6.408986130         9.263672889        13.651776151
     7.701447177         0.244424087        18.424500203
    -1.788430183        16.050515033         2.854500031
     7.701447177         0.244424087         8.044500089
    -1.788430183        16.050515033        13.234500146
     6.765955713         8.391893646        18.424500203
    -0.852938720         7.903045473         2.854500031
     6.765955713         8.391893646         8.044500089
    -0.852938720         7.903045473        13.234500146
     0.053640855         1.295447660        19.481184215
     5.859376138        14.999491459         3.911184043
     0.053640855         1.295447660         9.101184100
     5.859376138        14.999491459        14.291184158
    -0.881850608         9.442917220        19.481184215
     6.794867602         6.852021900         3.911184043
    -0.881850608         9.442917220         9.101184100
     6.794867602         6.852021900        14.291184158
     7.119730147         2.599042790        19.171860211
    -1.206713153        13.695896330         3.601860040
     7.119730147         2.599042790         8.791860097
    -1.206713153        13.695896330        13.981860154
     6.184238684        10.746512349        19.171860211
    -0.271221690         5.548426770         3.601860040
     6.184238684        10.746512349         8.791860097
    -0.271221690         5.548426770        13.981860154
     3.723223342         3.707098650         3.158634035
     2.189793652        12.587840470         8.348634092
     3.723223342         3.707098650        13.538634149
     2.189793652        12.587840470        18.728634206
     2.787731879        11.854568209         3.158634035
     3.125285115         4.440370910         8.348634092
     2.787731879        11.854568209        13.538634149
     3.125285115         4.440370910        18.728634206
     3.400100775         2.589265826         2.173572024
     2.512916219        13.705673293         7.363572081
     3.400100775         2.589265826        12.553572138
     2.512916219        13.705673293        17.743572196
     2.464609312        10.736735386         2.173572024
     3.448407682         5.558203734         7.363572081
     2.464609312        10.736735386        12.553572138
     3.448407682         5.558203734        17.743572196
     3.902696555         2.957531450         0.794070009
     2.010320438        13.337407669         5.984070066
     3.902696555         2.957531450        11.174070123
     2.010320438        13.337407669        16.364070180
     2.967205092        11.105001010         0.794070009
     2.945811902         5.189938110         5.984070066
     2.967205092        11.105001010        11.174070123
     2.945811902         5.189938110        16.364070180
     3.259819452         4.285568988         0.389250004
     2.653197542        12.009370131         5.579250062
     3.259819452         4.285568988        10.769250119
     2.653197542        12.009370131        15.959250176
     2.324327989        12.433038548         0.389250004
     3.588689005         3.861900571         5.579250062
     2.324327989        12.433038548        10.769250119
     3.588689005         3.861900571        15.959250176
     3.596151869         5.356146489         1.440744016
     2.316865125        10.938792631         6.630744073
     3.596151869         5.356146489        11.820744130
     2.316865125        10.938792631        17.010744188
     2.660660406        13.503616048         1.440744016
     3.252356588         2.791323071         6.630744073
     2.660660406        13.503616048        11.820744130
     3.252356588         2.791323071        17.010744188
     2.755942421         6.640187691         1.167750013
     3.157074572         9.654751428         6.357750070
     2.755942421         6.640187691        11.547750127
     3.157074572         9.654751428        16.737750185
     1.820450958        14.787657251         1.167750013
     4.092566035         1.507281869         6.357750070
     1.820450958        14.787657251        11.547750127
     4.092566035         1.507281869        16.737750185
    -0.777646898        16.141766692         0.620724007
     6.690663891         0.153172428         5.810724064
    -0.777646898        16.141766692        11.000724121
     6.690663891         0.153172428        16.190724179
     0.157844565         7.994297132         0.620724007
     5.755172428         8.300641987         5.810724064
     0.157844565         7.994297132        11.000724121
     5.755172428         8.300641987        16.190724179
     4.942846297        14.521234996        20.193252223
     0.970170696         1.773704123         4.623252051
     4.942846297        14.521234996         9.813252108
     0.970170696         1.773704123        15.003252165
     5.878337760         6.373765437        20.193252223
     0.034679233         9.921173683         4.623252051
     5.878337760         6.373765437         9.813252108
     0.034679233         9.921173683        15.003252165
    -0.449624619        15.217028897        18.850080208
     6.362641613         1.077910223         3.280080036
    -0.449624619        15.217028897         8.470080093
     6.362641613         1.077910223        13.660080151
     0.485866844         7.069559337        18.850080208
     5.427150150         9.225379782         3.280080036
     0.485866844         7.069559337         8.470080093
     5.427150150         9.225379782        13.660080151
     6.743160881         0.143395464        18.242850201
    -0.830143887        16.151543655         2.672850029
     6.743160881         0.143395464         7.862850087
    -0.830143887        16.151543655        13.052850144
     5.807669418         8.290865024        18.242850201
     0.105347576         8.004074095         2.672850029
     5.807669418         8.290865024         7.862850087
     0.105347576         8.004074095        13.052850144
     1.002695792         1.483654207        19.628580216
     4.910321201        14.811284913         4.058580045
     1.002695792         1.483654207         9.248580102
     4.910321201        14.811284913        14.438580159
     0.067204329         9.631123767        19.628580216
     5.845812664         6.663815353         4.058580045
     0.067204329         9.631123767         9.248580102
     5.845812664         6.663815353        14.438580159
     6.205703209         2.410836243        18.914436209
    -0.292686216        13.884102877         3.344436037
     6.205703209         2.410836243         8.534436094
    -0.292686216        13.884102877        13.724436151
     5.270211746        10.558305802        18.914436209
     0.642805247         5.736633317         3.344436037
     5.270211746        10.558305802         8.534436094
     0.642805247         5.736633317        13.724436151
     7.104968829         3.154700214        19.965930220
    -1.191951835        13.140238906         4.395930048
     7.104968829         3.154700214         9.585930106
    -1.191951835        13.140238906        14.775930163
     6.169477366        11.302169773        19.965930220
    -0.256460372         4.992769346         4.395930048
     6.169477366        11.302169773         9.585930106
    -0.256460372         4.992769346        14.775930163
     4.687713888         3.760871949         3.321600037
     1.225303106        12.534067171         8.511600094
     4.687713888         3.760871949        13.701600151
     1.225303106        12.534067171        18.891600208
     3.752222425        11.908341508         3.321600037
     2.160794569         4.386597611         8.511600094
     3.752222425        11.908341508        13.701600151
     2.160794569         4.386597611        18.891600208
     2.422758683         2.491496191         2.129976023
     3.490258311        13.803442928         7.319976081
     2.422758683         2.491496191        12.509976138
     3.490258311        13.803442928        17.699976195
     1.487267220        10.638965751         2.129976023
     4.425749774         5.655973368         7.319976081
     1.487267220        10.638965751        12.509976138
     4.425749774         5.655973368        17.699976195
     4.876644400         3.057745326         0.823134009
     1.036372594        13.237193794         6.013134066
     4.876644400         3.057745326        11.203134124
     1.036372594        13.237193794        16.393134181
     3.941152937        11.205214885         0.823134009
     1.971864057         5.089724234         6.013134066
     3.941152937        11.205214885        11.203134124
     1.971864057         5.089724234        16.393134181
     2.291133309         4.186984607         0.299982003
     3.621883685        12.107954513         5.489982061
     2.291133309         4.186984607        10.679982118
     3.621883685        12.107954513        15.869982175
     1.355641846        12.334454166         0.299982003
     4.557375148         3.960484953         5.489982061
     1.355641846        12.334454166        10.679982118
     4.557375148         3.960484953        15.869982175
     4.552987277         5.564721709         1.422060016
     1.360029716        10.730217410         6.612060073
     4.552987277         5.564721709        11.802060130
     1.360029716        10.730217410        16.992060187
     3.617495814        13.712191269         1.422060016
     2.295521180         2.582747850         6.612060073
     3.617495814        13.712191269        11.802060130
     2.295521180         2.582747850        16.992060187
     1.866928419         6.390060376         0.879186010
     4.046088575         9.904878744         6.069186067
     1.866928419         6.390060376        11.259186124
     4.046088575         9.904878744        16.449186181
     0.931436956        14.537529935         0.879186010
     4.981580038         1.757409184         6.069186067
     0.931436956        14.537529935        11.259186124
     4.981580038         1.757409184        16.449186181
     2.674619958         7.151848780         1.988808022
     3.238397036         9.143090340         7.178808079
     2.674619958         7.151848780        12.368808136
     3.238397036         9.143090340        17.558808194
     1.739128495        15.299318339         1.988808022
     4.173888499         0.995620780         7.178808079
     1.739128495        15.299318339        12.368808136
     4.173888499         0.995620780        17.558808194
    -1.102414612        13.736633678        20.756886229
     7.015431605         2.558305442         5.186886057
    -1.102414612        13.736633678        10.376886114
     7.015431605         2.558305442        15.566886172
    -0.166923149         5.589164118        20.756886229
     6.079940142        10.705775001         5.186886057
    -0.166923149         5.589164118        10.376886114
     6.079940142        10.705775001        15.566886172
     5.947012268        14.168449564        17.896158197
    -0.033995274         2.126489555         2.326158026
     5.947012268        14.168449564         7.516158083
    -0.033995274         2.126489555        12.706158140
     6.882503731         6.020980005        17.896158197
    -0.969486737        10.273959115         2.326158026
     6.882503731         6.020980005         7.516158083
    -0.969486737        10.273959115        12.706158140
     0.534483728         0.700682382        17.205888190
     5.378533266        15.594256737         1.635888018
     0.534483728         0.700682382         6.825888075
     5.378533266        15.594256737        12.015888132
    -0.401007735         8.848151942        17.205888190
     6.314024729         7.446787178         1.635888018
    -0.401007735         8.848151942         6.825888075
     6.314024729         7.446787178        12.015888132
     7.255482270         0.806599486        20.704986228
    -1.342465276        15.488339633         5.134986057
     7.255482270         0.806599486        10.324986114
    -1.342465276        15.488339633        15.514986171
     6.319990806         8.954069046        20.704986228
    -0.406973813         7.340870073         5.134986057
     6.319990806         8.954069046        10.324986114
    -0.406973813         7.340870073        15.514986171
    -0.003371063         3.283430233        18.123480200
     5.916388057        13.011508887         2.553480028
    -0.003371063         3.283430233         7.743480085
     5.916388057        13.011508887        12.933480143
    -0.938862527        11.430899792        18.123480200
     6.851879520         4.864039327         2.553480028
    -0.938862527        11.430899792         7.743480085
     6.851879520         4.864039327        12.933480143
     3.954660375         1.352479947         2.615760029
     1.958356619        14.942459173         7.805760086
     3.954660375         1.352479947        12.995760143
     1.958356619        14.942459173        18.185760201
     3.019168912         9.499949507         2.615760029
     2.893848082         6.794989613         7.805760086
     3.019168912         9.499949507        12.995760143
     2.893848082         6.794989613        18.185760201
     3.565054450         1.898360407        20.675922228
     2.347962544        14.396578712         5.105922056
     3.565054450         1.898360407        10.295922114
     2.347962544        14.396578712        15.485922171
     2.629562987        10.045829967        20.675922228
     3.283454007         6.249109152         5.105922056
     2.629562987        10.045829967        10.295922114
     3.283454007         6.249109152        15.485922171
     3.834193958         4.774417162        19.923372220
     2.078823036        11.520521957         4.353372048
     3.834193958         4.774417162         9.543372105
     2.078823036        11.520521957        14.733372162
     2.898702494        12.921886722        19.923372220
     3.014314499         3.373052398         4.353372048
     2.898702494        12.921886722         9.543372105
     3.014314499         3.373052398        14.733372162
     3.207396643         4.945514023         2.739282030
     2.705620351        11.349425097         7.929282087
     3.207396643         4.945514023        13.119282145
     2.705620351        11.349425097        18.309282202
     2.271905180        13.092983582         2.739282030
     3.641111814         3.201955537         7.929282087
     2.271905180        13.092983582        13.119282145
     3.641111814         3.201955537        18.309282202
     3.363888759         7.446787178         0.176460002
     2.549128234         8.848151942         5.366460059
     3.363888759         7.446787178        10.556460116
     2.549128234         8.848151942        15.746460174
     2.428397296        15.594256737         0.176460002
     3.484619697         0.700682382         5.366460059
     2.428397296        15.594256737        10.556460116
     3.484619697         0.700682382        15.746460174
