
     Program PWSCF v.7.5 starts on  9Mar2026 at  5:38:38 

     This program is part of the open-source Quantum ESPRESSO suite
     for quantum simulation of materials; please cite
         "P. Giannozzi et al., J. Phys.:Condens. Matter 21 395502 (2009);
         "P. Giannozzi et al., J. Phys.:Condens. Matter 29 465901 (2017);
         "P. Giannozzi et al., J. Chem. Phys. 152 154105 (2020);
          URL http://www.quantum-espresso.org", 
     in publications or presentations arising from this work. More details at
     http://www.quantum-espresso.org/quote

     Parallel version (MPI), running on    80 processors

     MPI processes distributed on     4 nodes
     79958 MiB available memory on the printing compute node when the environment starts
 
     Reading input from NaphthaleneOnGlassSite2Snapshot27.in
Warning: card &CELL ignored
Warning: card &FCP ignored
Warning: card &RISM ignored

     Current dimensions of program PWSCF are:
     Max number of different atomic species (ntypx) = 10
     Max number of k-points (npk) =  40000
     Max angular momentum in pseudopotentials (lmaxx) =  4
     file Na.paw.z_9.ld1.psl.v1.0.0-low.upf: wavefunction(s)  2P renormalized
     file O.pbe-n-kjpaw_psl.0.1.UPF: wavefunction(s)  2P renormalized
     file Al.pbe-n-kjpaw_psl.1.0.0.UPF: wavefunction(s)  3S 3P renormalized
     file C.pbe-n-kjpaw_psl.1.0.0.UPF: wavefunction(s)  2S 2P renormalized
 
     R & G space division:  proc/nbgrp/npool/nimage =      80
     Subspace diagonalization in iterative solution of the eigenvalue problem:
     one sub-group per band group will be used
     custom distributed-memory algorithm (size of sub-group:  8*  8 procs)

 
     Parallelization info
     --------------------
     sticks:   dense  smooth     PW     G-vecs:    dense   smooth      PW
     Min         450     400    100               199276   167008   20874
     Max         451     401    101               199303   167021   20885
     Sum       36073   32057   8021             15943719 13361281 1670237
 
     Using Slab Decomposition
 


     bravais-lattice index     =            0
     lattice parameter (alat)  =      35.4885  a.u.
     unit-cell volume          =  138228.4306 (a.u.)^3
     number of atoms/cell      =          358
     number of atomic types    =            7
     number of electrons       =      1872.00
     number of Kohn-Sham states=         1123
     kinetic-energy cutoff     =      80.0000  Ry
     charge density cutoff     =     360.0000  Ry
     scf convergence threshold =      1.0E-08
     mixing beta               =       0.1000
     number of iterations used =            8  plain     mixing
     Exchange-correlation= PBE
                           (   1   4   3   4   0   0   0)

     celldm(1)=  35.488539  celldm(2)=   0.000000  celldm(3)=   0.000000
     celldm(4)=   0.000000  celldm(5)=   0.000000  celldm(6)=   0.000000

     crystal axes: (cart. coord. in units of alat)
               a(1) = (   1.000000   0.000000   0.000000 )  
               a(2) = (   0.000000   1.000000   0.000000 )  
               a(3) = (   0.000000   0.000000   3.092666 )  

     reciprocal axes: (cart. coord. in units 2 pi/alat)
               b(1) = (  1.000000  0.000000  0.000000 )  
               b(2) = (  0.000000  1.000000  0.000000 )  
               b(3) = (  0.000000  0.000000  0.323346 )  


     PseudoPot. # 1 for Na read from file:
     /home/sabeel/VOCC_Simulation/pseudopotentials/SSSP_Precision/Na.paw.z_9.ld1.psl.v1.0.0-low.upf
     MD5 check sum: 32bccecb13d7399e6c7dae6fe6685ff0
     Pseudo is Projector augmented-wave + core cor, Zval =  9.0
     Generated using &quot;atomic&quot; code by A. Dal Corso  v.6.3MaX
     Shape of augmentation charge: PSQ
     Using radial grid of 1121 points,  4 beta functions with: 
                l(1) =   0
                l(2) =   0
                l(3) =   1
                l(4) =   1
     Q(r) pseudized with 0 coefficients 


     PseudoPot. # 2 for B  read from file:
     /home/sabeel/VOCC_Simulation/pseudopotentials/SSSP_Precision/B_pbe_v1.01.uspp.F.UPF
     MD5 check sum: d081ebb89d0c768e112975f650467a00
     Pseudo is Ultrasoft + core correction, Zval =  3.0
     Generated by new atomic code, or converted to UPF format
     Using radial grid of  781 points,  4 beta functions with: 
                l(1) =   0
                l(2) =   0
                l(3) =   1
                l(4) =   1
     Q(r) pseudized with  8 coefficients,  rinner =    1.100   1.100   1.100


     PseudoPot. # 3 for Si read from file:
     /home/sabeel/VOCC_Simulation/pseudopotentials/SSSP_Precision/Si.pbe-n-rrkjus_psl.1.0.0.UPF
     MD5 check sum: 0b0bb1205258b0d07b9f9672cf965d36
     Pseudo is Ultrasoft + core correction, Zval =  4.0
     Generated using "atomic" code by A. Dal Corso  v.5.1
     Using radial grid of 1141 points,  6 beta functions with: 
                l(1) =   0
                l(2) =   0
                l(3) =   1
                l(4) =   1
                l(5) =   2
                l(6) =   2
     Q(r) pseudized with 0 coefficients 


     PseudoPot. # 4 for O  read from file:
     /home/sabeel/VOCC_Simulation/pseudopotentials/SSSP_Precision/O.pbe-n-kjpaw_psl.0.1.UPF
     MD5 check sum: 0234752ac141de4415c5fc33072bef88
     Pseudo is Projector augmented-wave + core cor, Zval =  6.0
     Generated using "atomic" code by A. Dal Corso  v.5.0.99 svn rev. 10869
     Shape of augmentation charge: BESSEL
     Using radial grid of 1095 points,  4 beta functions with: 
                l(1) =   0
                l(2) =   0
                l(3) =   1
                l(4) =   1
     Q(r) pseudized with 0 coefficients 


     PseudoPot. # 5 for Al read from file:
     /home/sabeel/VOCC_Simulation/pseudopotentials/SSSP_Precision/Al.pbe-n-kjpaw_psl.1.0.0.UPF
     MD5 check sum: cfc449ca30b5f3223ec38ddd88ac046d
     Pseudo is Projector augmented-wave + core cor, Zval =  3.0
     Generated using "atomic" code by A. Dal Corso  v.5.1
     Shape of augmentation charge: PSQ
     Using radial grid of 1135 points,  6 beta functions with: 
                l(1) =   0
                l(2) =   0
                l(3) =   1
                l(4) =   1
                l(5) =   2
                l(6) =   2
     Q(r) pseudized with 0 coefficients 


     PseudoPot. # 6 for C  read from file:
     /home/sabeel/VOCC_Simulation/pseudopotentials/SSSP_Precision/C.pbe-n-kjpaw_psl.1.0.0.UPF
     MD5 check sum: 5d2aebdfa2cae82b50a7e79e9516da0f
     Pseudo is Projector augmented-wave + core cor, Zval =  4.0
     Generated using "atomic" code by A. Dal Corso  v.5.1
     Shape of augmentation charge: PSQ
     Using radial grid of 1073 points,  4 beta functions with: 
                l(1) =   0
                l(2) =   0
                l(3) =   1
                l(4) =   1
     Q(r) pseudized with 0 coefficients 


     PseudoPot. # 7 for H  read from file:
     /home/sabeel/VOCC_Simulation/pseudopotentials/SSSP_Precision/H_ONCV_PBE-1.0.oncvpsp.upf
     MD5 check sum: 1790becc920ee074925cf490c71280fe
     Pseudo is Norm-conserving, Zval =  1.0
     Generated using ONCVPSP code by D. R. Hamann
     Using radial grid of 1166 points,  2 beta functions with: 
                l(1) =   0
                l(2) =   0

     atomic species   valence    mass     pseudopotential
     Na                9.00    22.98977     Na( 1.00)
     B                 3.00    10.81000     B ( 1.00)
     Si                4.00    28.08500     Si( 1.00)
     O                 6.00    15.99900     O ( 1.00)
     Al                3.00    26.98154     Al( 1.00)
     C                 4.00    12.01100     C ( 1.00)
     H                 1.00     1.00800     H ( 1.00)

     No symmetry found



   Cartesian axes

     site n.     atom                  positions (alat units)
         1        Na     tau(   1) = (   0.2476327   0.1287261   1.4401902  )
         2        Na     tau(   2) = (   0.2347070   0.3964799   1.8357059  )
         3        Na     tau(   3) = (   0.2580766   0.4457236   1.6551511  )
         4        Na     tau(   4) = (   0.0484944   0.0277893   1.6277847  )
         5        Na     tau(   5) = (   0.2352313   0.0813062   1.2863150  )
         6        Na     tau(   6) = (   0.0747243   0.2371463   1.1982473  )
         7        Na     tau(   7) = (   0.1133306   0.7698962   1.8611434  )
         8        Na     tau(   8) = (   0.9037110   0.1954209   1.2700780  )
         9        Na     tau(   9) = (   0.5181841   0.1014052   1.4940734  )
        10        Na     tau(  10) = (   0.3803624   0.0140251   1.8302637  )
        11        Na     tau(  11) = (   0.3545179   0.4989222   1.3772145  )
        12        B      tau(  12) = (   0.9565860   0.6559989   1.4661680  )
        13        B      tau(  13) = (   0.3779039   0.3190213   1.8506233  )
        14        B      tau(  14) = (   0.6357433   0.7757670   1.3375748  )
        15        B      tau(  15) = (   0.9958362   0.0827877   1.8476266  )
        16        B      tau(  16) = (   0.6987179   0.5586979   1.3943070  )
        17        B      tau(  17) = (   0.0903279   0.5997535   1.2200041  )
        18        B      tau(  18) = (   0.9460845   0.5017876   1.4754679  )
        19        B      tau(  19) = (   0.0032347   0.0527127   1.2839437  )
        20        B      tau(  20) = (   0.1241012   0.5940167   1.6016841  )
        21        B      tau(  21) = (   0.4174729   0.9198072   1.5541475  )
        22        B      tau(  22) = (   0.4638227   0.9107282   1.2322731  )
        23        B      tau(  23) = (   0.5096053   0.7092947   1.5000083  )
        24        B      tau(  24) = (   0.4035376   0.9367665   1.6900270  )
        25        B      tau(  25) = (   0.7132674   0.8560217   1.2558196  )
        26        B      tau(  26) = (   0.2579773   0.4217781   1.2874388  )
        27        B      tau(  27) = (   0.1862793   0.2338812   1.3576537  )
        28        B      tau(  28) = (   0.2134919   0.3664862   1.5073156  )
        29        B      tau(  29) = (   0.3546252   0.0462610   1.5293894  )
        30        B      tau(  30) = (   0.8082206   0.9504483   1.6218439  )
        31        B      tau(  31) = (   0.4915043   0.5408159   1.2913026  )
        32        B      tau(  32) = (   0.2471486   0.9450605   1.4099193  )
        33        B      tau(  33) = (   0.7089246   0.1566090   1.6669558  )
        34        B      tau(  34) = (   0.4858908   0.1745693   1.3498737  )
        35        Si     tau(  35) = (   0.5740761   0.3686341   1.4981594  )
        36        Si     tau(  36) = (   0.9600416   0.6521543   1.2713743  )
        37        Si     tau(  37) = (   0.8029666   0.9237355   1.4090604  )
        38        Si     tau(  38) = (   0.6589027   0.0111466   1.4303706  )
        39        Si     tau(  39) = (   0.7148031   0.8518694   1.6658713  )
        40        Si     tau(  40) = (   0.4062844   0.4370669   1.7000479  )
        41        Si     tau(  41) = (   0.8652299   0.0194200   1.2866760  )
        42        Si     tau(  42) = (   0.8792462   0.4724358   1.3313926  )
        43        Si     tau(  43) = (   0.9761010   0.8191325   1.3004490  )
        44        Si     tau(  44) = (   0.0927580   0.6000365   1.4532062  )
        45        Si     tau(  45) = (   0.8492038   0.6801733   1.8429896  )
        46        Si     tau(  46) = (   0.7648638   0.9759642   1.8781504  )
        47        Si     tau(  47) = (   0.8282769   0.9005504   1.7531841  )
        48        Si     tau(  48) = (   0.2400871   0.2615564   1.6009290  )
        49        Si     tau(  49) = (   0.0782160   0.8578516   1.7113893  )
        50        Si     tau(  50) = (   0.1793983   0.5421597   1.3229395  )
        51        Si     tau(  51) = (   0.3045589   0.3154693   1.3856788  )
        52        Si     tau(  52) = (   0.1868342   0.9496617   1.8144358  )
        53        Si     tau(  53) = (   0.5597482   0.9942014   1.8563540  )
        54        Si     tau(  54) = (   0.3283405   0.8654915   1.7979255  )
        55        Si     tau(  55) = (   0.3944303   0.1342286   1.2558232  )
        56        Si     tau(  56) = (   0.5556116   0.4029995   1.7688172  )
        57        Si     tau(  57) = (   0.8886951   0.0519111   1.5515978  )
        58        Si     tau(  58) = (   0.9177874   0.8266438   1.8602018  )
        59        Si     tau(  59) = (   0.5141592   0.7513592   1.7304853  )
        60        Si     tau(  60) = (   0.6200680   0.7296116   1.5975635  )
        61        Si     tau(  61) = (   0.4531771   0.2653855   1.4551164  )
        62        Si     tau(  62) = (   0.9530092   0.1910999   1.6203079  )
        63        Si     tau(  63) = (   0.9806318   0.2594417   1.4695044  )
        64        Si     tau(  64) = (   0.1810221   0.5658568   1.7318917  )
        65        Si     tau(  65) = (   0.2276537   0.6624309   1.2309086  )
        66        Si     tau(  66) = (   0.7086066   0.3068958   1.4624957  )
        67        Si     tau(  67) = (   0.7573617   0.5008676   1.2102682  )
        68        Si     tau(  68) = (   0.0630774   0.5052222   1.8068999  )
        69        Si     tau(  69) = (   0.9531780   0.4208941   1.7332624  )
        70        Si     tau(  70) = (   0.8429520   0.6341042   1.3864806  )
        71        Si     tau(  71) = (   0.8255070   0.2513717   1.7092992  )
        72        Si     tau(  72) = (   0.4660404   0.3166643   1.5999861  )
        73        Si     tau(  73) = (   0.3218087   0.1696541   1.7095271  )
        74        Si     tau(  74) = (   0.6054871   0.0864265   1.2929813  )
        75        Si     tau(  75) = (   0.4402609   0.0821865   1.6559030  )
        76        Si     tau(  76) = (   0.3770531   0.0317907   1.3941734  )
        77        Si     tau(  77) = (   0.5059912   0.8072476   1.3243503  )
        78        Si     tau(  78) = (   0.6069382   0.5044701   1.6609957  )
        79        Si     tau(  79) = (   0.6370349   0.4244534   1.3741369  )
        80        Si     tau(  80) = (   0.6855674   0.7078304   1.8645318  )
        81        Si     tau(  81) = (   0.0765130   0.9298841   1.2314627  )
        82        Si     tau(  82) = (   0.9863684   0.4054382   1.2235204  )
        83        Si     tau(  83) = (   0.4950631   0.2585395   1.7548401  )
        84        Si     tau(  84) = (   0.5719431   0.1160579   1.7357262  )
        85        Si     tau(  85) = (   0.3566442   0.7389475   1.7027041  )
        86        Si     tau(  86) = (   0.5887626   0.6478135   1.7482870  )
        87        Si     tau(  87) = (   0.3778403   0.4701707   1.1981005  )
        88        Si     tau(  88) = (   0.7705746   0.7745811   1.3546535  )
        89        Si     tau(  89) = (   0.6353056   0.3899359   1.2194797  )
        90        Si     tau(  90) = (   0.3199297   0.6027545   1.8036004  )
        91        Si     tau(  91) = (   0.6901246   0.5787282   1.5496775  )
        92        Si     tau(  92) = (   0.1108815   0.9857043   1.4484254  )
        93        Si     tau(  93) = (   0.0087222   0.8101075   1.4596435  )
        94        Si     tau(  94) = (   0.4662737   0.5842118   1.4387730  )
        95        Si     tau(  95) = (   0.1497603   0.1150345   1.8191784  )
        96        Si     tau(  96) = (   0.9119816   0.9073773   1.5284091  )
        97        Si     tau(  97) = (   0.5081777   0.9347421   1.4393654  )
        98        Si     tau(  98) = (   0.9733658   0.9480751   1.7929925  )
        99        Si     tau(  99) = (   0.2449909   0.7736475   1.5958723  )
       100        Si     tau( 100) = (   0.2568298   0.7840856   1.3334763  )
       101        Si     tau( 101) = (   0.1600543   0.7576293   1.4557816  )
       102        Si     tau( 102) = (   0.9190690   0.2974838   1.8287833  )
       103        Si     tau( 103) = (   0.8499270   0.3745654   1.6104514  )
       104        Si     tau( 104) = (   0.8444491   0.5369054   1.7673517  )
       105        Si     tau( 105) = (   0.1203187   0.1732756   1.6597012  )
       106        Si     tau( 106) = (   0.6321686   0.6005607   1.2681838  )
       107        Si     tau( 107) = (   0.6235724   0.8470731   1.8048529  )
       108        Si     tau( 108) = (   0.7501132   0.1202716   1.2309056  )
       109        Si     tau( 109) = (   0.2746484   0.2046900   1.8670863  )
       110        Si     tau( 110) = (   0.2273259   0.0646953   1.6216725  )
       111        Si     tau( 111) = (   0.0729274   0.4042159   1.4579120  )
       112        Si     tau( 112) = (   0.6640697   0.1601480   1.5162335  )
       113        Si     tau( 113) = (   0.1226817   0.7031938   1.6887692  )
       114        Si     tau( 114) = (   0.8406300   0.5276586   1.5875131  )
       115        Si     tau( 115) = (   0.8389500   0.3149315   1.3901795  )
       116        Si     tau( 116) = (   0.1722727   0.9211130   1.5953570  )
       117        Si     tau( 117) = (   0.0763504   0.1375521   1.3930086  )
       118        Si     tau( 118) = (   0.3256209   0.9115638   1.2548481  )
       119        Si     tau( 119) = (   0.3955849   0.7224945   1.4035300  )
       120        Si     tau( 120) = (   0.4652418   0.5499611   1.5942954  )
       121        Si     tau( 121) = (   0.1212618   0.3651412   1.3045003  )
       122        O      tau( 122) = (   0.0295168   0.4481121   1.8630498  )
       123        O      tau( 123) = (   0.8632305   0.7660730   1.8351295  )
       124        O      tau( 124) = (   0.7865379   0.5198677   1.8292109  )
       125        O      tau( 125) = (   0.7687039   0.8065522   1.2712216  )
       126        O      tau( 126) = (   0.2613316   0.2462125   1.3627201  )
       127        O      tau( 127) = (   0.4383841   0.2721051   1.5384261  )
       128        O      tau( 128) = (   0.4075804   0.9041606   1.6244717  )
       129        O      tau( 129) = (   0.2891632   0.9821156   1.2266374  )
       130        O      tau( 130) = (   0.3003666   0.1796727   1.7902854  )
       131        O      tau( 131) = (   0.5973279   0.4225163   1.2949590  )
       132        O      tau( 132) = (   0.5334428   0.5020140   1.6146071  )
       133        O      tau( 133) = (   0.2755656   0.1058719   1.6786020  )
       134        O      tau( 134) = (   0.1545595   0.1075181   1.6150265  )
       135        O      tau( 135) = (   0.1198242   0.5723265   1.5291309  )
       136        O      tau( 136) = (   0.5826608   0.7211316   1.6806210  )
       137        O      tau( 137) = (   0.4384820   0.7620469   1.6969890  )
       138        O      tau( 138) = (   0.3813441   0.2977472   1.4178316  )
       139        O      tau( 139) = (   0.9518571   0.2429557   1.5505285  )
       140        O      tau( 140) = (   0.6668767   0.5177678   1.6031137  )
       141        O      tau( 141) = (   0.1520770   0.1695411   1.3620472  )
       142        O      tau( 142) = (   0.6925009   0.7509516   1.3753791  )
       143        O      tau( 143) = (   0.1434568   0.6580895   1.2139172  )
       144        O      tau( 144) = (   0.4761486   0.9028411   1.5138988  )
       145        O      tau( 145) = (   0.0631356   0.5782061   1.8492954  )
       146        O      tau( 146) = (   0.5876332   0.4146284   1.8503125  )
       147        O      tau( 147) = (   0.1071621   0.8902567   1.6361869  )
       148        O      tau( 148) = (   0.0331486   0.1967754   1.4407710  )
       149        O      tau( 149) = (   0.9443941   0.9810288   1.5588672  )
       150        O      tau( 150) = (   0.5485694   0.5774714   1.2625723  )
       151        O      tau( 151) = (   0.6090489   0.9225244   1.8421140  )
       152        O      tau( 152) = (   0.3184350   0.7927686   1.7545505  )
       153        O      tau( 153) = (   0.2965868   0.2359092   1.6579206  )
       154        O      tau( 154) = (   0.3399948   0.4149078   1.7451441  )
       155        O      tau( 155) = (   0.6583099   0.3076783   1.2358723  )
       156        O      tau( 156) = (   0.5620926   0.7442927   1.5385442  )
       157        O      tau( 157) = (   0.5556976   0.3175372   1.7688381  )
       158        O      tau( 158) = (   0.3525972   0.6632019   1.7471104  )
       159        O      tau( 159) = (   0.9620412   0.3446718   1.7697440  )
       160        O      tau( 160) = (   0.5313272   0.1848172   1.7709556  )
       161        O      tau( 161) = (   0.9429693   0.0183272   1.3239474  )
       162        O      tau( 162) = (   0.4858005   0.9533180   1.8755890  )
       163        O      tau( 163) = (   0.3657073   0.5328581   1.8345358  )
       164        O      tau( 164) = (   0.4406081   0.5066782   1.2484323  )
       165        O      tau( 165) = (   0.3135028   0.2834622   1.8690668  )
       166        O      tau( 166) = (   0.7907911   0.8360261   1.7119523  )
       167        O      tau( 167) = (   0.7289290   0.9234833   1.2340123  )
       168        O      tau( 168) = (   0.1454692   0.2885690   1.3267456  )
       169        O      tau( 169) = (   0.3914991   0.9066251   1.7575926  )
       170        O      tau( 170) = (   0.7079875   0.2222935   1.4707635  )
       171        O      tau( 171) = (   0.9743698   0.8515159   1.5269402  )
       172        O      tau( 172) = (   0.1330105   0.5361140   1.2470617  )
       173        O      tau( 173) = (   0.5827735   0.0420994   1.2254729  )
       174        O      tau( 174) = (   0.8602910   0.6220068   1.7811976  )
       175        O      tau( 175) = (   0.5252483   0.6418342   1.4684534  )
       176        O      tau( 176) = (   0.6556139   0.6691234   1.7930720  )
       177        O      tau( 177) = (   0.9478947   0.4555202   1.2814895  )
       178        O      tau( 178) = (   0.9699578   0.0766966   1.2188133  )
       179        O      tau( 179) = (   0.5480526   0.8088247   1.7836236  )
       180        O      tau( 180) = (   0.3152477   0.7447790   1.3880620  )
       181        O      tau( 181) = (   0.1477991   0.6460434   1.7450578  )
       182        O      tau( 182) = (   0.4226375   0.0083615   1.6949577  )
       183        O      tau( 183) = (   0.5004654   0.8461638   1.2447985  )
       184        O      tau( 184) = (   0.7864920   0.8423242   1.4036977  )
       185        O      tau( 185) = (   0.9046070   0.6136339   1.3286598  )
       186        O      tau( 186) = (   0.1308852   0.5564651   1.3912596  )
       187        O      tau( 187) = (   0.0181193   0.9388870   1.8632981  )
       188        O      tau( 188) = (   0.5236768   0.3172741   1.4469420  )
       189        O      tau( 189) = (   0.6771903   0.1363695   1.2729556  )
       190        O      tau( 190) = (   0.5668565   0.7520726   1.3411952  )
       191        O      tau( 191) = (   0.4390184   0.1054952   1.8920128  )
       192        O      tau( 192) = (   0.2801127   0.0556319   1.5537880  )
       193        O      tau( 193) = (   0.9517833   0.2240015   1.8530263  )
       194        O      tau( 194) = (   0.4078786   0.5134087   1.6517908  )
       195        O      tau( 195) = (   0.6735166   0.7941076   1.8547702  )
       196        O      tau( 196) = (   0.7896414   0.2674110   1.3392843  )
       197        O      tau( 197) = (   0.9136500   0.5214282   1.5392122  )
       198        O      tau( 198) = (   0.5881526   0.4350093   1.4460280  )
       199        O      tau( 199) = (   0.7745755   0.5842257   1.3844862  )
       200        O      tau( 200) = (   0.2034896   0.9862494   1.6415920  )
       201        O      tau( 201) = (   0.1233221   0.6813655   1.4530684  )
       202        O      tau( 202) = (   0.7937827   0.3272627   1.4639956  )
       203        O      tau( 203) = (   0.4473563   0.5396589   1.5104804  )
       204        O      tau( 204) = (   0.6542799   0.3403998   1.5182787  )
       205        O      tau( 205) = (   0.8234572   0.7113307   1.3622509  )
       206        O      tau( 206) = (   0.8127487   0.4431771   1.5824090  )
       207        O      tau( 207) = (   0.5134106   0.6764784   1.7758121  )
       208        O      tau( 208) = (   0.1836556   0.7783442   1.3761575  )
       209        O      tau( 209) = (   0.8104766   0.3105590   1.6473803  )
       210        O      tau( 210) = (   0.3044033   0.9850075   1.3843284  )
       211        O      tau( 211) = (   0.1301504   0.8965179   1.7717389  )
       212        O      tau( 212) = (   0.3197141   0.1653364   1.2298596  )
       213        O      tau( 213) = (   0.4699233   0.1934200   1.4196372  )
       214        O      tau( 214) = (   0.2809558   0.8612246   1.3097159  )
       215        O      tau( 215) = (   0.4264163   0.2824703   1.8051299  )
       216        O      tau( 216) = (   0.6599679   0.6539216   1.5790006  )
       217        O      tau( 217) = (   0.7349642   0.9291111   1.6364595  )
       218        O      tau( 218) = (   0.0099961   0.4612132   1.4800917  )
       219        O      tau( 219) = (   0.5892025   0.1978638   1.5290320  )
       220        O      tau( 220) = (   0.0485841   0.8646896   1.2765110  )
       221        O      tau( 221) = (   0.9732948   0.8322736   1.3845405  )
       222        O      tau( 222) = (   0.4005127   0.1467648   1.7001924  )
       223        O      tau( 223) = (   0.8561165   0.3880932   1.3551362  )
       224        O      tau( 224) = (   0.1908703   0.7320545   1.6493092  )
       225        O      tau( 225) = (   0.5316561   0.3624401   1.5720686  )
       226        O      tau( 226) = (   0.6407674   0.0341441   1.3503554  )
       227        O      tau( 227) = (   0.2507360   0.3493753   1.4464087  )
       228        O      tau( 228) = (   0.5138994   0.8709061   1.3834646  )
       229        O      tau( 229) = (   0.9079300   0.5013233   1.4088368  )
       230        O      tau( 230) = (   0.4395504   0.1937154   1.2966161  )
       231        O      tau( 231) = (   0.2308999   0.6103161   1.2990312  )
       232        O      tau( 232) = (   0.3685013   0.9700313   1.5258447  )
       233        O      tau( 233) = (   0.8514985   0.9494698   1.6877232  )
       234        O      tau( 234) = (   0.0187499   0.4824011   1.7364241  )
       235        O      tau( 235) = (   0.2414021   0.3421124   1.5740169  )
       236        O      tau( 236) = (   0.6097970   0.4413714   1.7163163  )
       237        O      tau( 237) = (   0.4788214   0.4352721   1.7472383  )
       238        O      tau( 238) = (   0.1395403   0.9630524   1.5257738  )
       239        O      tau( 239) = (   0.3787358   0.0784353   1.3203646  )
       240        O      tau( 240) = (   0.5839692   0.9685892   1.4551464  )
       241        O      tau( 241) = (   0.9110607   0.6557788   1.2003494  )
       242        O      tau( 242) = (   0.0686474   0.1043740   1.8437037  )
       243        O      tau( 243) = (   0.1460976   0.3999842   1.5060950  )
       244        O      tau( 244) = (   0.4166165   0.3782170   1.6358330  )
       245        O      tau( 245) = (   0.0075933   0.9084354   1.7265037  )
       246        O      tau( 246) = (   0.8482460   0.9888286   1.2074661  )
       247        O      tau( 247) = (   0.6787187   0.3475581   1.3906861  )
       248        O      tau( 248) = (   0.2793975   0.6318760   1.8700688  )
       249        O      tau( 249) = (   0.1753735   0.9662414   1.3957977  )
       250        O      tau( 250) = (   0.0079684   0.6039592   1.4520956  )
       251        O      tau( 251) = (   0.6799702   0.7916690   1.6137563  )
       252        O      tau( 252) = (   0.8228944   0.4963375   1.2716413  )
       253        O      tau( 253) = (   0.1652982   0.5553089   1.6491463  )
       254        O      tau( 254) = (   0.6527640   0.8346788   1.2935381  )
       255        O      tau( 255) = (   0.0358116   0.1810737   1.6422342  )
       256        O      tau( 256) = (   0.5638762   0.0484964   1.7892635  )
       257        O      tau( 257) = (   0.7314789   0.9670683   1.4359075  )
       258        O      tau( 258) = (   0.2559548   0.8899428   1.4535926  )
       259        O      tau( 259) = (   0.7774448   0.5773609   1.5598674  )
       260        O      tau( 260) = (   0.0868638   0.6515873   1.6288983  )
       261        O      tau( 261) = (   0.2614827   0.9212168   1.7891965  )
       262        O      tau( 262) = (   0.1954831   0.1735609   1.8664394  )
       263        O      tau( 263) = (   0.9906684   0.7948073   1.8435173  )
       264        O      tau( 264) = (   0.4575167   0.9955248   1.4051103  )
       265        O      tau( 265) = (   0.7735858   0.2011661   1.2118609  )
       266        O      tau( 266) = (   0.8814090   0.9281431   1.4499689  )
       267        O      tau( 267) = (   0.4072071   0.9256292   1.2771435  )
       268        O      tau( 268) = (   0.8399764   0.8937974   1.5751596  )
       269        O      tau( 269) = (   0.9802476   0.7272430   1.4739436  )
       270        O      tau( 270) = (   0.4029974   0.6353892   1.4077172  )
       271        O      tau( 271) = (   0.5236271   0.0940762   1.6637713  )
       272        O      tau( 272) = (   0.2291142   0.8566340   1.6031926  )
       273        O      tau( 273) = (   0.1369597   0.1529802   1.7410824  )
       274        O      tau( 274) = (   0.8956842   0.4684356   1.7728116  )
       275        O      tau( 275) = (   0.0304714   0.3296381   1.4668483  )
       276        O      tau( 276) = (   0.9261533   0.1126670   1.5937994  )
       277        O      tau( 277) = (   0.3196110   0.7473434   1.6269653  )
       278        O      tau( 278) = (   0.2346612   0.4755155   1.3381933  )
       279        O      tau( 279) = (   0.0309321   0.9618656   1.4299785  )
       280        O      tau( 280) = (   0.1026240   0.4047238   1.3770124  )
       281        O      tau( 281) = (   0.0996948   0.0720356   1.4419196  )
       282        O      tau( 282) = (   0.9796419   0.7336502   1.2951357  )
       283        O      tau( 283) = (   0.4798587   0.2721799   1.6719849  )
       284        O      tau( 284) = (   0.1447462   0.5042309   1.7791641  )
       285        O      tau( 285) = (   0.6584207   0.0850578   1.4744274  )
       286        O      tau( 286) = (   0.8447302   0.2856675   1.7867899  )
       287        O      tau( 287) = (   0.9236456   0.3532967   1.8933803  )
       288        O      tau( 288) = (   0.7131244   0.4260542   1.2089447  )
       289        O      tau( 289) = (   0.1815374   0.0351118   1.8104616  )
       290        O      tau( 290) = (   0.0329975   0.6097415   1.2681351  )
       291        O      tau( 291) = (   0.8998275   0.8951096   1.8045433  )
       292        O      tau( 292) = (   0.3016404   0.4593341   1.2337882  )
       293        O      tau( 293) = (   0.2631331   0.5633327   1.7490475  )
       294        O      tau( 294) = (   0.7023044   0.1539457   1.5910141  )
       295        O      tau( 295) = (   0.5450848   0.1349270   1.3303906  )
       296        O      tau( 296) = (   0.1632620   0.2443342   1.6379519  )
       297        O      tau( 297) = (   0.1916640   0.3894955   1.2601897  )
       298        O      tau( 298) = (   0.0615898   0.0043928   1.2718305  )
       299        O      tau( 299) = (   0.3967139   0.3875856   1.8762703  )
       300        O      tau( 300) = (   0.4846187   0.5410669   1.3666698  )
       301        O      tau( 301) = (   0.8186424   0.0168112   1.5820830  )
       302        O      tau( 302) = (   0.5974300   0.5762403   1.7036424  )
       303        O      tau( 303) = (   0.4323575   0.7667648   1.3386386  )
       304        O      tau( 304) = (   0.7719883   0.9374236   1.8028857  )
       305        O      tau( 305) = (   0.7672182   0.1900179   1.6976508  )
       306        O      tau( 306) = (   0.8994379   0.0650389   1.4672678  )
       307        O      tau( 307) = (   0.4462121   0.7426137   1.4731770  )
       308        O      tau( 308) = (   0.9211726   0.3961581   1.6533343  )
       309        O      tau( 309) = (   0.2420202   0.2200105   1.5251544  )
       310        O      tau( 310) = (   0.8842963   0.6436934   1.4589679  )
       311        O      tau( 311) = (   0.6482991   0.6785877   1.2330670  )
       312        O      tau( 312) = (   0.4832983   0.6325017   1.6039613  )
       313        O      tau( 313) = (   0.7361349   0.0571749   1.8732737  )
       314        O      tau( 314) = (   0.6649925   0.8590630   1.7336776  )
       315        O      tau( 315) = (   0.9130296   0.2721061   1.4159943  )
       316        O      tau( 316) = (   0.6511009   0.5989696   1.3506902  )
       317        O      tau( 317) = (   0.8131240   0.0898692   1.2825970  )
       318        O      tau( 318) = (   0.6524595   0.1336951   1.7108949  )
       319        O      tau( 319) = (   0.6784211   0.5695802   1.4690337  )
       320        O      tau( 320) = (   0.9018920   0.2183548   1.6834522  )
       321        O      tau( 321) = (   0.9678130   0.0358255   1.7940055  )
       322        O      tau( 322) = (   0.8368182   0.5391156   1.6776043  )
       323        O      tau( 323) = (   0.7668768   0.6856661   1.8697035  )
       324        O      tau( 324) = (   0.1531671   0.9301796   1.8945654  )
       325        O      tau( 325) = (   0.2178402   0.7542098   1.5177838  )
       326        O      tau( 326) = (   0.3614324   0.0782581   1.4600024  )
       327        O      tau( 327) = (   0.4053368   0.0766386   1.5793453  )
       328        O      tau( 328) = (   0.3320739   0.8564650   1.8828345  )
       329        O      tau( 329) = (   0.0914304   0.8126101   1.4681485  )
       330        O      tau( 330) = (   0.2416337   0.7445048   1.2588964  )
       331        O      tau( 331) = (   0.8232583   0.9617889   1.3373563  )
       332        O      tau( 332) = (   0.0224173   0.1103921   1.3331986  )
       333        O      tau( 333) = (   0.0827261   0.7743688   1.7158336  )
       334        O      tau( 334) = (   0.3058372   0.3697607   1.3216954  )
       335        O      tau( 335) = (   0.6940744   0.4843818   1.3763524  )
       336        O      tau( 336) = (   0.0505520   0.3569640   1.2588409  )
       337        O      tau( 337) = (   0.6956442   0.5556100   1.2255199  )
       338        O      tau( 338) = (   0.9205918   0.8444316   1.2442634  )
       339        Al     tau( 339) = (   0.9474166   0.9984982   1.4171699  )
       340        Al     tau( 340) = (   0.7317137   0.2651324   1.2660316  )
       341        C      tau( 341) = (   0.5214378   0.4015461   0.3954221  )
       342        C      tau( 342) = (   0.4479569   0.3909766   0.3824743  )
       343        C      tau( 343) = (   0.5653175   0.3422400   0.4076597  )
       344        C      tau( 344) = (   0.4205128   0.3214128   0.3821601  )
       345        C      tau( 345) = (   0.5488767   0.4711092   0.3957354  )
       346        C      tau( 346) = (   0.4040833   0.4502831   0.3702324  )
       347        C      tau( 347) = (   0.5371518   0.2734980   0.4071439  )
       348        C      tau( 348) = (   0.4648892   0.2631047   0.3944214  )
       349        C      tau( 349) = (   0.5045065   0.5294176   0.3834698  )
       350        C      tau( 350) = (   0.4322510   0.5190244   0.3707377  )
       351        H      tau( 351) = (   0.6219558   0.3491057   0.4177183  )
       352        H      tau( 352) = (   0.3641909   0.3120316   0.3723280  )
       353        H      tau( 353) = (   0.6051969   0.4804959   0.4055722  )
       354        H      tau( 354) = (   0.3474366   0.4434151   0.3601615  )
       355        H      tau( 355) = (   0.5716658   0.2280845   0.4166889  )
       356        H      tau( 356) = (   0.4429953   0.2095720   0.3940260  )
       357        H      tau( 357) = (   0.5264020   0.5829447   0.3838604  )
       358        H      tau( 358) = (   0.3977363   0.5644431   0.3611923  )

     number of k points=     1  Gaussian smearing, width (Ry)=  0.0100
                       cart. coord. in units 2pi/alat
        k(    1) = (   0.0000000   0.0000000   0.0000000), wk =   2.0000000

     Dense  grid: 15943719 G-vectors     FFT dimensions: ( 216, 216, 675)

     Smooth grid: 13361281 G-vectors     FFT dimensions: ( 216, 216, 625)

     Estimated max dynamical RAM per process >       4.14 GB

     Estimated total dynamical RAM >     331.13 GB

     Check: negative core charge=   -0.000001

     Initial potential from superposition of free atoms

     starting charge    1871.8703, renormalised to    1872.0000

     negative rho (up, down):  4.194E-02 0.000E+00
     Starting wfcs are 1419 randomized atomic wfcs
     Checking if some PAW data can be deallocated... 

     total cpu time spent up to now is      149.6 secs

     per-process dynamical memory:  1754.0 Mb

     Self-consistent Calculation

     iteration #  1     ecut=    80.00 Ry     beta= 0.10
     Davidson diagonalization with overlap
     ethr =  1.00E-02,  avg # of iterations =  3.0

     negative rho (up, down):  4.401E-02 0.000E+00

     total cpu time spent up to now is      640.5 secs

     total energy              =  -11693.37245193 Ry
     estimated scf accuracy    <     115.61076656 Ry

     iteration #  2     ecut=    80.00 Ry     beta= 0.10
     Davidson diagonalization with overlap
     ethr =  6.18E-03,  avg # of iterations =  1.0

     negative rho (up, down):  4.573E-02 0.000E+00

     total cpu time spent up to now is      930.8 secs

     total energy              =  -11688.10867023 Ry
     estimated scf accuracy    <      84.84494737 Ry

     iteration #  3     ecut=    80.00 Ry     beta= 0.10
     Davidson diagonalization with overlap
     ethr =  4.53E-03,  avg # of iterations =  1.0

     negative rho (up, down):  4.758E-02 0.000E+00

     total cpu time spent up to now is     1217.1 secs

     total energy              =  -11681.50257345 Ry
     estimated scf accuracy    <      59.20404265 Ry

     iteration #  4     ecut=    80.00 Ry     beta= 0.10
     Davidson diagonalization with overlap
     ethr =  3.16E-03,  avg # of iterations =  2.0

     negative rho (up, down):  4.868E-02 0.000E+00

     total cpu time spent up to now is     1537.2 secs

     total energy              =  -11682.82259397 Ry
     estimated scf accuracy    <      60.37206018 Ry

     iteration #  5     ecut=    80.00 Ry     beta= 0.10
     Davidson diagonalization with overlap
     ethr =  3.16E-03,  avg # of iterations =  1.0

     negative rho (up, down):  4.980E-02 0.000E+00

     total cpu time spent up to now is     1821.3 secs

     total energy              =  -11682.19934420 Ry
     estimated scf accuracy    <      39.49798527 Ry

     iteration #  6     ecut=    80.00 Ry     beta= 0.10
     Davidson diagonalization with overlap
     ethr =  2.11E-03,  avg # of iterations =  1.0

     negative rho (up, down):  5.067E-02 0.000E+00

     total cpu time spent up to now is     2105.7 secs

     total energy              =  -11682.42805650 Ry
     estimated scf accuracy    <      26.85586140 Ry

     iteration #  7     ecut=    80.00 Ry     beta= 0.10
     Davidson diagonalization with overlap
     ethr =  1.43E-03,  avg # of iterations =  2.0

     negative rho (up, down):  5.148E-02 0.000E+00

     total cpu time spent up to now is     2424.5 secs

     total energy              =  -11682.17321241 Ry
     estimated scf accuracy    <      34.77553437 Ry

     iteration #  8     ecut=    80.00 Ry     beta= 0.10
     Davidson diagonalization with overlap
     ethr =  1.43E-03,  avg # of iterations =  2.0

     negative rho (up, down):  5.207E-02 0.000E+00

     total cpu time spent up to now is     2743.0 secs

     total energy              =  -11682.31164582 Ry
     estimated scf accuracy    <      18.91798960 Ry

     iteration #  9     ecut=    80.00 Ry     beta= 0.10
     Davidson diagonalization with overlap
     ethr =  1.01E-03,  avg # of iterations =  2.0

     negative rho (up, down):  5.267E-02 0.000E+00

     total cpu time spent up to now is     3064.9 secs

     total energy              =  -11682.13698432 Ry
     estimated scf accuracy    <      18.63541254 Ry

     iteration # 10     ecut=    80.00 Ry     beta= 0.10
     Davidson diagonalization with overlap
     ethr =  9.95E-04,  avg # of iterations =  1.0

     negative rho (up, down):  5.318E-02 0.000E+00

     total cpu time spent up to now is     3348.7 secs

     total energy              =  -11682.14609488 Ry
     estimated scf accuracy    <      12.91818187 Ry

     iteration # 11     ecut=    80.00 Ry     beta= 0.10
     Davidson diagonalization with overlap
     ethr =  6.90E-04,  avg # of iterations =  2.0

     negative rho (up, down):  5.353E-02 0.000E+00

     total cpu time spent up to now is     3668.4 secs

     total energy              =  -11682.04231643 Ry
     estimated scf accuracy    <      21.73471133 Ry

     iteration # 12     ecut=    80.00 Ry     beta= 0.10
     Davidson diagonalization with overlap
     ethr =  6.90E-04,  avg # of iterations =  1.0

     negative rho (up, down):  5.383E-02 0.000E+00

     total cpu time spent up to now is     3952.8 secs

     total energy              =  -11682.31736513 Ry
     estimated scf accuracy    <       4.87290142 Ry

     iteration # 13     ecut=    80.00 Ry     beta= 0.10
     Davidson diagonalization with overlap
     ethr =  2.60E-04,  avg # of iterations = 17.0

     negative rho (up, down):  5.425E-02 0.000E+00

     total cpu time spent up to now is     4404.8 secs

     total energy              =  -11682.20956508 Ry
     estimated scf accuracy    <       5.60387660 Ry

     iteration # 14     ecut=    80.00 Ry     beta= 0.10
     Davidson diagonalization with overlap
     ethr =  2.60E-04,  avg # of iterations =  1.0

     negative rho (up, down):  5.480E-02 0.000E+00

     total cpu time spent up to now is     4689.2 secs

     total energy              =  -11682.10744470 Ry
     estimated scf accuracy    <       4.70866114 Ry

     iteration # 15     ecut=    80.00 Ry     beta= 0.10
     Davidson diagonalization with overlap
     ethr =  2.52E-04,  avg # of iterations =  1.0

     negative rho (up, down):  5.478E-02 0.000E+00

     total cpu time spent up to now is     4973.7 secs

     total energy              =  -11681.89992043 Ry
     estimated scf accuracy    <      18.20596150 Ry

     iteration # 16     ecut=    80.00 Ry     beta= 0.10
     Davidson diagonalization with overlap
     ethr =  2.52E-04,  avg # of iterations =  2.0

     negative rho (up, down):  5.516E-02 0.000E+00

     total cpu time spent up to now is     5292.5 secs

     total energy              =  -11682.13073338 Ry
     estimated scf accuracy    <       3.59196906 Ry

     iteration # 17     ecut=    80.00 Ry     beta= 0.10
     Davidson diagonalization with overlap
     ethr =  1.92E-04,  avg # of iterations =  1.0

     negative rho (up, down):  5.569E-02 0.000E+00

     total cpu time spent up to now is     5577.7 secs

     total energy              =  -11682.07066041 Ry
     estimated scf accuracy    <       3.90847707 Ry

     iteration # 18     ecut=    80.00 Ry     beta= 0.10
     Davidson diagonalization with overlap
     ethr =  1.92E-04,  avg # of iterations =  2.0

     negative rho (up, down):  5.566E-02 0.000E+00

     total cpu time spent up to now is     5896.8 secs

     total energy              =  -11681.94530395 Ry
     estimated scf accuracy    <       8.39366692 Ry

     iteration # 19     ecut=    80.00 Ry     beta= 0.10
     Davidson diagonalization with overlap
     ethr =  1.92E-04,  avg # of iterations =  2.0

     negative rho (up, down):  5.593E-02 0.000E+00

     total cpu time spent up to now is     6215.1 secs

     total energy              =  -11682.11669537 Ry
     estimated scf accuracy    <       2.94573662 Ry

     iteration # 20     ecut=    80.00 Ry     beta= 0.10
     Davidson diagonalization with overlap
     ethr =  1.57E-04,  avg # of iterations =  1.0

     negative rho (up, down):  5.634E-02 0.000E+00

     total cpu time spent up to now is     6499.8 secs

     total energy              =  -11682.07209188 Ry
     estimated scf accuracy    <       2.93729070 Ry

     iteration # 21     ecut=    80.00 Ry     beta= 0.10
     Davidson diagonalization with overlap
     ethr =  1.57E-04,  avg # of iterations =  1.0

     negative rho (up, down):  5.656E-02 0.000E+00

     total cpu time spent up to now is     6784.3 secs

     total energy              =  -11681.99383224 Ry
     estimated scf accuracy    <      10.23145475 Ry

     iteration # 22     ecut=    80.00 Ry     beta= 0.10
     Davidson diagonalization with overlap
     ethr =  1.57E-04,  avg # of iterations =  1.0

     negative rho (up, down):  5.662E-02 0.000E+00

     total cpu time spent up to now is     7068.6 secs

     total energy              =  -11682.02830576 Ry
     estimated scf accuracy    <      10.07270410 Ry

     iteration # 23     ecut=    80.00 Ry     beta= 0.10
     Davidson diagonalization with overlap
     ethr =  1.57E-04,  avg # of iterations =  1.0

     negative rho (up, down):  5.664E-02 0.000E+00

     total cpu time spent up to now is     7353.4 secs

     total energy              =  -11682.08454086 Ry
     estimated scf accuracy    <       3.02055980 Ry

     iteration # 24     ecut=    80.00 Ry     beta= 0.10
     Davidson diagonalization with overlap
     ethr =  1.57E-04,  avg # of iterations =  1.0

     negative rho (up, down):  5.717E-02 0.000E+00

     total cpu time spent up to now is     7637.7 secs

     total energy              =  -11682.06430903 Ry
     estimated scf accuracy    <       4.40675621 Ry

     iteration # 25     ecut=    80.00 Ry     beta= 0.10
     Davidson diagonalization with overlap
     ethr =  1.57E-04,  avg # of iterations =  1.0

     negative rho (up, down):  5.718E-02 0.000E+00

     total cpu time spent up to now is     7922.4 secs

     total energy              =  -11682.07202466 Ry
     estimated scf accuracy    <       2.55036109 Ry

     iteration # 26     ecut=    80.00 Ry     beta= 0.10
     Davidson diagonalization with overlap
     ethr =  1.36E-04,  avg # of iterations =  1.0

     negative rho (up, down):  5.733E-02 0.000E+00

     total cpu time spent up to now is     8207.3 secs

     total energy              =  -11682.08368238 Ry
     estimated scf accuracy    <       1.53190898 Ry

     iteration # 27     ecut=    80.00 Ry     beta= 0.10
     Davidson diagonalization with overlap
     ethr =  8.18E-05,  avg # of iterations =  1.0

     negative rho (up, down):  5.815E-02 0.000E+00

     total cpu time spent up to now is     8492.4 secs

     total energy              =  -11682.06671620 Ry
     estimated scf accuracy    <       1.92803249 Ry

     iteration # 28     ecut=    80.00 Ry     beta= 0.10
     Davidson diagonalization with overlap
     ethr =  8.18E-05,  avg # of iterations =  1.0

     negative rho (up, down):  5.749E-02 0.000E+00

     total cpu time spent up to now is     8776.7 secs

     total energy              =  -11681.98294072 Ry
     estimated scf accuracy    <       6.37160288 Ry

     iteration # 29     ecut=    80.00 Ry     beta= 0.10
     Davidson diagonalization with overlap
     ethr =  8.18E-05,  avg # of iterations =  1.0

     negative rho (up, down):  5.768E-02 0.000E+00

     total cpu time spent up to now is     9061.3 secs

     total energy              =  -11682.07970084 Ry
     estimated scf accuracy    <       3.70402650 Ry

     iteration # 30     ecut=    80.00 Ry     beta= 0.10
     Davidson diagonalization with overlap
     ethr =  8.18E-05,  avg # of iterations =  1.0

     negative rho (up, down):  5.788E-02 0.000E+00

     total cpu time spent up to now is     9346.6 secs

     total energy              =  -11682.09397026 Ry
     estimated scf accuracy    <       0.82809742 Ry

     iteration # 31     ecut=    80.00 Ry     beta= 0.10
     Davidson diagonalization with overlap
     ethr =  4.42E-05,  avg # of iterations =  1.0

     negative rho (up, down):  5.807E-02 0.000E+00

     total cpu time spent up to now is     9631.1 secs

     total energy              =  -11682.08976030 Ry
     estimated scf accuracy    <       1.46253756 Ry

     iteration # 32     ecut=    80.00 Ry     beta= 0.10
     Davidson diagonalization with overlap
     ethr =  4.42E-05,  avg # of iterations =  1.0

     negative rho (up, down):  5.822E-02 0.000E+00

     total cpu time spent up to now is     9914.9 secs

     total energy              =  -11682.08198684 Ry
     estimated scf accuracy    <       1.39035208 Ry

     iteration # 33     ecut=    80.00 Ry     beta= 0.10
     Davidson diagonalization with overlap
     ethr =  4.42E-05,  avg # of iterations =  1.0

     negative rho (up, down):  5.810E-02 0.000E+00

     total cpu time spent up to now is    10199.3 secs

     total energy              =  -11682.07378787 Ry
     estimated scf accuracy    <       2.47503126 Ry

     iteration # 34     ecut=    80.00 Ry     beta= 0.10
     Davidson diagonalization with overlap
     ethr =  4.42E-05,  avg # of iterations =  1.0

     negative rho (up, down):  5.867E-02 0.000E+00

     total cpu time spent up to now is    10484.2 secs

     total energy              =  -11682.09241707 Ry
     estimated scf accuracy    <       1.11053762 Ry

     iteration # 35     ecut=    80.00 Ry     beta= 0.10
     Davidson diagonalization with overlap
     ethr =  4.42E-05,  avg # of iterations =  1.0

     negative rho (up, down):  5.847E-02 0.000E+00

     total cpu time spent up to now is    10769.1 secs

     total energy              =  -11682.08831698 Ry
     estimated scf accuracy    <       0.68094576 Ry

     iteration # 36     ecut=    80.00 Ry     beta= 0.10
     Davidson diagonalization with overlap
     ethr =  3.64E-05,  avg # of iterations =  1.0

     negative rho (up, down):  5.858E-02 0.000E+00

     total cpu time spent up to now is    11054.2 secs

     total energy              =  -11682.07974866 Ry
     estimated scf accuracy    <       2.39211032 Ry

     iteration # 37     ecut=    80.00 Ry     beta= 0.10
     Davidson diagonalization with overlap
     ethr =  3.64E-05,  avg # of iterations =  1.0

     negative rho (up, down):  5.907E-02 0.000E+00

     total cpu time spent up to now is    11339.1 secs

     total energy              =  -11682.08988160 Ry
     estimated scf accuracy    <       0.98001923 Ry

     iteration # 38     ecut=    80.00 Ry     beta= 0.10
     Davidson diagonalization with overlap
     ethr =  3.64E-05,  avg # of iterations =  1.0

     negative rho (up, down):  5.883E-02 0.000E+00

     total cpu time spent up to now is    11624.4 secs

     total energy              =  -11682.06939351 Ry
     estimated scf accuracy    <       1.99763769 Ry

     iteration # 39     ecut=    80.00 Ry     beta= 0.10
     Davidson diagonalization with overlap
     ethr =  3.64E-05,  avg # of iterations =  1.0

     negative rho (up, down):  5.887E-02 0.000E+00

     total cpu time spent up to now is    11908.7 secs

     total energy              =  -11682.07917740 Ry
     estimated scf accuracy    <       2.71820303 Ry

     iteration # 40     ecut=    80.00 Ry     beta= 0.10
     Davidson diagonalization with overlap
     ethr =  3.64E-05,  avg # of iterations =  2.0

     negative rho (up, down):  5.890E-02 0.000E+00

     total cpu time spent up to now is    12226.8 secs

     total energy              =  -11682.09457185 Ry
     estimated scf accuracy    <       0.72970081 Ry

     iteration # 41     ecut=    80.00 Ry     beta= 0.10
     Davidson diagonalization with overlap
     ethr =  3.64E-05,  avg # of iterations =  2.0

     negative rho (up, down):  5.897E-02 0.000E+00

     total cpu time spent up to now is    12544.9 secs

     total energy              =  -11682.09843688 Ry
     estimated scf accuracy    <       0.47864582 Ry

     iteration # 42     ecut=    80.00 Ry     beta= 0.10
     Davidson diagonalization with overlap
     c_bands:  3 eigenvalues not converged
     ethr =  2.56E-05,  avg # of iterations = 20.0

     negative rho (up, down):  5.909E-02 0.000E+00

     total cpu time spent up to now is    12951.1 secs

     total energy              =  -11682.09995563 Ry
     estimated scf accuracy    <       0.35730555 Ry

     iteration # 43     ecut=    80.00 Ry     beta= 0.10
     Davidson diagonalization with overlap
     ethr =  1.91E-05,  avg # of iterations =  2.0

     negative rho (up, down):  5.897E-02 0.000E+00

     total cpu time spent up to now is    13269.5 secs

     total energy              =  -11682.09890125 Ry
     estimated scf accuracy    <       0.18364615 Ry

     iteration # 44     ecut=    80.00 Ry     beta= 0.10
     Davidson diagonalization with overlap
     ethr =  9.81E-06,  avg # of iterations =  1.0

     negative rho (up, down):  5.910E-02 0.000E+00

     total cpu time spent up to now is    13553.6 secs

     total energy              =  -11682.09870532 Ry
     estimated scf accuracy    <       0.44683538 Ry

     iteration # 45     ecut=    80.00 Ry     beta= 0.10
     Davidson diagonalization with overlap
     ethr =  9.81E-06,  avg # of iterations =  1.0

     negative rho (up, down):  5.915E-02 0.000E+00

     total cpu time spent up to now is    13841.0 secs

     total energy              =  -11682.09903923 Ry
     estimated scf accuracy    <       0.30017118 Ry

     iteration # 46     ecut=    80.00 Ry     beta= 0.10
     Davidson diagonalization with overlap
     ethr =  9.81E-06,  avg # of iterations =  1.0

     negative rho (up, down):  5.918E-02 0.000E+00

     total cpu time spent up to now is    14125.5 secs

     total energy              =  -11682.10138523 Ry
     estimated scf accuracy    <       0.13170796 Ry

     iteration # 47     ecut=    80.00 Ry     beta= 0.10
     Davidson diagonalization with overlap
     ethr =  7.04E-06,  avg # of iterations =  1.0

     negative rho (up, down):  5.929E-02 0.000E+00

     total cpu time spent up to now is    14411.1 secs

     total energy              =  -11682.10080028 Ry
     estimated scf accuracy    <       0.08305741 Ry

     iteration # 48     ecut=    80.00 Ry     beta= 0.10
     Davidson diagonalization with overlap
     ethr =  4.44E-06,  avg # of iterations =  1.0

     negative rho (up, down):  5.932E-02 0.000E+00

     total cpu time spent up to now is    14698.1 secs

     total energy              =  -11682.09635667 Ry
     estimated scf accuracy    <       0.65773986 Ry

     iteration # 49     ecut=    80.00 Ry     beta= 0.10
     Davidson diagonalization with overlap
     ethr =  4.44E-06,  avg # of iterations =  1.0

     negative rho (up, down):  5.933E-02 0.000E+00

     total cpu time spent up to now is    14982.6 secs

     total energy              =  -11682.10108960 Ry
     estimated scf accuracy    <       0.22497826 Ry

     iteration # 50     ecut=    80.00 Ry     beta= 0.10
     Davidson diagonalization with overlap
     ethr =  4.44E-06,  avg # of iterations =  1.0

     negative rho (up, down):  5.931E-02 0.000E+00

     total cpu time spent up to now is    15269.7 secs

     total energy              =  -11682.10119927 Ry
     estimated scf accuracy    <       0.13728881 Ry

     iteration # 51     ecut=    80.00 Ry     beta= 0.10
     Davidson diagonalization with overlap
     ethr =  4.44E-06,  avg # of iterations =  1.0

     negative rho (up, down):  5.934E-02 0.000E+00

     total cpu time spent up to now is    15554.3 secs

     total energy              =  -11682.10077701 Ry
     estimated scf accuracy    <       0.24809377 Ry

     iteration # 52     ecut=    80.00 Ry     beta= 0.10
     Davidson diagonalization with overlap
     ethr =  4.44E-06,  avg # of iterations =  1.0

     negative rho (up, down):  5.939E-02 0.000E+00

     total cpu time spent up to now is    15839.3 secs

     total energy              =  -11682.10123050 Ry
     estimated scf accuracy    <       0.30970359 Ry

     iteration # 53     ecut=    80.00 Ry     beta= 0.10
     Davidson diagonalization with overlap
     ethr =  4.44E-06,  avg # of iterations =  1.0

     negative rho (up, down):  5.938E-02 0.000E+00

     total cpu time spent up to now is    16124.0 secs

     total energy              =  -11682.10221832 Ry
     estimated scf accuracy    <       0.06869258 Ry

     iteration # 54     ecut=    80.00 Ry     beta= 0.10
     Davidson diagonalization with overlap
     ethr =  3.67E-06,  avg # of iterations =  1.0

     negative rho (up, down):  5.944E-02 0.000E+00

     total cpu time spent up to now is    16409.2 secs

     total energy              =  -11682.10179735 Ry
     estimated scf accuracy    <       0.23019715 Ry

     iteration # 55     ecut=    80.00 Ry     beta= 0.10
     Davidson diagonalization with overlap
     ethr =  3.67E-06,  avg # of iterations =  1.0

     negative rho (up, down):  5.945E-02 0.000E+00

     total cpu time spent up to now is    16694.5 secs

     total energy              =  -11682.10294158 Ry
     estimated scf accuracy    <       0.05118222 Ry

     iteration # 56     ecut=    80.00 Ry     beta= 0.10
     Davidson diagonalization with overlap
     ethr =  2.73E-06,  avg # of iterations =  1.0

     negative rho (up, down):  5.946E-02 0.000E+00

     total cpu time spent up to now is    16979.1 secs

     total energy              =  -11682.10307252 Ry
     estimated scf accuracy    <       0.05322284 Ry

     iteration # 57     ecut=    80.00 Ry     beta= 0.10
     Davidson diagonalization with overlap
     ethr =  2.73E-06,  avg # of iterations =  1.0

     negative rho (up, down):  5.957E-02 0.000E+00

     total cpu time spent up to now is    17263.7 secs

     total energy              =  -11682.10386099 Ry
     estimated scf accuracy    <       0.01838159 Ry

     iteration # 58     ecut=    80.00 Ry     beta= 0.10
     Davidson diagonalization with overlap
     ethr =  9.82E-07,  avg # of iterations =  1.0

     negative rho (up, down):  5.956E-02 0.000E+00

     total cpu time spent up to now is    17551.2 secs

     total energy              =  -11682.10319447 Ry
     estimated scf accuracy    <       0.05716459 Ry

     iteration # 59     ecut=    80.00 Ry     beta= 0.10
     Davidson diagonalization with overlap
     ethr =  9.82E-07,  avg # of iterations =  1.0

     negative rho (up, down):  5.955E-02 0.000E+00

     total cpu time spent up to now is    17836.3 secs

     total energy              =  -11682.10319408 Ry
     estimated scf accuracy    <       0.06915555 Ry

     iteration # 60     ecut=    80.00 Ry     beta= 0.10
     Davidson diagonalization with overlap
     ethr =  9.82E-07,  avg # of iterations =  1.0

     negative rho (up, down):  5.957E-02 0.000E+00

     total cpu time spent up to now is    18119.8 secs

     total energy              =  -11682.10320035 Ry
     estimated scf accuracy    <       0.08920004 Ry

     iteration # 61     ecut=    80.00 Ry     beta= 0.10
     Davidson diagonalization with overlap
     ethr =  9.82E-07,  avg # of iterations =  1.0

     negative rho (up, down):  5.959E-02 0.000E+00

     total cpu time spent up to now is    18404.3 secs

     total energy              =  -11682.10329380 Ry
     estimated scf accuracy    <       0.07562480 Ry

     iteration # 62     ecut=    80.00 Ry     beta= 0.10
     Davidson diagonalization with overlap
     ethr =  9.82E-07,  avg # of iterations =  1.0

     negative rho (up, down):  5.962E-02 0.000E+00

     total cpu time spent up to now is    18689.4 secs

     total energy              =  -11682.10318335 Ry
     estimated scf accuracy    <       0.12707139 Ry

     iteration # 63     ecut=    80.00 Ry     beta= 0.10
     Davidson diagonalization with overlap
     ethr =  9.82E-07,  avg # of iterations =  1.0

     negative rho (up, down):  5.967E-02 0.000E+00

     total cpu time spent up to now is    18974.5 secs

     total energy              =  -11682.10354647 Ry
     estimated scf accuracy    <       0.08040405 Ry

     iteration # 64     ecut=    80.00 Ry     beta= 0.10
     Davidson diagonalization with overlap
     ethr =  9.82E-07,  avg # of iterations =  1.0

     negative rho (up, down):  5.968E-02 0.000E+00

     total cpu time spent up to now is    19258.5 secs

     total energy              =  -11682.10264638 Ry
     estimated scf accuracy    <       0.23501051 Ry

     iteration # 65     ecut=    80.00 Ry     beta= 0.10
     Davidson diagonalization with overlap
     ethr =  9.82E-07,  avg # of iterations =  1.0

     negative rho (up, down):  5.968E-02 0.000E+00

     total cpu time spent up to now is    19543.7 secs

     total energy              =  -11682.10384211 Ry
     estimated scf accuracy    <       0.03916043 Ry

     iteration # 66     ecut=    80.00 Ry     beta= 0.10
     Davidson diagonalization with overlap
     ethr =  9.82E-07,  avg # of iterations =  1.0

     negative rho (up, down):  5.965E-02 0.000E+00

     total cpu time spent up to now is    19828.7 secs

     total energy              =  -11682.10369639 Ry
     estimated scf accuracy    <       0.05779608 Ry

     iteration # 67     ecut=    80.00 Ry     beta= 0.10
     Davidson diagonalization with overlap
     ethr =  9.82E-07,  avg # of iterations =  1.0

     negative rho (up, down):  5.972E-02 0.000E+00

     total cpu time spent up to now is    20113.9 secs

     total energy              =  -11682.10437900 Ry
     estimated scf accuracy    <       0.01509985 Ry

     iteration # 68     ecut=    80.00 Ry     beta= 0.10
     Davidson diagonalization with overlap
     ethr =  8.07E-07,  avg # of iterations =  1.0

     negative rho (up, down):  5.973E-02 0.000E+00

     total cpu time spent up to now is    20398.8 secs

     total energy              =  -11682.10427391 Ry
     estimated scf accuracy    <       0.01568065 Ry

     iteration # 69     ecut=    80.00 Ry     beta= 0.10
     Davidson diagonalization with overlap
     ethr =  8.07E-07,  avg # of iterations =  1.0

     negative rho (up, down):  5.974E-02 0.000E+00

     total cpu time spent up to now is    20683.9 secs

     total energy              =  -11682.10427031 Ry
     estimated scf accuracy    <       0.02635453 Ry

     iteration # 70     ecut=    80.00 Ry     beta= 0.10
     Davidson diagonalization with overlap
     ethr =  8.07E-07,  avg # of iterations =  1.0

     negative rho (up, down):  5.974E-02 0.000E+00

     total cpu time spent up to now is    20968.4 secs

     total energy              =  -11682.10427087 Ry
     estimated scf accuracy    <       0.02736897 Ry

     iteration # 71     ecut=    80.00 Ry     beta= 0.10
     Davidson diagonalization with overlap
     ethr =  8.07E-07,  avg # of iterations =  1.0

     negative rho (up, down):  5.977E-02 0.000E+00

     total cpu time spent up to now is    21253.5 secs

     total energy              =  -11682.10436162 Ry
     estimated scf accuracy    <       0.02423545 Ry

     iteration # 72     ecut=    80.00 Ry     beta= 0.10
     Davidson diagonalization with overlap
     ethr =  8.07E-07,  avg # of iterations =  1.0

     negative rho (up, down):  5.978E-02 0.000E+00

     total cpu time spent up to now is    21538.2 secs

     total energy              =  -11682.10430941 Ry
     estimated scf accuracy    <       0.04191087 Ry

     iteration # 73     ecut=    80.00 Ry     beta= 0.10
     Davidson diagonalization with overlap
     ethr =  8.07E-07,  avg # of iterations =  1.0

     negative rho (up, down):  5.989E-02 0.000E+00

     total cpu time spent up to now is    21823.1 secs

     total energy              =  -11682.10467732 Ry
     estimated scf accuracy    <       0.03183545 Ry

     iteration # 74     ecut=    80.00 Ry     beta= 0.10
     Davidson diagonalization with overlap
     ethr =  8.07E-07,  avg # of iterations =  1.0

     negative rho (up, down):  5.985E-02 0.000E+00

     total cpu time spent up to now is    22107.2 secs

     total energy              =  -11682.10425000 Ry
     estimated scf accuracy    <       0.05594220 Ry

     iteration # 75     ecut=    80.00 Ry     beta= 0.10
     Davidson diagonalization with overlap
     ethr =  8.07E-07,  avg # of iterations =  1.0

     negative rho (up, down):  5.984E-02 0.000E+00

     total cpu time spent up to now is    22392.0 secs

     total energy              =  -11682.10452663 Ry
     estimated scf accuracy    <       0.02038043 Ry

     iteration # 76     ecut=    80.00 Ry     beta= 0.10
     Davidson diagonalization with overlap
     ethr =  8.07E-07,  avg # of iterations =  1.0

     negative rho (up, down):  5.980E-02 0.000E+00

     total cpu time spent up to now is    22676.7 secs

     total energy              =  -11682.10429109 Ry
     estimated scf accuracy    <       0.03387138 Ry

     iteration # 77     ecut=    80.00 Ry     beta= 0.10
     Davidson diagonalization with overlap
     ethr =  8.07E-07,  avg # of iterations =  1.0

     negative rho (up, down):  5.987E-02 0.000E+00

     total cpu time spent up to now is    22960.1 secs

     total energy              =  -11682.10457589 Ry
     estimated scf accuracy    <       0.03089366 Ry

     iteration # 78     ecut=    80.00 Ry     beta= 0.10
     Davidson diagonalization with overlap
     ethr =  8.07E-07,  avg # of iterations =  1.0

     negative rho (up, down):  5.989E-02 0.000E+00

     total cpu time spent up to now is    23245.6 secs

     total energy              =  -11682.10468125 Ry
     estimated scf accuracy    <       0.01558947 Ry

     iteration # 79     ecut=    80.00 Ry     beta= 0.10
     Davidson diagonalization with overlap
     ethr =  8.07E-07,  avg # of iterations =  1.0

     negative rho (up, down):  5.988E-02 0.000E+00

     total cpu time spent up to now is    23530.1 secs

     total energy              =  -11682.10474297 Ry
     estimated scf accuracy    <       0.01321205 Ry

     iteration # 80     ecut=    80.00 Ry     beta= 0.10
     Davidson diagonalization with overlap
     ethr =  7.06E-07,  avg # of iterations =  1.0

     negative rho (up, down):  5.989E-02 0.000E+00

     total cpu time spent up to now is    23814.8 secs

     total energy              =  -11682.10476056 Ry
     estimated scf accuracy    <       0.01483110 Ry

     iteration # 81     ecut=    80.00 Ry     beta= 0.10
     Davidson diagonalization with overlap
     ethr =  7.06E-07,  avg # of iterations =  1.0

     negative rho (up, down):  5.991E-02 0.000E+00

     total cpu time spent up to now is    24098.7 secs

     total energy              =  -11682.10481888 Ry
     estimated scf accuracy    <       0.00963365 Ry

     iteration # 82     ecut=    80.00 Ry     beta= 0.10
     Davidson diagonalization with overlap
     ethr =  5.15E-07,  avg # of iterations =  1.0

     negative rho (up, down):  5.991E-02 0.000E+00

     total cpu time spent up to now is    24382.6 secs

     total energy              =  -11682.10482248 Ry
     estimated scf accuracy    <       0.01288634 Ry

     iteration # 83     ecut=    80.00 Ry     beta= 0.10
     Davidson diagonalization with overlap
     ethr =  5.15E-07,  avg # of iterations =  1.0

     negative rho (up, down):  5.996E-02 0.000E+00

     total cpu time spent up to now is    24667.1 secs

     total energy              =  -11682.10496614 Ry
     estimated scf accuracy    <       0.00837527 Ry

     iteration # 84     ecut=    80.00 Ry     beta= 0.10
     Davidson diagonalization with overlap
     ethr =  4.47E-07,  avg # of iterations =  1.0

     negative rho (up, down):  5.995E-02 0.000E+00

     total cpu time spent up to now is    24952.1 secs

     total energy              =  -11682.10490179 Ry
     estimated scf accuracy    <       0.00821936 Ry

     iteration # 85     ecut=    80.00 Ry     beta= 0.10
     Davidson diagonalization with overlap
     ethr =  4.39E-07,  avg # of iterations =  1.0

     negative rho (up, down):  5.995E-02 0.000E+00

     total cpu time spent up to now is    25236.9 secs

     total energy              =  -11682.10490725 Ry
     estimated scf accuracy    <       0.00718139 Ry

     iteration # 86     ecut=    80.00 Ry     beta= 0.10
     Davidson diagonalization with overlap
     ethr =  3.84E-07,  avg # of iterations =  1.0

     negative rho (up, down):  5.994E-02 0.000E+00

     total cpu time spent up to now is    25520.2 secs

     total energy              =  -11682.10481314 Ry
     estimated scf accuracy    <       0.01555050 Ry

     iteration # 87     ecut=    80.00 Ry     beta= 0.10
     Davidson diagonalization with overlap
     ethr =  3.84E-07,  avg # of iterations =  1.0

     negative rho (up, down):  6.000E-02 0.000E+00

     total cpu time spent up to now is    25804.9 secs

     total energy              =  -11682.10491280 Ry
     estimated scf accuracy    <       0.01838835 Ry

     iteration # 88     ecut=    80.00 Ry     beta= 0.10
     Davidson diagonalization with overlap
     ethr =  3.84E-07,  avg # of iterations =  1.0

     negative rho (up, down):  5.999E-02 0.000E+00

     total cpu time spent up to now is    26088.5 secs

     total energy              =  -11682.10494563 Ry
     estimated scf accuracy    <       0.00777176 Ry

     iteration # 89     ecut=    80.00 Ry     beta= 0.10
     Davidson diagonalization with overlap
     ethr =  3.84E-07,  avg # of iterations =  1.0

     negative rho (up, down):  6.000E-02 0.000E+00

     total cpu time spent up to now is    26372.4 secs

     total energy              =  -11682.10499290 Ry
     estimated scf accuracy    <       0.00881792 Ry

     iteration # 90     ecut=    80.00 Ry     beta= 0.10
     Davidson diagonalization with overlap
     ethr =  3.84E-07,  avg # of iterations =  1.0

     negative rho (up, down):  6.000E-02 0.000E+00

     total cpu time spent up to now is    26656.5 secs

     total energy              =  -11682.10497362 Ry
     estimated scf accuracy    <       0.01022872 Ry

     iteration # 91     ecut=    80.00 Ry     beta= 0.10
     Davidson diagonalization with overlap
     ethr =  3.84E-07,  avg # of iterations =  1.0

     negative rho (up, down):  6.000E-02 0.000E+00

     total cpu time spent up to now is    26940.9 secs

     total energy              =  -11682.10501261 Ry
     estimated scf accuracy    <       0.00659141 Ry

     iteration # 92     ecut=    80.00 Ry     beta= 0.10
     Davidson diagonalization with overlap
     ethr =  3.52E-07,  avg # of iterations =  1.0

     negative rho (up, down):  6.000E-02 0.000E+00

     total cpu time spent up to now is    27224.9 secs

     total energy              =  -11682.10501553 Ry
     estimated scf accuracy    <       0.00770069 Ry

     iteration # 93     ecut=    80.00 Ry     beta= 0.10
     Davidson diagonalization with overlap
     ethr =  3.52E-07,  avg # of iterations =  1.0

     negative rho (up, down):  6.003E-02 0.000E+00

     total cpu time spent up to now is    27509.1 secs

     total energy              =  -11682.10509811 Ry
     estimated scf accuracy    <       0.00414948 Ry

     iteration # 94     ecut=    80.00 Ry     beta= 0.10
     Davidson diagonalization with overlap
     ethr =  2.22E-07,  avg # of iterations =  1.0

     negative rho (up, down):  6.003E-02 0.000E+00

     total cpu time spent up to now is    27795.9 secs

     total energy              =  -11682.10508513 Ry
     estimated scf accuracy    <       0.00223559 Ry

     iteration # 95     ecut=    80.00 Ry     beta= 0.10
     Davidson diagonalization with overlap
     ethr =  1.19E-07,  avg # of iterations =  1.0

     negative rho (up, down):  6.004E-02 0.000E+00

     total cpu time spent up to now is    28080.9 secs

     total energy              =  -11682.10509391 Ry
     estimated scf accuracy    <       0.00273948 Ry

     iteration # 96     ecut=    80.00 Ry     beta= 0.10
     Davidson diagonalization with overlap
     ethr =  1.19E-07,  avg # of iterations =  1.0

     negative rho (up, down):  6.005E-02 0.000E+00

     total cpu time spent up to now is    28365.1 secs

     total energy              =  -11682.10508570 Ry
     estimated scf accuracy    <       0.00493784 Ry

     iteration # 97     ecut=    80.00 Ry     beta= 0.10
     Davidson diagonalization with overlap
     ethr =  1.19E-07,  avg # of iterations =  1.0

     negative rho (up, down):  6.007E-02 0.000E+00

     total cpu time spent up to now is    28649.9 secs

     total energy              =  -11682.10507958 Ry
     estimated scf accuracy    <       0.00933794 Ry

     iteration # 98     ecut=    80.00 Ry     beta= 0.10
     Davidson diagonalization with overlap
     ethr =  1.19E-07,  avg # of iterations =  1.0

     negative rho (up, down):  6.006E-02 0.000E+00

     total cpu time spent up to now is    28933.7 secs

     total energy              =  -11682.10511858 Ry
     estimated scf accuracy    <       0.00266707 Ry

     iteration # 99     ecut=    80.00 Ry     beta= 0.10
     Davidson diagonalization with overlap
     ethr =  1.19E-07,  avg # of iterations =  1.0

     negative rho (up, down):  6.007E-02 0.000E+00

     total cpu time spent up to now is    29217.8 secs

     total energy              =  -11682.10512264 Ry
     estimated scf accuracy    <       0.00491256 Ry

     iteration #100     ecut=    80.00 Ry     beta= 0.10
     Davidson diagonalization with overlap
     ethr =  1.19E-07,  avg # of iterations =  1.0

     negative rho (up, down):  6.008E-02 0.000E+00

     total cpu time spent up to now is    29501.4 secs

     total energy              =  -11682.10512380 Ry
     estimated scf accuracy    <       0.00510162 Ry

     iteration #101     ecut=    80.00 Ry     beta= 0.10
     Davidson diagonalization with overlap
     ethr =  1.19E-07,  avg # of iterations =  1.0

     negative rho (up, down):  6.008E-02 0.000E+00

     total cpu time spent up to now is    29786.8 secs

     total energy              =  -11682.10512361 Ry
     estimated scf accuracy    <       0.00464176 Ry

     iteration #102     ecut=    80.00 Ry     beta= 0.10
     Davidson diagonalization with overlap
     ethr =  1.19E-07,  avg # of iterations =  1.0

     negative rho (up, down):  6.007E-02 0.000E+00

     total cpu time spent up to now is    30071.2 secs

     total energy              =  -11682.10511700 Ry
     estimated scf accuracy    <       0.00557719 Ry

     iteration #103     ecut=    80.00 Ry     beta= 0.10
     Davidson diagonalization with overlap
     ethr =  1.19E-07,  avg # of iterations =  1.0

     negative rho (up, down):  6.009E-02 0.000E+00

     total cpu time spent up to now is    30355.9 secs

     total energy              =  -11682.10516139 Ry
     estimated scf accuracy    <       0.00464441 Ry

     iteration #104     ecut=    80.00 Ry     beta= 0.10
     Davidson diagonalization with overlap
     ethr =  1.19E-07,  avg # of iterations =  1.0

     negative rho (up, down):  6.010E-02 0.000E+00

     total cpu time spent up to now is    30639.8 secs

     total energy              =  -11682.10517501 Ry
     estimated scf accuracy    <       0.00108031 Ry

     iteration #105     ecut=    80.00 Ry     beta= 0.10
     Davidson diagonalization with overlap
     ethr =  5.77E-08,  avg # of iterations =  1.0

     negative rho (up, down):  6.010E-02 0.000E+00

     total cpu time spent up to now is    30923.7 secs

     total energy              =  -11682.10518116 Ry
     estimated scf accuracy    <       0.00106600 Ry

     iteration #106     ecut=    80.00 Ry     beta= 0.10
     Davidson diagonalization with overlap
     ethr =  5.69E-08,  avg # of iterations =  1.0

     negative rho (up, down):  6.012E-02 0.000E+00

     total cpu time spent up to now is    31210.6 secs

     total energy              =  -11682.10519567 Ry
     estimated scf accuracy    <       0.00113557 Ry

     iteration #107     ecut=    80.00 Ry     beta= 0.10
     Davidson diagonalization with overlap
     ethr =  5.69E-08,  avg # of iterations =  1.0

     negative rho (up, down):  6.012E-02 0.000E+00

     total cpu time spent up to now is    31495.1 secs

     total energy              =  -11682.10519096 Ry
     estimated scf accuracy    <       0.00213325 Ry

     iteration #108     ecut=    80.00 Ry     beta= 0.10
     Davidson diagonalization with overlap
     ethr =  5.69E-08,  avg # of iterations =  1.0

     negative rho (up, down):  6.012E-02 0.000E+00

     total cpu time spent up to now is    31779.6 secs

     total energy              =  -11682.10519623 Ry
     estimated scf accuracy    <       0.00093325 Ry

     iteration #109     ecut=    80.00 Ry     beta= 0.10
     Davidson diagonalization with overlap
     ethr =  4.99E-08,  avg # of iterations =  1.0

     negative rho (up, down):  6.013E-02 0.000E+00

     total cpu time spent up to now is    32063.5 secs

     total energy              =  -11682.10519923 Ry
     estimated scf accuracy    <       0.00221156 Ry

     iteration #110     ecut=    80.00 Ry     beta= 0.10
     Davidson diagonalization with overlap
     ethr =  4.99E-08,  avg # of iterations =  1.0

     negative rho (up, down):  6.014E-02 0.000E+00

     total cpu time spent up to now is    32348.1 secs

     total energy              =  -11682.10520163 Ry
     estimated scf accuracy    <       0.00236756 Ry

     iteration #111     ecut=    80.00 Ry     beta= 0.10
     Davidson diagonalization with overlap
     ethr =  4.99E-08,  avg # of iterations =  1.0

     negative rho (up, down):  6.014E-02 0.000E+00

     total cpu time spent up to now is    32633.1 secs

     total energy              =  -11682.10519802 Ry
     estimated scf accuracy    <       0.00252351 Ry

     iteration #112     ecut=    80.00 Ry     beta= 0.10
     Davidson diagonalization with overlap
     ethr =  4.99E-08,  avg # of iterations =  1.0

     negative rho (up, down):  6.013E-02 0.000E+00

     total cpu time spent up to now is    32917.9 secs

     total energy              =  -11682.10518420 Ry
     estimated scf accuracy    <       0.00402434 Ry

     iteration #113     ecut=    80.00 Ry     beta= 0.10
     Davidson diagonalization with overlap
     ethr =  4.99E-08,  avg # of iterations =  1.0

     negative rho (up, down):  6.014E-02 0.000E+00

     total cpu time spent up to now is    33201.4 secs

     total energy              =  -11682.10519517 Ry
     estimated scf accuracy    <       0.00559652 Ry

     iteration #114     ecut=    80.00 Ry     beta= 0.10
     Davidson diagonalization with overlap
     ethr =  4.99E-08,  avg # of iterations =  1.0

     negative rho (up, down):  6.015E-02 0.000E+00

     total cpu time spent up to now is    33485.3 secs

     total energy              =  -11682.10522099 Ry
     estimated scf accuracy    <       0.00078845 Ry

     iteration #115     ecut=    80.00 Ry     beta= 0.10
     Davidson diagonalization with overlap
     ethr =  4.21E-08,  avg # of iterations =  1.0

     negative rho (up, down):  6.015E-02 0.000E+00

     total cpu time spent up to now is    33769.6 secs

     total energy              =  -11682.10522401 Ry
     estimated scf accuracy    <       0.00065135 Ry

     iteration #116     ecut=    80.00 Ry     beta= 0.10
     Davidson diagonalization with overlap
     ethr =  3.48E-08,  avg # of iterations =  1.0

     negative rho (up, down):  6.016E-02 0.000E+00

     total cpu time spent up to now is    34053.3 secs

     total energy              =  -11682.10523470 Ry
     estimated scf accuracy    <       0.00050422 Ry

     iteration #117     ecut=    80.00 Ry     beta= 0.10
     Davidson diagonalization with overlap
     ethr =  2.69E-08,  avg # of iterations =  1.0

     negative rho (up, down):  6.016E-02 0.000E+00

     total cpu time spent up to now is    34337.6 secs

     total energy              =  -11682.10523258 Ry
     estimated scf accuracy    <       0.00064339 Ry

     iteration #118     ecut=    80.00 Ry     beta= 0.10
     Davidson diagonalization with overlap
     ethr =  2.69E-08,  avg # of iterations =  1.0

     negative rho (up, down):  6.016E-02 0.000E+00

     total cpu time spent up to now is    34621.4 secs

     total energy              =  -11682.10523681 Ry
     estimated scf accuracy    <       0.00034249 Ry

     iteration #119     ecut=    80.00 Ry     beta= 0.10
     Davidson diagonalization with overlap
     ethr =  1.83E-08,  avg # of iterations =  1.0

     negative rho (up, down):  6.017E-02 0.000E+00

     total cpu time spent up to now is    34905.4 secs

     total energy              =  -11682.10523860 Ry
     estimated scf accuracy    <       0.00075447 Ry

     iteration #120     ecut=    80.00 Ry     beta= 0.10
     Davidson diagonalization with overlap
     ethr =  1.83E-08,  avg # of iterations =  1.0

     negative rho (up, down):  6.018E-02 0.000E+00

     total cpu time spent up to now is    35189.4 secs

     total energy              =  -11682.10524345 Ry
     estimated scf accuracy    <       0.00080347 Ry

     iteration #121     ecut=    80.00 Ry     beta= 0.10
     Davidson diagonalization with overlap
     ethr =  1.83E-08,  avg # of iterations =  1.0

     negative rho (up, down):  6.018E-02 0.000E+00

     total cpu time spent up to now is    35473.8 secs

     total energy              =  -11682.10524250 Ry
     estimated scf accuracy    <       0.00099354 Ry

     iteration #122     ecut=    80.00 Ry     beta= 0.10
     Davidson diagonalization with overlap
     ethr =  1.83E-08,  avg # of iterations =  1.0

     negative rho (up, down):  6.019E-02 0.000E+00

     total cpu time spent up to now is    35758.8 secs

     total energy              =  -11682.10523780 Ry
     estimated scf accuracy    <       0.00188888 Ry

     iteration #123     ecut=    80.00 Ry     beta= 0.10
     Davidson diagonalization with overlap
     ethr =  1.83E-08,  avg # of iterations =  1.0

     negative rho (up, down):  6.018E-02 0.000E+00

     total cpu time spent up to now is    36043.9 secs

     total energy              =  -11682.10522510 Ry
     estimated scf accuracy    <       0.00404513 Ry

     iteration #124     ecut=    80.00 Ry     beta= 0.10
     Davidson diagonalization with overlap
     ethr =  1.83E-08,  avg # of iterations =  1.0

     negative rho (up, down):  6.018E-02 0.000E+00

     total cpu time spent up to now is    36328.1 secs

     total energy              =  -11682.10524705 Ry
     estimated scf accuracy    <       0.00061132 Ry

     iteration #125     ecut=    80.00 Ry     beta= 0.10
     Davidson diagonalization with overlap
     ethr =  1.83E-08,  avg # of iterations =  1.0

     negative rho (up, down):  6.018E-02 0.000E+00

     total cpu time spent up to now is    36612.7 secs

     total energy              =  -11682.10524734 Ry
     estimated scf accuracy    <       0.00055530 Ry

     iteration #126     ecut=    80.00 Ry     beta= 0.10
     Davidson diagonalization with overlap
     ethr =  1.83E-08,  avg # of iterations =  1.0

     negative rho (up, down):  6.020E-02 0.000E+00

     total cpu time spent up to now is    36897.0 secs

     total energy              =  -11682.10525525 Ry
     estimated scf accuracy    <       0.00048722 Ry

     iteration #127     ecut=    80.00 Ry     beta= 0.10
     Davidson diagonalization with overlap
     ethr =  1.83E-08,  avg # of iterations =  1.0

     negative rho (up, down):  6.019E-02 0.000E+00

     total cpu time spent up to now is    37181.2 secs

     total energy              =  -11682.10525382 Ry
     estimated scf accuracy    <       0.00036627 Ry

     iteration #128     ecut=    80.00 Ry     beta= 0.10
     Davidson diagonalization with overlap
     ethr =  1.83E-08,  avg # of iterations =  1.0

     negative rho (up, down):  6.020E-02 0.000E+00

     total cpu time spent up to now is    37466.8 secs

     total energy              =  -11682.10525704 Ry
     estimated scf accuracy    <       0.00020466 Ry

     iteration #129     ecut=    80.00 Ry     beta= 0.10
     Davidson diagonalization with overlap
     ethr =  1.09E-08,  avg # of iterations =  1.0

     negative rho (up, down):  6.020E-02 0.000E+00

     total cpu time spent up to now is    37750.4 secs

     total energy              =  -11682.10525856 Ry
     estimated scf accuracy    <       0.00031491 Ry

     iteration #130     ecut=    80.00 Ry     beta= 0.10
     Davidson diagonalization with overlap
     ethr =  1.09E-08,  avg # of iterations =  1.0

     negative rho (up, down):  6.021E-02 0.000E+00

     total cpu time spent up to now is    38033.8 secs

     total energy              =  -11682.10526182 Ry
     estimated scf accuracy    <       0.00028502 Ry

     iteration #131     ecut=    80.00 Ry     beta= 0.10
     Davidson diagonalization with overlap
     ethr =  1.09E-08,  avg # of iterations =  1.0

     negative rho (up, down):  6.021E-02 0.000E+00

     total cpu time spent up to now is    38317.6 secs

     total energy              =  -11682.10526335 Ry
     estimated scf accuracy    <       0.00031984 Ry

     iteration #132     ecut=    80.00 Ry     beta= 0.10
     Davidson diagonalization with overlap
     ethr =  1.09E-08,  avg # of iterations =  1.0

     negative rho (up, down):  6.022E-02 0.000E+00

     total cpu time spent up to now is    38601.6 secs

     total energy              =  -11682.10526420 Ry
     estimated scf accuracy    <       0.00060371 Ry

     iteration #133     ecut=    80.00 Ry     beta= 0.10
     Davidson diagonalization with overlap
     ethr =  1.09E-08,  avg # of iterations =  1.0

     negative rho (up, down):  6.021E-02 0.000E+00

     total cpu time spent up to now is    38886.0 secs

     total energy              =  -11682.10525450 Ry
     estimated scf accuracy    <       0.00140285 Ry

     iteration #134     ecut=    80.00 Ry     beta= 0.10
     Davidson diagonalization with overlap
     ethr =  1.09E-08,  avg # of iterations =  1.0

     negative rho (up, down):  6.021E-02 0.000E+00

     total cpu time spent up to now is    39171.3 secs

     total energy              =  -11682.10526318 Ry
     estimated scf accuracy    <       0.00042073 Ry

     iteration #135     ecut=    80.00 Ry     beta= 0.10
     Davidson diagonalization with overlap
     ethr =  1.09E-08,  avg # of iterations =  1.0

     negative rho (up, down):  6.021E-02 0.000E+00

     total cpu time spent up to now is    39455.3 secs

     total energy              =  -11682.10526264 Ry
     estimated scf accuracy    <       0.00044001 Ry

     iteration #136     ecut=    80.00 Ry     beta= 0.10
     Davidson diagonalization with overlap
     ethr =  1.09E-08,  avg # of iterations =  1.0

     negative rho (up, down):  6.022E-02 0.000E+00

     total cpu time spent up to now is    39740.2 secs

     total energy              =  -11682.10526695 Ry
     estimated scf accuracy    <       0.00047774 Ry

     iteration #137     ecut=    80.00 Ry     beta= 0.10
     Davidson diagonalization with overlap
     ethr =  1.09E-08,  avg # of iterations =  1.0

     negative rho (up, down):  6.022E-02 0.000E+00

     total cpu time spent up to now is    40023.8 secs

     total energy              =  -11682.10526607 Ry
     estimated scf accuracy    <       0.00024965 Ry

     iteration #138     ecut=    80.00 Ry     beta= 0.10
     Davidson diagonalization with overlap
     ethr =  1.09E-08,  avg # of iterations =  1.0

     negative rho (up, down):  6.022E-02 0.000E+00

     total cpu time spent up to now is    40307.7 secs

     total energy              =  -11682.10526840 Ry
     estimated scf accuracy    <       0.00018388 Ry

     iteration #139     ecut=    80.00 Ry     beta= 0.10
     Davidson diagonalization with overlap
     ethr =  9.82E-09,  avg # of iterations =  1.0

     negative rho (up, down):  6.022E-02 0.000E+00

     total cpu time spent up to now is    40592.4 secs

     total energy              =  -11682.10526914 Ry
     estimated scf accuracy    <       0.00021154 Ry

     iteration #140     ecut=    80.00 Ry     beta= 0.10
     Davidson diagonalization with overlap
     ethr =  9.82E-09,  avg # of iterations =  1.0

     negative rho (up, down):  6.023E-02 0.000E+00

     total cpu time spent up to now is    40877.0 secs

     total energy              =  -11682.10527129 Ry
     estimated scf accuracy    <       0.00014125 Ry

     iteration #141     ecut=    80.00 Ry     beta= 0.10
     Davidson diagonalization with overlap
     ethr =  7.55E-09,  avg # of iterations =  1.0

     negative rho (up, down):  6.023E-02 0.000E+00

     total cpu time spent up to now is    41161.8 secs

     total energy              =  -11682.10527266 Ry
     estimated scf accuracy    <       0.00012041 Ry

     iteration #142     ecut=    80.00 Ry     beta= 0.10
     Davidson diagonalization with overlap
     ethr =  6.43E-09,  avg # of iterations =  1.0

     negative rho (up, down):  6.024E-02 0.000E+00

     total cpu time spent up to now is    41445.5 secs

     total energy              =  -11682.10527414 Ry
     estimated scf accuracy    <       0.00016255 Ry

     iteration #143     ecut=    80.00 Ry     beta= 0.10
     Davidson diagonalization with overlap
     ethr =  6.43E-09,  avg # of iterations =  1.0

     negative rho (up, down):  6.023E-02 0.000E+00

     total cpu time spent up to now is    41729.3 secs

     total energy              =  -11682.10526971 Ry
     estimated scf accuracy    <       0.00037165 Ry

     iteration #144     ecut=    80.00 Ry     beta= 0.10
     Davidson diagonalization with overlap
     ethr =  6.43E-09,  avg # of iterations =  1.0

     negative rho (up, down):  6.024E-02 0.000E+00

     total cpu time spent up to now is    42013.0 secs

     total energy              =  -11682.10527273 Ry
     estimated scf accuracy    <       0.00025586 Ry

     iteration #145     ecut=    80.00 Ry     beta= 0.10
     Davidson diagonalization with overlap
     ethr =  6.43E-09,  avg # of iterations =  1.0

     negative rho (up, down):  6.024E-02 0.000E+00

     total cpu time spent up to now is    42296.7 secs

     total energy              =  -11682.10527322 Ry
     estimated scf accuracy    <       0.00022869 Ry

     iteration #146     ecut=    80.00 Ry     beta= 0.10
     Davidson diagonalization with overlap
     ethr =  6.43E-09,  avg # of iterations =  1.0

     negative rho (up, down):  6.024E-02 0.000E+00

     total cpu time spent up to now is    42580.3 secs

     total energy              =  -11682.10527407 Ry
     estimated scf accuracy    <       0.00032147 Ry

     iteration #147     ecut=    80.00 Ry     beta= 0.10
     Davidson diagonalization with overlap
     ethr =  6.43E-09,  avg # of iterations =  1.0

     negative rho (up, down):  6.024E-02 0.000E+00

     total cpu time spent up to now is    42866.3 secs

     total energy              =  -11682.10527408 Ry
     estimated scf accuracy    <       0.00013320 Ry

     iteration #148     ecut=    80.00 Ry     beta= 0.10
     Davidson diagonalization with overlap
     ethr =  6.43E-09,  avg # of iterations =  1.0

     negative rho (up, down):  6.024E-02 0.000E+00

     total cpu time spent up to now is    43150.6 secs

     total energy              =  -11682.10527483 Ry
     estimated scf accuracy    <       0.00017183 Ry

     iteration #149     ecut=    80.00 Ry     beta= 0.10
     Davidson diagonalization with overlap
     ethr =  6.43E-09,  avg # of iterations =  1.0

     negative rho (up, down):  6.024E-02 0.000E+00

     total cpu time spent up to now is    43435.5 secs

     total energy              =  -11682.10527502 Ry
     estimated scf accuracy    <       0.00017908 Ry

     iteration #150     ecut=    80.00 Ry     beta= 0.10
     Davidson diagonalization with overlap
     ethr =  6.43E-09,  avg # of iterations =  1.0

     negative rho (up, down):  6.025E-02 0.000E+00

     total cpu time spent up to now is    43719.9 secs

     total energy              =  -11682.10527635 Ry
     estimated scf accuracy    <       0.00011557 Ry

     iteration #151     ecut=    80.00 Ry     beta= 0.10
     Davidson diagonalization with overlap
     ethr =  6.17E-09,  avg # of iterations =  1.0

     negative rho (up, down):  6.025E-02 0.000E+00

     total cpu time spent up to now is    44003.8 secs

     total energy              =  -11682.10527743 Ry
     estimated scf accuracy    <       0.00006400 Ry

     iteration #152     ecut=    80.00 Ry     beta= 0.10
     Davidson diagonalization with overlap
     ethr =  3.42E-09,  avg # of iterations =  1.0

     negative rho (up, down):  6.025E-02 0.000E+00

     total cpu time spent up to now is    44287.8 secs

     total energy              =  -11682.10527830 Ry
     estimated scf accuracy    <       0.00005347 Ry

     iteration #153     ecut=    80.00 Ry     beta= 0.10
     Davidson diagonalization with overlap
     ethr =  2.86E-09,  avg # of iterations =  1.0

     negative rho (up, down):  6.025E-02 0.000E+00

     total cpu time spent up to now is    44572.0 secs

     total energy              =  -11682.10527693 Ry
     estimated scf accuracy    <       0.00009444 Ry

     iteration #154     ecut=    80.00 Ry     beta= 0.10
     Davidson diagonalization with overlap
     ethr =  2.86E-09,  avg # of iterations =  1.0

     negative rho (up, down):  6.025E-02 0.000E+00

     total cpu time spent up to now is    44854.9 secs

     total energy              =  -11682.10527790 Ry
     estimated scf accuracy    <       0.00012030 Ry

     iteration #155     ecut=    80.00 Ry     beta= 0.10
     Davidson diagonalization with overlap
     ethr =  2.86E-09,  avg # of iterations =  1.0

     negative rho (up, down):  6.026E-02 0.000E+00

     total cpu time spent up to now is    45139.1 secs

     total energy              =  -11682.10527877 Ry
     estimated scf accuracy    <       0.00007942 Ry

     iteration #156     ecut=    80.00 Ry     beta= 0.10
     Davidson diagonalization with overlap
     ethr =  2.86E-09,  avg # of iterations =  1.0

     negative rho (up, down):  6.026E-02 0.000E+00

     total cpu time spent up to now is    45423.2 secs

     total energy              =  -11682.10527864 Ry
     estimated scf accuracy    <       0.00011407 Ry

     iteration #157     ecut=    80.00 Ry     beta= 0.10
     Davidson diagonalization with overlap
     ethr =  2.86E-09,  avg # of iterations =  1.0

     negative rho (up, down):  6.026E-02 0.000E+00

     total cpu time spent up to now is    45707.1 secs

     total energy              =  -11682.10527883 Ry
     estimated scf accuracy    <       0.00005876 Ry

     iteration #158     ecut=    80.00 Ry     beta= 0.10
     Davidson diagonalization with overlap
     ethr =  2.86E-09,  avg # of iterations =  1.0

     negative rho (up, down):  6.026E-02 0.000E+00

     total cpu time spent up to now is    45990.7 secs

     total energy              =  -11682.10527890 Ry
     estimated scf accuracy    <       0.00011963 Ry

     iteration #159     ecut=    80.00 Ry     beta= 0.10
     Davidson diagonalization with overlap
     ethr =  2.86E-09,  avg # of iterations =  1.0

     negative rho (up, down):  6.026E-02 0.000E+00

     total cpu time spent up to now is    46274.9 secs

     total energy              =  -11682.10527871 Ry
     estimated scf accuracy    <       0.00011995 Ry

     iteration #160     ecut=    80.00 Ry     beta= 0.10
     Davidson diagonalization with overlap
     ethr =  2.86E-09,  avg # of iterations =  1.0

     negative rho (up, down):  6.026E-02 0.000E+00

     total cpu time spent up to now is    46559.8 secs

     total energy              =  -11682.10527917 Ry
     estimated scf accuracy    <       0.00011058 Ry

     iteration #161     ecut=    80.00 Ry     beta= 0.10
     Davidson diagonalization with overlap
     ethr =  2.86E-09,  avg # of iterations =  1.0

     negative rho (up, down):  6.026E-02 0.000E+00

     total cpu time spent up to now is    46844.3 secs

     total energy              =  -11682.10527996 Ry
     estimated scf accuracy    <       0.00005329 Ry

     iteration #162     ecut=    80.00 Ry     beta= 0.10
     Davidson diagonalization with overlap
     ethr =  2.85E-09,  avg # of iterations =  1.0

     negative rho (up, down):  6.026E-02 0.000E+00

     total cpu time spent up to now is    47128.5 secs

     total energy              =  -11682.10528054 Ry
     estimated scf accuracy    <       0.00003194 Ry

     iteration #163     ecut=    80.00 Ry     beta= 0.10
     Davidson diagonalization with overlap
     ethr =  1.71E-09,  avg # of iterations =  1.0

     negative rho (up, down):  6.026E-02 0.000E+00

     total cpu time spent up to now is    47411.7 secs

     total energy              =  -11682.10528018 Ry
     estimated scf accuracy    <       0.00003119 Ry

     iteration #164     ecut=    80.00 Ry     beta= 0.10
     Davidson diagonalization with overlap
     ethr =  1.67E-09,  avg # of iterations =  1.0

     negative rho (up, down):  6.026E-02 0.000E+00

     total cpu time spent up to now is    47695.7 secs

     total energy              =  -11682.10528051 Ry
     estimated scf accuracy    <       0.00005123 Ry

     iteration #165     ecut=    80.00 Ry     beta= 0.10
     Davidson diagonalization with overlap
     ethr =  1.67E-09,  avg # of iterations =  1.0

     negative rho (up, down):  6.027E-02 0.000E+00

     total cpu time spent up to now is    47980.5 secs

     total energy              =  -11682.10528106 Ry
     estimated scf accuracy    <       0.00002709 Ry

     iteration #166     ecut=    80.00 Ry     beta= 0.10
     Davidson diagonalization with overlap
     ethr =  1.45E-09,  avg # of iterations =  1.0

     negative rho (up, down):  6.027E-02 0.000E+00

     total cpu time spent up to now is    48264.9 secs

     total energy              =  -11682.10528092 Ry
     estimated scf accuracy    <       0.00003270 Ry

     iteration #167     ecut=    80.00 Ry     beta= 0.10
     Davidson diagonalization with overlap
     ethr =  1.45E-09,  avg # of iterations =  1.0

     negative rho (up, down):  6.027E-02 0.000E+00

     total cpu time spent up to now is    48551.3 secs

     total energy              =  -11682.10528124 Ry
     estimated scf accuracy    <       0.00002393 Ry

     iteration #168     ecut=    80.00 Ry     beta= 0.10
     Davidson diagonalization with overlap
     ethr =  1.28E-09,  avg # of iterations =  1.0

     negative rho (up, down):  6.027E-02 0.000E+00

     total cpu time spent up to now is    48835.3 secs

     total energy              =  -11682.10528125 Ry
     estimated scf accuracy    <       0.00005224 Ry

     iteration #169     ecut=    80.00 Ry     beta= 0.10
     Davidson diagonalization with overlap
     ethr =  1.28E-09,  avg # of iterations =  1.0

     negative rho (up, down):  6.027E-02 0.000E+00

     total cpu time spent up to now is    49119.2 secs

     total energy              =  -11682.10528112 Ry
     estimated scf accuracy    <       0.00005460 Ry

     iteration #170     ecut=    80.00 Ry     beta= 0.10
     Davidson diagonalization with overlap
     ethr =  1.28E-09,  avg # of iterations =  1.0

     negative rho (up, down):  6.027E-02 0.000E+00

     total cpu time spent up to now is    49403.9 secs

     total energy              =  -11682.10528096 Ry
     estimated scf accuracy    <       0.00008279 Ry

     iteration #171     ecut=    80.00 Ry     beta= 0.10
     Davidson diagonalization with overlap
     ethr =  1.28E-09,  avg # of iterations =  1.0

     negative rho (up, down):  6.027E-02 0.000E+00

     total cpu time spent up to now is    49688.1 secs

     total energy              =  -11682.10528135 Ry
     estimated scf accuracy    <       0.00004769 Ry

     iteration #172     ecut=    80.00 Ry     beta= 0.10
     Davidson diagonalization with overlap
     ethr =  1.28E-09,  avg # of iterations =  1.0

     negative rho (up, down):  6.027E-02 0.000E+00

     total cpu time spent up to now is    49972.9 secs

     total energy              =  -11682.10528174 Ry
     estimated scf accuracy    <       0.00002966 Ry

     iteration #173     ecut=    80.00 Ry     beta= 0.10
     Davidson diagonalization with overlap
     ethr =  1.28E-09,  avg # of iterations =  1.0

     negative rho (up, down):  6.027E-02 0.000E+00

     total cpu time spent up to now is    50256.7 secs

     total energy              =  -11682.10528176 Ry
     estimated scf accuracy    <       0.00001704 Ry

     iteration #174     ecut=    80.00 Ry     beta= 0.10
     Davidson diagonalization with overlap
     ethr =  9.10E-10,  avg # of iterations =  1.0

     negative rho (up, down):  6.027E-02 0.000E+00

     total cpu time spent up to now is    50541.4 secs

     total energy              =  -11682.10528180 Ry
     estimated scf accuracy    <       0.00003083 Ry

     iteration #175     ecut=    80.00 Ry     beta= 0.10
     Davidson diagonalization with overlap
     ethr =  9.10E-10,  avg # of iterations =  1.0

     negative rho (up, down):  6.027E-02 0.000E+00

     total cpu time spent up to now is    50826.2 secs

     total energy              =  -11682.10528214 Ry
     estimated scf accuracy    <       0.00001338 Ry

     iteration #176     ecut=    80.00 Ry     beta= 0.10
     Davidson diagonalization with overlap
     ethr =  7.15E-10,  avg # of iterations =  1.0

     negative rho (up, down):  6.027E-02 0.000E+00

     total cpu time spent up to now is    51110.7 secs

     total energy              =  -11682.10528206 Ry
     estimated scf accuracy    <       0.00001201 Ry

     iteration #177     ecut=    80.00 Ry     beta= 0.10
     Davidson diagonalization with overlap
     ethr =  6.42E-10,  avg # of iterations =  1.0

     negative rho (up, down):  6.027E-02 0.000E+00

     total cpu time spent up to now is    51394.1 secs

     total energy              =  -11682.10528231 Ry
     estimated scf accuracy    <       0.00000953 Ry

     iteration #178     ecut=    80.00 Ry     beta= 0.10
     Davidson diagonalization with overlap
     ethr =  5.09E-10,  avg # of iterations =  1.0

     negative rho (up, down):  6.028E-02 0.000E+00

     total cpu time spent up to now is    51678.6 secs

     total energy              =  -11682.10528239 Ry
     estimated scf accuracy    <       0.00001538 Ry

     iteration #179     ecut=    80.00 Ry     beta= 0.10
     Davidson diagonalization with overlap
     ethr =  5.09E-10,  avg # of iterations =  1.0

     negative rho (up, down):  6.028E-02 0.000E+00

     total cpu time spent up to now is    51962.8 secs

     total energy              =  -11682.10528237 Ry
     estimated scf accuracy    <       0.00001859 Ry

     iteration #180     ecut=    80.00 Ry     beta= 0.10
     Davidson diagonalization with overlap
     ethr =  5.09E-10,  avg # of iterations =  1.0

     negative rho (up, down):  6.028E-02 0.000E+00

     total cpu time spent up to now is    52248.0 secs

     total energy              =  -11682.10528220 Ry
     estimated scf accuracy    <       0.00004160 Ry

     iteration #181     ecut=    80.00 Ry     beta= 0.10
     Davidson diagonalization with overlap
     ethr =  5.09E-10,  avg # of iterations =  1.0

     negative rho (up, down):  6.028E-02 0.000E+00

     total cpu time spent up to now is    52531.9 secs

     total energy              =  -11682.10528222 Ry
     estimated scf accuracy    <       0.00003318 Ry

     iteration #182     ecut=    80.00 Ry     beta= 0.10
     Davidson diagonalization with overlap
     ethr =  5.09E-10,  avg # of iterations =  1.0

     negative rho (up, down):  6.028E-02 0.000E+00

     total cpu time spent up to now is    52818.2 secs

     total energy              =  -11682.10528242 Ry
     estimated scf accuracy    <       0.00002726 Ry

     iteration #183     ecut=    80.00 Ry     beta= 0.10
     Davidson diagonalization with overlap
     ethr =  5.09E-10,  avg # of iterations =  1.0

     negative rho (up, down):  6.028E-02 0.000E+00

     total cpu time spent up to now is    53102.3 secs

     total energy              =  -11682.10528258 Ry
     estimated scf accuracy    <       0.00001294 Ry

     iteration #184     ecut=    80.00 Ry     beta= 0.10
     Davidson diagonalization with overlap
     ethr =  5.09E-10,  avg # of iterations =  1.0

     negative rho (up, down):  6.028E-02 0.000E+00

     total cpu time spent up to now is    53386.2 secs

     total energy              =  -11682.10528247 Ry
     estimated scf accuracy    <       0.00002585 Ry

     iteration #185     ecut=    80.00 Ry     beta= 0.10
     Davidson diagonalization with overlap
     ethr =  5.09E-10,  avg # of iterations =  1.0

     negative rho (up, down):  6.028E-02 0.000E+00

     total cpu time spent up to now is    53672.7 secs

     total energy              =  -11682.10528272 Ry
     estimated scf accuracy    <       0.00001178 Ry

     iteration #186     ecut=    80.00 Ry     beta= 0.10
     Davidson diagonalization with overlap
     ethr =  5.09E-10,  avg # of iterations =  1.0

     negative rho (up, down):  6.028E-02 0.000E+00

     total cpu time spent up to now is    53957.9 secs

     total energy              =  -11682.10528266 Ry
     estimated scf accuracy    <       0.00000703 Ry

     iteration #187     ecut=    80.00 Ry     beta= 0.10
     Davidson diagonalization with overlap
     ethr =  3.76E-10,  avg # of iterations =  1.0

     negative rho (up, down):  6.028E-02 0.000E+00

     total cpu time spent up to now is    54241.9 secs

     total energy              =  -11682.10528283 Ry
     estimated scf accuracy    <       0.00000500 Ry

     iteration #188     ecut=    80.00 Ry     beta= 0.10
     Davidson diagonalization with overlap
     ethr =  2.67E-10,  avg # of iterations =  1.0

     negative rho (up, down):  6.028E-02 0.000E+00

     total cpu time spent up to now is    54527.0 secs

     total energy              =  -11682.10528288 Ry
     estimated scf accuracy    <       0.00000455 Ry

     iteration #189     ecut=    80.00 Ry     beta= 0.10
     Davidson diagonalization with overlap
     ethr =  2.43E-10,  avg # of iterations =  1.0

     negative rho (up, down):  6.028E-02 0.000E+00

     total cpu time spent up to now is    54810.9 secs

     total energy              =  -11682.10528292 Ry
     estimated scf accuracy    <       0.00000564 Ry

     iteration #190     ecut=    80.00 Ry     beta= 0.10
     Davidson diagonalization with overlap
     ethr =  2.43E-10,  avg # of iterations =  1.0

     negative rho (up, down):  6.028E-02 0.000E+00

     total cpu time spent up to now is    55094.6 secs

     total energy              =  -11682.10528287 Ry
     estimated scf accuracy    <       0.00001500 Ry

     iteration #191     ecut=    80.00 Ry     beta= 0.10
     Davidson diagonalization with overlap
     ethr =  2.43E-10,  avg # of iterations =  1.0

     negative rho (up, down):  6.028E-02 0.000E+00

     total cpu time spent up to now is    55379.5 secs

     total energy              =  -11682.10528281 Ry
     estimated scf accuracy    <       0.00001515 Ry

     iteration #192     ecut=    80.00 Ry     beta= 0.10
     Davidson diagonalization with overlap
     ethr =  2.43E-10,  avg # of iterations =  1.0

     negative rho (up, down):  6.028E-02 0.000E+00

     total cpu time spent up to now is    55663.6 secs

     total energy              =  -11682.10528285 Ry
     estimated scf accuracy    <       0.00001898 Ry

     iteration #193     ecut=    80.00 Ry     beta= 0.10
     Davidson diagonalization with overlap
     ethr =  2.43E-10,  avg # of iterations =  1.0

     negative rho (up, down):  6.028E-02 0.000E+00

     total cpu time spent up to now is    55946.9 secs

     total energy              =  -11682.10528303 Ry
     estimated scf accuracy    <       0.00000959 Ry

     iteration #194     ecut=    80.00 Ry     beta= 0.10
     Davidson diagonalization with overlap
     ethr =  2.43E-10,  avg # of iterations =  1.0

     negative rho (up, down):  6.028E-02 0.000E+00

     total cpu time spent up to now is    56231.2 secs

     total energy              =  -11682.10528291 Ry
     estimated scf accuracy    <       0.00001622 Ry

     iteration #195     ecut=    80.00 Ry     beta= 0.10
     Davidson diagonalization with overlap
     ethr =  2.43E-10,  avg # of iterations =  1.0

     negative rho (up, down):  6.028E-02 0.000E+00

     total cpu time spent up to now is    56519.3 secs

     total energy              =  -11682.10528302 Ry
     estimated scf accuracy    <       0.00001125 Ry

     iteration #196     ecut=    80.00 Ry     beta= 0.10
     Davidson diagonalization with overlap
     ethr =  2.43E-10,  avg # of iterations =  1.0

     negative rho (up, down):  6.028E-02 0.000E+00

     total cpu time spent up to now is    56804.0 secs

     total energy              =  -11682.10528299 Ry
     estimated scf accuracy    <       0.00000486 Ry

     iteration #197     ecut=    80.00 Ry     beta= 0.10
     Davidson diagonalization with overlap
     ethr =  2.43E-10,  avg # of iterations =  1.0

     negative rho (up, down):  6.028E-02 0.000E+00

     total cpu time spent up to now is    57088.8 secs

     total energy              =  -11682.10528309 Ry
     estimated scf accuracy    <       0.00000467 Ry

     iteration #198     ecut=    80.00 Ry     beta= 0.10
     Davidson diagonalization with overlap
     ethr =  2.43E-10,  avg # of iterations =  1.0

     negative rho (up, down):  6.028E-02 0.000E+00

     total cpu time spent up to now is    57373.4 secs

     total energy              =  -11682.10528312 Ry
     estimated scf accuracy    <       0.00000240 Ry

     iteration #199     ecut=    80.00 Ry     beta= 0.10
     Davidson diagonalization with overlap
     ethr =  1.28E-10,  avg # of iterations =  1.0

     negative rho (up, down):  6.028E-02 0.000E+00

     total cpu time spent up to now is    57657.5 secs

     total energy              =  -11682.10528316 Ry
     estimated scf accuracy    <       0.00000220 Ry

     iteration #200     ecut=    80.00 Ry     beta= 0.10
     Davidson diagonalization with overlap
     ethr =  1.18E-10,  avg # of iterations =  1.0

     negative rho (up, down):  6.028E-02 0.000E+00

     total cpu time spent up to now is    57941.6 secs

     total energy              =  -11682.10528316 Ry
     estimated scf accuracy    <       0.00000487 Ry

     iteration #201     ecut=    80.00 Ry     beta= 0.10
     Davidson diagonalization with overlap
     ethr =  1.18E-10,  avg # of iterations =  1.0

     negative rho (up, down):  6.028E-02 0.000E+00

     total cpu time spent up to now is    58225.6 secs

     total energy              =  -11682.10528314 Ry
     estimated scf accuracy    <       0.00000513 Ry

     iteration #202     ecut=    80.00 Ry     beta= 0.10
     Davidson diagonalization with overlap
     ethr =  1.18E-10,  avg # of iterations =  1.0

     negative rho (up, down):  6.028E-02 0.000E+00

     total cpu time spent up to now is    58510.2 secs

     total energy              =  -11682.10528312 Ry
     estimated scf accuracy    <       0.00000935 Ry

     iteration #203     ecut=    80.00 Ry     beta= 0.10
     Davidson diagonalization with overlap
     ethr =  1.18E-10,  avg # of iterations =  1.0

     negative rho (up, down):  6.029E-02 0.000E+00

     total cpu time spent up to now is    58793.9 secs

     total energy              =  -11682.10528323 Ry
     estimated scf accuracy    <       0.00000554 Ry

     iteration #204     ecut=    80.00 Ry     beta= 0.10
     Davidson diagonalization with overlap
     ethr =  1.18E-10,  avg # of iterations =  1.0

     negative rho (up, down):  6.029E-02 0.000E+00

     total cpu time spent up to now is    59078.2 secs

     total energy              =  -11682.10528319 Ry
     estimated scf accuracy    <       0.00000612 Ry

     iteration #205     ecut=    80.00 Ry     beta= 0.10
     Davidson diagonalization with overlap
     ethr =  1.18E-10,  avg # of iterations =  1.0

     negative rho (up, down):  6.029E-02 0.000E+00

     total cpu time spent up to now is    59362.8 secs

     total energy              =  -11682.10528320 Ry
     estimated scf accuracy    <       0.00000714 Ry

     iteration #206     ecut=    80.00 Ry     beta= 0.10
     Davidson diagonalization with overlap
     ethr =  1.18E-10,  avg # of iterations =  1.0

     negative rho (up, down):  6.029E-02 0.000E+00

     total cpu time spent up to now is    59647.6 secs

     total energy              =  -11682.10528317 Ry
     estimated scf accuracy    <       0.00000292 Ry

     iteration #207     ecut=    80.00 Ry     beta= 0.10
     Davidson diagonalization with overlap
     ethr =  1.18E-10,  avg # of iterations =  1.0

     negative rho (up, down):  6.029E-02 0.000E+00

     total cpu time spent up to now is    59932.3 secs

     total energy              =  -11682.10528322 Ry
     estimated scf accuracy    <       0.00000647 Ry

     iteration #208     ecut=    80.00 Ry     beta= 0.10
     Davidson diagonalization with overlap
     ethr =  1.18E-10,  avg # of iterations =  1.0

     negative rho (up, down):  6.029E-02 0.000E+00

     total cpu time spent up to now is    60216.7 secs

     total energy              =  -11682.10528325 Ry
     estimated scf accuracy    <       0.00000215 Ry

     iteration #209     ecut=    80.00 Ry     beta= 0.10
     Davidson diagonalization with overlap
     ethr =  1.15E-10,  avg # of iterations =  1.0

     negative rho (up, down):  6.029E-02 0.000E+00

     total cpu time spent up to now is    60501.3 secs

     total energy              =  -11682.10528328 Ry
     estimated scf accuracy    <       0.00000139 Ry

     iteration #210     ecut=    80.00 Ry     beta= 0.10
     Davidson diagonalization with overlap
     ethr =  7.44E-11,  avg # of iterations =  1.0

     negative rho (up, down):  6.029E-02 0.000E+00

     total cpu time spent up to now is    60787.2 secs

     total energy              =  -11682.10528328 Ry
     estimated scf accuracy    <       0.00000192 Ry

     iteration #211     ecut=    80.00 Ry     beta= 0.10
     Davidson diagonalization with overlap
     ethr =  7.44E-11,  avg # of iterations =  1.0

     negative rho (up, down):  6.029E-02 0.000E+00

     total cpu time spent up to now is    61071.6 secs

     total energy              =  -11682.10528328 Ry
     estimated scf accuracy    <       0.00000163 Ry

     iteration #212     ecut=    80.00 Ry     beta= 0.10
     Davidson diagonalization with overlap
     ethr =  7.44E-11,  avg # of iterations =  1.0

     negative rho (up, down):  6.029E-02 0.000E+00

     total cpu time spent up to now is    61355.5 secs

     total energy              =  -11682.10528327 Ry
     estimated scf accuracy    <       0.00000357 Ry

     iteration #213     ecut=    80.00 Ry     beta= 0.10
     Davidson diagonalization with overlap
     ethr =  7.44E-11,  avg # of iterations =  1.0

     negative rho (up, down):  6.029E-02 0.000E+00

     total cpu time spent up to now is    61640.5 secs

     total energy              =  -11682.10528331 Ry
     estimated scf accuracy    <       0.00000228 Ry

     iteration #214     ecut=    80.00 Ry     beta= 0.10
     Davidson diagonalization with overlap
     ethr =  7.44E-11,  avg # of iterations =  1.0

     negative rho (up, down):  6.029E-02 0.000E+00

     total cpu time spent up to now is    61924.9 secs

     total energy              =  -11682.10528331 Ry
     estimated scf accuracy    <       0.00000164 Ry

     iteration #215     ecut=    80.00 Ry     beta= 0.10
     Davidson diagonalization with overlap
     ethr =  7.44E-11,  avg # of iterations =  1.0

     negative rho (up, down):  6.029E-02 0.000E+00

     total cpu time spent up to now is    62208.6 secs

     total energy              =  -11682.10528330 Ry
     estimated scf accuracy    <       0.00000289 Ry

     iteration #216     ecut=    80.00 Ry     beta= 0.10
     Davidson diagonalization with overlap
     ethr =  7.44E-11,  avg # of iterations =  1.0

     negative rho (up, down):  6.029E-02 0.000E+00

     total cpu time spent up to now is    62493.1 secs

     total energy              =  -11682.10528329 Ry
     estimated scf accuracy    <       0.00000144 Ry

     iteration #217     ecut=    80.00 Ry     beta= 0.10
     Davidson diagonalization with overlap
     ethr =  7.44E-11,  avg # of iterations =  1.0

     negative rho (up, down):  6.029E-02 0.000E+00

     total cpu time spent up to now is    62777.0 secs

     total energy              =  -11682.10528328 Ry
     estimated scf accuracy    <       0.00000753 Ry

     iteration #218     ecut=    80.00 Ry     beta= 0.10
     Davidson diagonalization with overlap
     ethr =  7.44E-11,  avg # of iterations =  1.0

     negative rho (up, down):  6.029E-02 0.000E+00

     total cpu time spent up to now is    63061.6 secs

     total energy              =  -11682.10528332 Ry
     estimated scf accuracy    <       0.00000163 Ry

     iteration #219     ecut=    80.00 Ry     beta= 0.10
     Davidson diagonalization with overlap
     ethr =  7.44E-11,  avg # of iterations =  1.0

     negative rho (up, down):  6.029E-02 0.000E+00

     total cpu time spent up to now is    63346.4 secs

     total energy              =  -11682.10528333 Ry
     estimated scf accuracy    <       0.00000114 Ry

     iteration #220     ecut=    80.00 Ry     beta= 0.10
     Davidson diagonalization with overlap
     ethr =  6.10E-11,  avg # of iterations =  1.0

     negative rho (up, down):  6.029E-02 0.000E+00

     total cpu time spent up to now is    63630.8 secs

     total energy              =  -11682.10528334 Ry
     estimated scf accuracy    <       0.00000113 Ry

     iteration #221     ecut=    80.00 Ry     beta= 0.10
     Davidson diagonalization with overlap
     ethr =  6.06E-11,  avg # of iterations =  1.0

     negative rho (up, down):  6.029E-02 0.000E+00

     total cpu time spent up to now is    63914.3 secs

     total energy              =  -11682.10528334 Ry
     estimated scf accuracy    <       0.00000069 Ry

     iteration #222     ecut=    80.00 Ry     beta= 0.10
     Davidson diagonalization with overlap
     ethr =  3.71E-11,  avg # of iterations =  1.0

     negative rho (up, down):  6.029E-02 0.000E+00

     total cpu time spent up to now is    64198.9 secs

     total energy              =  -11682.10528333 Ry
     estimated scf accuracy    <       0.00000142 Ry

     iteration #223     ecut=    80.00 Ry     beta= 0.10
     Davidson diagonalization with overlap
     ethr =  3.71E-11,  avg # of iterations =  1.0

     negative rho (up, down):  6.029E-02 0.000E+00

     total cpu time spent up to now is    64483.0 secs

     total energy              =  -11682.10528335 Ry
     estimated scf accuracy    <       0.00000096 Ry

     iteration #224     ecut=    80.00 Ry     beta= 0.10
     Davidson diagonalization with overlap
     ethr =  3.71E-11,  avg # of iterations =  1.0

     negative rho (up, down):  6.029E-02 0.000E+00

     total cpu time spent up to now is    64767.4 secs

     total energy              =  -11682.10528335 Ry
     estimated scf accuracy    <       0.00000042 Ry

     iteration #225     ecut=    80.00 Ry     beta= 0.10
     Davidson diagonalization with overlap
     ethr =  2.22E-11,  avg # of iterations =  1.0

     negative rho (up, down):  6.029E-02 0.000E+00

     total cpu time spent up to now is    65050.9 secs

     total energy              =  -11682.10528335 Ry
     estimated scf accuracy    <       0.00000088 Ry

     iteration #226     ecut=    80.00 Ry     beta= 0.10
     Davidson diagonalization with overlap
     ethr =  2.22E-11,  avg # of iterations =  1.0

     negative rho (up, down):  6.029E-02 0.000E+00

     total cpu time spent up to now is    65335.3 secs

     total energy              =  -11682.10528335 Ry
     estimated scf accuracy    <       0.00000059 Ry

     iteration #227     ecut=    80.00 Ry     beta= 0.10
     Davidson diagonalization with overlap
     ethr =  2.22E-11,  avg # of iterations =  1.0

     negative rho (up, down):  6.029E-02 0.000E+00

     total cpu time spent up to now is    65619.3 secs

     total energy              =  -11682.10528333 Ry
     estimated scf accuracy    <       0.00000379 Ry

     iteration #228     ecut=    80.00 Ry     beta= 0.10
     Davidson diagonalization with overlap
     ethr =  2.22E-11,  avg # of iterations =  1.0

     negative rho (up, down):  6.029E-02 0.000E+00

     total cpu time spent up to now is    65904.1 secs

     total energy              =  -11682.10528335 Ry
     estimated scf accuracy    <       0.00000083 Ry

     iteration #229     ecut=    80.00 Ry     beta= 0.10
     Davidson diagonalization with overlap
     ethr =  2.22E-11,  avg # of iterations =  1.0

     negative rho (up, down):  6.029E-02 0.000E+00

     total cpu time spent up to now is    66188.7 secs

     total energy              =  -11682.10528335 Ry
     estimated scf accuracy    <       0.00000091 Ry

     iteration #230     ecut=    80.00 Ry     beta= 0.10
     Davidson diagonalization with overlap
     ethr =  2.22E-11,  avg # of iterations =  1.0

     negative rho (up, down):  6.029E-02 0.000E+00

     total cpu time spent up to now is    66473.0 secs

     total energy              =  -11682.10528336 Ry
     estimated scf accuracy    <       0.00000090 Ry

     iteration #231     ecut=    80.00 Ry     beta= 0.10
     Davidson diagonalization with overlap
     ethr =  2.22E-11,  avg # of iterations =  1.0

     negative rho (up, down):  6.029E-02 0.000E+00

     total cpu time spent up to now is    66757.2 secs

     total energy              =  -11682.10528336 Ry
     estimated scf accuracy    <       0.00000046 Ry

     iteration #232     ecut=    80.00 Ry     beta= 0.10
     Davidson diagonalization with overlap
     ethr =  2.22E-11,  avg # of iterations =  1.0

     negative rho (up, down):  6.029E-02 0.000E+00

     total cpu time spent up to now is    67042.4 secs

     total energy              =  -11682.10528336 Ry
     estimated scf accuracy    <       0.00000088 Ry

     iteration #233     ecut=    80.00 Ry     beta= 0.10
     Davidson diagonalization with overlap
     ethr =  2.22E-11,  avg # of iterations =  1.0

     negative rho (up, down):  6.029E-02 0.000E+00

     total cpu time spent up to now is    67326.5 secs

     total energy              =  -11682.10528336 Ry
     estimated scf accuracy    <       0.00000076 Ry

     iteration #234     ecut=    80.00 Ry     beta= 0.10
     Davidson diagonalization with overlap
     ethr =  2.22E-11,  avg # of iterations =  1.0

     negative rho (up, down):  6.029E-02 0.000E+00

     total cpu time spent up to now is    67611.5 secs

     total energy              =  -11682.10528337 Ry
     estimated scf accuracy    <       0.00000017 Ry

     iteration #235     ecut=    80.00 Ry     beta= 0.10
     Davidson diagonalization with overlap
     ethr =  9.33E-12,  avg # of iterations =  1.0

     negative rho (up, down):  6.029E-02 0.000E+00

     total cpu time spent up to now is    67895.2 secs

     total energy              =  -11682.10528336 Ry
     estimated scf accuracy    <       0.00000028 Ry

     iteration #236     ecut=    80.00 Ry     beta= 0.10
     Davidson diagonalization with overlap
     ethr =  9.33E-12,  avg # of iterations =  1.0

     negative rho (up, down):  6.029E-02 0.000E+00

     total cpu time spent up to now is    68179.0 secs

     total energy              =  -11682.10528337 Ry
     estimated scf accuracy    <       0.00000021 Ry

     iteration #237     ecut=    80.00 Ry     beta= 0.10
     Davidson diagonalization with overlap
     ethr =  9.33E-12,  avg # of iterations =  1.0

     negative rho (up, down):  6.029E-02 0.000E+00

     total cpu time spent up to now is    68463.4 secs

     total energy              =  -11682.10528336 Ry
     estimated scf accuracy    <       0.00000098 Ry

     iteration #238     ecut=    80.00 Ry     beta= 0.10
     Davidson diagonalization with overlap
     ethr =  9.33E-12,  avg # of iterations =  1.0

     negative rho (up, down):  6.029E-02 0.000E+00

     total cpu time spent up to now is    68747.8 secs

     total energy              =  -11682.10528337 Ry
     estimated scf accuracy    <       0.00000031 Ry

     iteration #239     ecut=    80.00 Ry     beta= 0.10
     Davidson diagonalization with overlap
     ethr =  9.33E-12,  avg # of iterations =  1.0

     negative rho (up, down):  6.029E-02 0.000E+00

     total cpu time spent up to now is    69031.7 secs

     total energy              =  -11682.10528336 Ry
     estimated scf accuracy    <       0.00000061 Ry

     iteration #240     ecut=    80.00 Ry     beta= 0.10
     Davidson diagonalization with overlap
     ethr =  9.33E-12,  avg # of iterations =  1.0

     negative rho (up, down):  6.029E-02 0.000E+00

     total cpu time spent up to now is    69316.1 secs

     total energy              =  -11682.10528337 Ry
     estimated scf accuracy    <       0.00000067 Ry

     iteration #241     ecut=    80.00 Ry     beta= 0.10
     Davidson diagonalization with overlap
     ethr =  9.33E-12,  avg # of iterations =  1.0

     negative rho (up, down):  6.029E-02 0.000E+00

     total cpu time spent up to now is    69600.4 secs

     total energy              =  -11682.10528337 Ry
     estimated scf accuracy    <       0.00000033 Ry

     iteration #242     ecut=    80.00 Ry     beta= 0.10
     Davidson diagonalization with overlap
     ethr =  9.33E-12,  avg # of iterations =  1.0

     negative rho (up, down):  6.029E-02 0.000E+00

     total cpu time spent up to now is    69885.3 secs

     total energy              =  -11682.10528337 Ry
     estimated scf accuracy    <       0.00000068 Ry

     iteration #243     ecut=    80.00 Ry     beta= 0.10
     Davidson diagonalization with overlap
     ethr =  9.33E-12,  avg # of iterations =  1.0

     negative rho (up, down):  6.029E-02 0.000E+00

     total cpu time spent up to now is    70168.9 secs

     total energy              =  -11682.10528336 Ry
     estimated scf accuracy    <       0.00000092 Ry

     iteration #244     ecut=    80.00 Ry     beta= 0.10
     Davidson diagonalization with overlap
     ethr =  9.33E-12,  avg # of iterations =  1.0

     negative rho (up, down):  6.029E-02 0.000E+00

     total cpu time spent up to now is    70453.1 secs

     total energy              =  -11682.10528337 Ry
     estimated scf accuracy    <       0.00000014 Ry

     iteration #245     ecut=    80.00 Ry     beta= 0.10
     Davidson diagonalization with overlap
     ethr =  7.53E-12,  avg # of iterations =  1.0

     negative rho (up, down):  6.029E-02 0.000E+00

     total cpu time spent up to now is    70738.0 secs

     total energy              =  -11682.10528337 Ry
     estimated scf accuracy    <       0.00000013 Ry

     iteration #246     ecut=    80.00 Ry     beta= 0.10
     Davidson diagonalization with overlap
     ethr =  7.15E-12,  avg # of iterations =  1.0

     negative rho (up, down):  6.029E-02 0.000E+00

     total cpu time spent up to now is    71021.2 secs

     total energy              =  -11682.10528337 Ry
     estimated scf accuracy    <       0.00000008 Ry

     iteration #247     ecut=    80.00 Ry     beta= 0.10
     Davidson diagonalization with overlap
     ethr =  4.44E-12,  avg # of iterations =  1.0

     negative rho (up, down):  6.029E-02 0.000E+00

     total cpu time spent up to now is    71306.0 secs

     total energy              =  -11682.10528337 Ry
     estimated scf accuracy    <       0.00000020 Ry

     iteration #248     ecut=    80.00 Ry     beta= 0.10
     Davidson diagonalization with overlap
     ethr =  4.44E-12,  avg # of iterations =  1.0

     negative rho (up, down):  6.029E-02 0.000E+00

     total cpu time spent up to now is    71590.9 secs

     total energy              =  -11682.10528337 Ry
     estimated scf accuracy    <       0.00000013 Ry

     iteration #249     ecut=    80.00 Ry     beta= 0.10
     Davidson diagonalization with overlap
     ethr =  4.44E-12,  avg # of iterations =  1.0

     negative rho (up, down):  6.029E-02 0.000E+00

     total cpu time spent up to now is    71874.8 secs

     total energy              =  -11682.10528337 Ry
     estimated scf accuracy    <       0.00000029 Ry

     iteration #250     ecut=    80.00 Ry     beta= 0.10
     Davidson diagonalization with overlap
     ethr =  4.44E-12,  avg # of iterations =  1.0

     negative rho (up, down):  6.029E-02 0.000E+00

     total cpu time spent up to now is    72159.2 secs

     total energy              =  -11682.10528337 Ry
     estimated scf accuracy    <       0.00000035 Ry

     iteration #251     ecut=    80.00 Ry     beta= 0.10
     Davidson diagonalization with overlap
     ethr =  4.44E-12,  avg # of iterations =  1.0

     negative rho (up, down):  6.029E-02 0.000E+00

     total cpu time spent up to now is    72445.4 secs

     total energy              =  -11682.10528337 Ry
     estimated scf accuracy    <       0.00000018 Ry

     iteration #252     ecut=    80.00 Ry     beta= 0.10
     Davidson diagonalization with overlap
     ethr =  4.44E-12,  avg # of iterations =  1.0

     negative rho (up, down):  6.029E-02 0.000E+00

     total cpu time spent up to now is    72728.8 secs

     total energy              =  -11682.10528337 Ry
     estimated scf accuracy    <       0.00000041 Ry

     iteration #253     ecut=    80.00 Ry     beta= 0.10
     Davidson diagonalization with overlap
     ethr =  4.44E-12,  avg # of iterations =  1.0

     negative rho (up, down):  6.029E-02 0.000E+00

     total cpu time spent up to now is    73012.7 secs

     total energy              =  -11682.10528337 Ry
     estimated scf accuracy    <       0.00000074 Ry

     iteration #254     ecut=    80.00 Ry     beta= 0.10
     Davidson diagonalization with overlap
     ethr =  4.44E-12,  avg # of iterations =  1.0

     negative rho (up, down):  6.029E-02 0.000E+00

     total cpu time spent up to now is    73297.0 secs

     total energy              =  -11682.10528337 Ry
     estimated scf accuracy    <       0.00000014 Ry

     iteration #255     ecut=    80.00 Ry     beta= 0.10
     Davidson diagonalization with overlap
     ethr =  4.44E-12,  avg # of iterations =  1.0

     negative rho (up, down):  6.029E-02 0.000E+00

     total cpu time spent up to now is    73581.9 secs

     total energy              =  -11682.10528337 Ry
     estimated scf accuracy    <       0.00000010 Ry

     iteration #256     ecut=    80.00 Ry     beta= 0.10
     Davidson diagonalization with overlap
     ethr =  4.44E-12,  avg # of iterations =  1.0

     negative rho (up, down):  6.029E-02 0.000E+00

     total cpu time spent up to now is    73866.2 secs

     total energy              =  -11682.10528337 Ry
     estimated scf accuracy    <       0.00000006 Ry

     iteration #257     ecut=    80.00 Ry     beta= 0.10
     Davidson diagonalization with overlap
     ethr =  2.97E-12,  avg # of iterations =  1.0

     negative rho (up, down):  6.029E-02 0.000E+00

     total cpu time spent up to now is    74151.4 secs

     total energy              =  -11682.10528337 Ry
     estimated scf accuracy    <       0.00000006 Ry

     iteration #258     ecut=    80.00 Ry     beta= 0.10
     Davidson diagonalization with overlap
     ethr =  2.97E-12,  avg # of iterations =  1.0

     negative rho (up, down):  6.029E-02 0.000E+00

     total cpu time spent up to now is    74435.3 secs

     total energy              =  -11682.10528337 Ry
     estimated scf accuracy    <       0.00000008 Ry

     iteration #259     ecut=    80.00 Ry     beta= 0.10
     Davidson diagonalization with overlap
     ethr =  2.97E-12,  avg # of iterations =  1.0

     negative rho (up, down):  6.029E-02 0.000E+00

     total cpu time spent up to now is    74719.7 secs

     total energy              =  -11682.10528337 Ry
     estimated scf accuracy    <       0.00000008 Ry

     iteration #260     ecut=    80.00 Ry     beta= 0.10
     Davidson diagonalization with overlap
     ethr =  2.97E-12,  avg # of iterations =  1.0

     negative rho (up, down):  6.029E-02 0.000E+00

     total cpu time spent up to now is    75003.4 secs

     total energy              =  -11682.10528337 Ry
     estimated scf accuracy    <       0.00000017 Ry

     iteration #261     ecut=    80.00 Ry     beta= 0.10
     Davidson diagonalization with overlap
     ethr =  2.97E-12,  avg # of iterations =  1.0

     negative rho (up, down):  6.029E-02 0.000E+00

     total cpu time spent up to now is    75287.3 secs

     total energy              =  -11682.10528337 Ry
     estimated scf accuracy    <       0.00000009 Ry

     iteration #262     ecut=    80.00 Ry     beta= 0.10
     Davidson diagonalization with overlap
     ethr =  2.97E-12,  avg # of iterations =  1.0

     negative rho (up, down):  6.029E-02 0.000E+00

     total cpu time spent up to now is    75571.7 secs

     total energy              =  -11682.10528337 Ry
     estimated scf accuracy    <       0.00000015 Ry

     iteration #263     ecut=    80.00 Ry     beta= 0.10
     Davidson diagonalization with overlap
     ethr =  2.97E-12,  avg # of iterations =  1.0

     negative rho (up, down):  6.029E-02 0.000E+00

     total cpu time spent up to now is    75855.6 secs

     total energy              =  -11682.10528337 Ry
     estimated scf accuracy    <       0.00000028 Ry

     iteration #264     ecut=    80.00 Ry     beta= 0.10
     Davidson diagonalization with overlap
     ethr =  2.97E-12,  avg # of iterations =  1.0

     negative rho (up, down):  6.029E-02 0.000E+00

     total cpu time spent up to now is    76139.5 secs

     total energy              =  -11682.10528337 Ry
     estimated scf accuracy    <       0.00000013 Ry

     iteration #265     ecut=    80.00 Ry     beta= 0.10
     Davidson diagonalization with overlap
     ethr =  2.97E-12,  avg # of iterations =  1.0

     negative rho (up, down):  6.029E-02 0.000E+00

     total cpu time spent up to now is    76423.4 secs

     total energy              =  -11682.10528337 Ry
     estimated scf accuracy    <       0.00000009 Ry

     iteration #266     ecut=    80.00 Ry     beta= 0.10
     Davidson diagonalization with overlap
     ethr =  2.97E-12,  avg # of iterations =  1.0

     negative rho (up, down):  6.029E-02 0.000E+00

     total cpu time spent up to now is    76707.2 secs

     total energy              =  -11682.10528337 Ry
     estimated scf accuracy    <       0.00000006 Ry

     iteration #267     ecut=    80.00 Ry     beta= 0.10
     Davidson diagonalization with overlap
     ethr =  2.97E-12,  avg # of iterations =  1.0

     negative rho (up, down):  6.029E-02 0.000E+00

     total cpu time spent up to now is    76990.7 secs

     total energy              =  -11682.10528337 Ry
     estimated scf accuracy    <       0.00000004 Ry

     iteration #268     ecut=    80.00 Ry     beta= 0.10
     Davidson diagonalization with overlap
     ethr =  2.06E-12,  avg # of iterations =  1.0

     negative rho (up, down):  6.029E-02 0.000E+00

     total cpu time spent up to now is    77275.0 secs

     total energy              =  -11682.10528337 Ry
     estimated scf accuracy    <       0.00000007 Ry

     iteration #269     ecut=    80.00 Ry     beta= 0.10
     Davidson diagonalization with overlap
     ethr =  2.06E-12,  avg # of iterations =  1.0

     negative rho (up, down):  6.029E-02 0.000E+00

     total cpu time spent up to now is    77558.5 secs

     total energy              =  -11682.10528337 Ry
     estimated scf accuracy    <       0.00000003 Ry

     iteration #270     ecut=    80.00 Ry     beta= 0.10
     Davidson diagonalization with overlap
     ethr =  1.56E-12,  avg # of iterations =  1.0

     negative rho (up, down):  6.029E-02 0.000E+00

     total cpu time spent up to now is    77843.1 secs

     total energy              =  -11682.10528336 Ry
     estimated scf accuracy    <       0.00000007 Ry

     iteration #271     ecut=    80.00 Ry     beta= 0.10
     Davidson diagonalization with overlap
     ethr =  1.56E-12,  avg # of iterations =  1.0

     negative rho (up, down):  6.029E-02 0.000E+00

     total cpu time spent up to now is    78127.2 secs

     total energy              =  -11682.10528336 Ry
     estimated scf accuracy    <       0.00000003 Ry

     iteration #272     ecut=    80.00 Ry     beta= 0.10
     Davidson diagonalization with overlap
     ethr =  1.56E-12,  avg # of iterations =  1.0

     negative rho (up, down):  6.029E-02 0.000E+00

     total cpu time spent up to now is    78410.7 secs

     total energy              =  -11682.10528336 Ry
     estimated scf accuracy    <       0.00000004 Ry

     iteration #273     ecut=    80.00 Ry     beta= 0.10
     Davidson diagonalization with overlap
     ethr =  1.56E-12,  avg # of iterations =  1.0

     negative rho (up, down):  6.029E-02 0.000E+00

     total cpu time spent up to now is    78695.0 secs

     total energy              =  -11682.10528336 Ry
     estimated scf accuracy    <       0.00000007 Ry

     iteration #274     ecut=    80.00 Ry     beta= 0.10
     Davidson diagonalization with overlap
     ethr =  1.56E-12,  avg # of iterations =  1.0

     negative rho (up, down):  6.029E-02 0.000E+00

     total cpu time spent up to now is    78979.3 secs

     total energy              =  -11682.10528336 Ry
     estimated scf accuracy    <       0.00000008 Ry

     iteration #275     ecut=    80.00 Ry     beta= 0.10
     Davidson diagonalization with overlap
     ethr =  1.56E-12,  avg # of iterations =  1.0

     negative rho (up, down):  6.029E-02 0.000E+00

     total cpu time spent up to now is    79262.9 secs

     total energy              =  -11682.10528336 Ry
     estimated scf accuracy    <       0.00000006 Ry

     iteration #276     ecut=    80.00 Ry     beta= 0.10
     Davidson diagonalization with overlap
     ethr =  1.56E-12,  avg # of iterations =  1.0

     negative rho (up, down):  6.029E-02 0.000E+00

     total cpu time spent up to now is    79546.5 secs

     total energy              =  -11682.10528336 Ry
     estimated scf accuracy    <       0.00000006 Ry

     iteration #277     ecut=    80.00 Ry     beta= 0.10
     Davidson diagonalization with overlap
     ethr =  1.56E-12,  avg # of iterations =  1.0

     negative rho (up, down):  6.029E-02 0.000E+00

     total cpu time spent up to now is    79830.3 secs

     total energy              =  -11682.10528336 Ry
     estimated scf accuracy    <       0.00000002 Ry

     iteration #278     ecut=    80.00 Ry     beta= 0.10
     Davidson diagonalization with overlap
     ethr =  1.26E-12,  avg # of iterations =  1.0

     negative rho (up, down):  6.029E-02 0.000E+00

     total cpu time spent up to now is    80114.6 secs

     total energy              =  -11682.10528336 Ry
     estimated scf accuracy    <       0.00000005 Ry

     iteration #279     ecut=    80.00 Ry     beta= 0.10
     Davidson diagonalization with overlap
     ethr =  1.26E-12,  avg # of iterations =  1.0

     negative rho (up, down):  6.029E-02 0.000E+00

     total cpu time spent up to now is    80398.9 secs

     total energy              =  -11682.10528336 Ry
     estimated scf accuracy    <       0.00000002 Ry

     iteration #280     ecut=    80.00 Ry     beta= 0.10
     Davidson diagonalization with overlap
     ethr =  9.80E-13,  avg # of iterations =  1.0

     negative rho (up, down):  6.029E-02 0.000E+00

     total cpu time spent up to now is    80683.0 secs

     total energy              =  -11682.10528336 Ry
     estimated scf accuracy    <       0.00000004 Ry

     iteration #281     ecut=    80.00 Ry     beta= 0.10
     Davidson diagonalization with overlap
     ethr =  9.80E-13,  avg # of iterations =  1.0

     negative rho (up, down):  6.029E-02 0.000E+00

     total cpu time spent up to now is    80967.3 secs

     total energy              =  -11682.10528336 Ry
     estimated scf accuracy    <       0.00000002 Ry

     iteration #282     ecut=    80.00 Ry     beta= 0.10
     Davidson diagonalization with overlap
     ethr =  8.28E-13,  avg # of iterations =  1.0

     negative rho (up, down):  6.029E-02 0.000E+00

     total cpu time spent up to now is    81250.9 secs

     total energy              =  -11682.10528336 Ry
     estimated scf accuracy    <       0.00000001 Ry

     iteration #283     ecut=    80.00 Ry     beta= 0.10
     Davidson diagonalization with overlap
     ethr =  6.78E-13,  avg # of iterations =  1.0

     negative rho (up, down):  6.029E-02 0.000E+00

     total cpu time spent up to now is    81535.3 secs

     total energy              =  -11682.10528336 Ry
     estimated scf accuracy    <       0.00000002 Ry

     iteration #284     ecut=    80.00 Ry     beta= 0.10
     Davidson diagonalization with overlap
     ethr =  6.78E-13,  avg # of iterations =  1.0

     negative rho (up, down):  6.029E-02 0.000E+00

     total cpu time spent up to now is    81819.5 secs

     total energy              =  -11682.10528336 Ry
     estimated scf accuracy    <       0.00000004 Ry

     iteration #285     ecut=    80.00 Ry     beta= 0.10
     Davidson diagonalization with overlap
     ethr =  6.78E-13,  avg # of iterations =  1.0

     negative rho (up, down):  6.029E-02 0.000E+00

     total cpu time spent up to now is    82103.8 secs

     total energy              =  -11682.10528336 Ry
     estimated scf accuracy    <       0.00000003 Ry

     iteration #286     ecut=    80.00 Ry     beta= 0.10
     Davidson diagonalization with overlap
     ethr =  6.78E-13,  avg # of iterations =  1.0

     negative rho (up, down):  6.029E-02 0.000E+00

     total cpu time spent up to now is    82388.2 secs

     total energy              =  -11682.10528336 Ry
     estimated scf accuracy    <       0.00000003 Ry

     iteration #287     ecut=    80.00 Ry     beta= 0.10
     Davidson diagonalization with overlap
     ethr =  6.78E-13,  avg # of iterations =  1.0

     negative rho (up, down):  6.029E-02 0.000E+00

     total cpu time spent up to now is    82672.2 secs

     total energy              =  -11682.10528336 Ry
     estimated scf accuracy    <       0.00000001 Ry

     iteration #288     ecut=    80.00 Ry     beta= 0.10
     Davidson diagonalization with overlap
     ethr =  5.90E-13,  avg # of iterations =  1.0

     negative rho (up, down):  6.029E-02 0.000E+00

     total cpu time spent up to now is    82957.9 secs

     total energy              =  -11682.10528336 Ry
     estimated scf accuracy    <       0.00000003 Ry

     iteration #289     ecut=    80.00 Ry     beta= 0.10
     Davidson diagonalization with overlap
     ethr =  5.90E-13,  avg # of iterations =  1.0

     negative rho (up, down):  6.029E-02 0.000E+00

     total cpu time spent up to now is    83242.7 secs

     total energy              =  -11682.10528336 Ry
     estimated scf accuracy    <       0.00000001 Ry

     iteration #290     ecut=    80.00 Ry     beta= 0.10
     Davidson diagonalization with overlap
     ethr =  5.90E-13,  avg # of iterations =  1.0

     negative rho (up, down):  6.029E-02 0.000E+00

     total cpu time spent up to now is    83527.1 secs

     total energy              =  -11682.10528336 Ry
     estimated scf accuracy    <       0.00000003 Ry

     iteration #291     ecut=    80.00 Ry     beta= 0.10
     Davidson diagonalization with overlap
     ethr =  5.90E-13,  avg # of iterations =  1.0

     negative rho (up, down):  6.029E-02 0.000E+00

     total cpu time spent up to now is    83813.4 secs

     total energy              =  -11682.10528336 Ry
     estimated scf accuracy    <       0.00000001 Ry

     iteration #292     ecut=    80.00 Ry     beta= 0.10
     Davidson diagonalization with overlap
     ethr =  5.90E-13,  avg # of iterations =  1.0

     negative rho (up, down):  6.029E-02 0.000E+00

     total cpu time spent up to now is    84098.0 secs

     End of self-consistent calculation

          k = 0.0000 0.0000 0.0000 (****** PWs)   bands (ev):

   -58.0680 -56.2905 -55.9505 -55.9220 -55.6999 -55.6799 -55.1194 -55.0759
   -54.8484 -54.5936 -53.9559 -29.9946 -29.9774 -29.9394 -28.2413 -28.1986
   -28.1574 -27.8838 -27.8762 -27.8586 -27.8401 -27.8363 -27.8171 -27.6477
   -27.6330 -27.6054 -27.5819 -27.5680 -27.5534 -27.2208 -27.0902 -27.0301
   -27.0285 -26.9954 -26.9680 -26.9475 -26.8408 -26.7893 -26.7487 -26.5699
   -26.5312 -26.4761 -26.3448 -26.2159 -25.9630 -25.9067 -25.8787 -25.8608
   -25.8575 -25.8470 -25.7077 -25.6684 -25.6489 -25.6421 -25.5427 -25.4562
   -25.3870 -25.3266 -25.2778 -25.2206 -25.1991 -25.1453 -25.1212 -25.1038
   -25.0918 -25.0838 -25.0362 -24.9960 -24.9868 -24.9754 -24.9402 -24.9395
   -24.8896 -24.8754 -24.8472 -24.8237 -24.7975 -24.7583 -24.7346 -24.7160
   -24.6982 -24.6950 -24.6609 -24.6399 -24.6249 -24.6007 -24.5774 -24.5437
   -24.5302 -24.4954 -24.4918 -24.4675 -24.4533 -24.4262 -24.4158 -24.3940
   -24.3814 -24.3548 -24.3476 -24.3341 -24.3061 -24.3002 -24.2738 -24.2630
   -24.2407 -24.2147 -24.1947 -24.1868 -24.1705 -24.1509 -24.1372 -24.1102
   -24.0793 -24.0650 -24.0522 -24.0307 -24.0147 -23.9882 -23.9592 -23.9558
   -23.9022 -23.8813 -23.8779 -23.8620 -23.8453 -23.8298 -23.8206 -23.8083
   -23.7934 -23.7878 -23.7810 -23.7730 -23.7646 -23.7549 -23.7249 -23.7111
   -23.6970 -23.6907 -23.6772 -23.6511 -23.6454 -23.6322 -23.6133 -23.6034
   -23.5923 -23.5793 -23.5628 -23.5315 -23.5048 -23.4947 -23.4780 -23.4758
   -23.4483 -23.4342 -23.4303 -23.3971 -23.3904 -23.3796 -23.3679 -23.3495
   -23.3386 -23.3094 -23.3014 -23.2835 -23.2740 -23.2447 -23.2357 -23.2143
   -23.2133 -23.1894 -23.1779 -23.1698 -23.1506 -23.1411 -23.1398 -23.1249
   -23.1074 -23.0992 -23.0841 -23.0469 -23.0190 -22.9993 -22.9943 -22.9785
   -22.9700 -22.9480 -22.9343 -22.9217 -22.9167 -22.8892 -22.8816 -22.8638
   -22.8560 -22.8382 -22.8018 -22.7944 -22.7915 -22.7858 -22.7543 -22.7492
   -22.7284 -22.6516 -22.6172 -22.6076 -22.5639 -22.5413 -22.4905 -22.4834
   -22.4779 -22.4736 -22.4695 -22.4149 -22.3534 -22.3330 -22.3269 -22.3074
   -22.2965 -22.2616 -22.2009 -22.1182 -22.0735 -22.0650 -22.0229 -21.9262
   -21.7387 -21.6693 -21.6648 -21.6441 -21.5949 -21.5415 -21.5182 -21.4821
   -21.4176 -21.3955 -20.7319 -20.6849 -20.6517 -20.6425 -20.6412 -20.6140
   -20.6118 -20.5595 -20.5565 -20.4506 -20.4500 -20.2522 -20.1692 -20.1611
   -20.1021 -19.9170 -19.8235 -19.8212 -19.8191 -19.8067 -19.8018 -19.8008
   -19.7978 -19.7710 -19.7635 -19.7553 -19.6913 -18.9884 -18.6116 -17.7626
   -17.0132 -16.2114 -15.4365 -15.2984 -15.2365 -15.1647 -15.0569 -14.9770
   -14.9419 -14.8726 -14.8375 -14.7939 -14.7447 -14.6772 -14.6687 -14.6183
   -14.5932 -14.5070 -14.4287 -14.3728 -14.2980 -14.2691 -14.2161 -14.1863
   -14.1176 -14.1030 -14.0941 -14.0450 -14.0074 -13.9912 -13.9659 -13.9020
   -13.8827 -13.8376 -13.8312 -13.7753 -13.7468 -13.6922 -13.6236 -13.6098
   -13.5843 -13.5324 -13.5278 -13.5090 -13.4607 -13.4094 -13.3849 -13.3738
   -13.3286 -13.3051 -13.2985 -13.2398 -13.2167 -13.1757 -13.1682 -13.1391
   -13.0955 -13.0783 -13.0492 -13.0143 -12.9922 -12.9713 -12.9367 -12.9135
   -12.8887 -12.8602 -12.8215 -12.8111 -12.7548 -12.7357 -12.7142 -12.6368
   -12.6260 -12.6058 -12.5694 -12.5284 -12.5012 -12.4616 -12.4472 -12.4138
   -12.4042 -12.3861 -12.3771 -12.3156 -12.2977 -12.2531 -12.2330 -12.2125
   -12.1712 -12.1281 -12.1086 -12.0861 -12.0646 -12.0348 -12.0030 -11.9742
   -11.9528 -11.9395 -11.9136 -11.8949 -11.8710 -11.8359 -11.8277 -11.7917
   -11.7883 -11.7793 -11.7328 -11.7214 -11.6882 -11.6843 -11.6688 -11.6536
   -11.6312 -11.6225 -11.6042 -11.5815 -11.5681 -11.5508 -11.5468 -11.5304
   -11.5109 -11.4996 -11.4718 -11.4614 -11.4576 -11.4188 -11.3978 -11.3818
   -11.3605 -11.3519 -11.3352 -11.3016 -11.2830 -11.2627 -11.2588 -11.2522
   -11.2300 -11.2256 -11.2064 -11.1851 -11.1707 -11.1560 -11.1522 -11.1265
   -11.0775 -11.0736 -11.0483 -11.0368 -11.0138 -10.9875 -10.9801 -10.9704
   -10.9671 -10.9626 -10.9417 -10.9383 -10.9153 -10.9094 -10.8980 -10.8665
   -10.8641 -10.8267 -10.8057 -10.7958 -10.7793 -10.7765 -10.7479 -10.7397
   -10.7012 -10.6826 -10.6689 -10.6500 -10.6340 -10.6248 -10.6052 -10.5763
   -10.5612 -10.5479 -10.5169 -10.4767 -10.4654 -10.4196 -10.3971 -10.3826
   -10.3685 -10.3200 -10.2981 -10.2929 -10.2684 -10.2506 -10.1974 -10.1620
   -10.1590 -10.1341 -10.1168 -10.0771 -10.0531  -9.9983  -9.9843  -9.9620
    -9.9470  -9.9220  -9.8993  -9.8849  -9.8717  -9.8501  -9.8256  -9.8070
    -9.7539  -9.7347  -9.6779  -9.6733  -9.6557  -9.6259  -9.6158  -9.5994
    -9.5824  -9.5704  -9.5524  -9.5415  -9.5063  -9.4848  -9.4595  -9.4506
    -9.4449  -9.4251  -9.4216  -9.4147  -9.4112  -9.3983  -9.3898  -9.3769
    -9.3334  -9.3174  -9.3101  -9.2762  -9.2653  -9.2568  -9.2340  -9.2276
    -9.2084  -9.1945  -9.1649  -9.1454  -9.1294  -9.1052  -9.1026  -9.0627
    -9.0548  -9.0289  -8.9987  -8.9964  -8.9683  -8.9520  -8.9434  -8.9348
    -8.9253  -8.9103  -8.8920  -8.8703  -8.8585  -8.8496  -8.8249  -8.8215
    -8.8094  -8.7960  -8.7869  -8.7718  -8.7519  -8.7471  -8.7429  -8.7295
    -8.7257  -8.7088  -8.6802  -8.6736  -8.6650  -8.6580  -8.6572  -8.6540
    -8.6385  -8.6271  -8.6200  -8.6010  -8.5975  -8.5870  -8.5766  -8.5607
    -8.5504  -8.5437  -8.5303  -8.5192  -8.5041  -8.4822  -8.4779  -8.4720
    -8.4603  -8.4534  -8.4476  -8.4332  -8.4198  -8.4142  -8.3988  -8.3909
    -8.3841  -8.3720  -8.3560  -8.3539  -8.3500  -8.3353  -8.3230  -8.3090
    -8.3026  -8.2902  -8.2804  -8.2638  -8.2587  -8.2505  -8.2329  -8.2281
    -8.2272  -8.2154  -8.1955  -8.1770  -8.1696  -8.1583  -8.1505  -8.1359
    -8.1244  -8.1221  -8.1151  -8.1098  -8.1066  -8.0921  -8.0834  -8.0752
    -8.0673  -8.0459  -8.0365  -8.0304  -8.0265  -8.0038  -7.9990  -7.9954
    -7.9721  -7.9683  -7.9557  -7.9451  -7.9379  -7.9259  -7.9217  -7.9096
    -7.9086  -7.8931  -7.8875  -7.8784  -7.8644  -7.8603  -7.8499  -7.8365
    -7.8329  -7.8264  -7.8202  -7.8048  -7.8028  -7.7892  -7.7808  -7.7666
    -7.7600  -7.7592  -7.7400  -7.7330  -7.7276  -7.7132  -7.7087  -7.7004
    -7.6854  -7.6831  -7.6714  -7.6608  -7.6587  -7.6403  -7.6378  -7.6248
    -7.6223  -7.5994  -7.5922  -7.5879  -7.5800  -7.5689  -7.5546  -7.5530
    -7.5373  -7.5327  -7.5275  -7.5120  -7.5052  -7.5020  -7.4939  -7.4876
    -7.4720  -7.4645  -7.4590  -7.4504  -7.4447  -7.4147  -7.4009  -7.3861
    -7.3794  -7.3771  -7.3725  -7.3613  -7.3487  -7.3422  -7.3338  -7.3184
    -7.3110  -7.2978  -7.2902  -7.2745  -7.2713  -7.2693  -7.2607  -7.2499
    -7.2396  -7.2268  -7.2170  -7.2062  -7.1995  -7.1809  -7.1711  -7.1633
    -7.1506  -7.1471  -7.1351  -7.1256  -7.1146  -7.1072  -7.0950  -7.0912
    -7.0805  -7.0761  -7.0681  -7.0521  -7.0446  -7.0394  -7.0237  -7.0102
    -6.9931  -6.9849  -6.9743  -6.9617  -6.9511  -6.9406  -6.9312  -6.9280
    -6.9158  -6.9125  -6.8953  -6.8773  -6.8703  -6.8631  -6.8526  -6.8419
    -6.8304  -6.8212  -6.8101  -6.8034  -6.7928  -6.7830  -6.7730  -6.7678
    -6.7607  -6.7466  -6.7388  -6.7241  -6.7134  -6.7081  -6.7067  -6.6942
    -6.6844  -6.6767  -6.6760  -6.6702  -6.6419  -6.6402  -6.6196  -6.6012
    -6.5928  -6.5830  -6.5790  -6.5727  -6.5675  -6.5560  -6.5551  -6.5399
    -6.5355  -6.5224  -6.5188  -6.5071  -6.4933  -6.4886  -6.4751  -6.4662
    -6.4606  -6.4429  -6.4372  -6.4335  -6.4157  -6.4067  -6.3927  -6.3843
    -6.3693  -6.3665  -6.3530  -6.3406  -6.3334  -6.3258  -6.3113  -6.3065
    -6.2989  -6.2803  -6.2675  -6.2634  -6.2527  -6.2309  -6.2286  -6.1946
    -6.1841  -6.1703  -6.1633  -6.1493  -6.1439  -6.1230  -6.1197  -6.0980
    -6.0803  -6.0744  -6.0599  -6.0431  -6.0375  -6.0266  -6.0242  -6.0118
    -6.0040  -5.9944  -5.9727  -5.9657  -5.9541  -5.9341  -5.9306  -5.9255
    -5.9150  -5.8978  -5.8838  -5.8687  -5.8628  -5.8544  -5.8335  -5.8166
    -5.8118  -5.8073  -5.8034  -5.7882  -5.7734  -5.7700  -5.7633  -5.7398
    -5.7358  -5.7156  -5.7084  -5.6943  -5.6870  -5.6729  -5.6605  -5.6536
    -5.6318  -5.6045  -5.5838  -5.5668  -5.5530  -5.5425  -5.5338  -5.5244
    -5.4987  -5.4859  -5.4758  -5.4635  -5.4305  -5.4268  -5.4225  -5.4204
    -5.4120  -5.4013  -5.3625  -5.3541  -5.3375  -5.3148  -5.3086  -5.3019
    -5.2588  -5.2411  -5.2252  -5.1987  -5.1523  -5.1484  -5.1407  -5.1173
    -5.0917  -5.0572  -4.9559  -4.9404  -4.9268  -4.9214  -4.9144  -4.9015
    -4.8579  -4.8493  -4.8105  -4.8013  -4.7719  -4.7514  -4.6971  -4.6921
    -4.6737  -4.5955  -4.5674  -4.5461  -4.5422  -4.5336  -4.5277  -4.5149
    -4.4321  -4.3397  -4.2933  -4.2924  -4.2339  -4.1977  -4.1324  -4.1267
    -4.1190  -4.1086  -4.0971  -4.0628  -4.0435  -4.0233  -4.0080  -3.9990
    -3.9895  -3.9844  -3.9725  -3.9389  -3.9358  -3.9299  -3.9258  -3.9205
    -3.9143  -3.9055  -3.9000  -3.8916  -3.8877  -3.8846  -3.8767  -3.8738
    -3.8698  -3.8653  -3.8502  -3.8355  -3.8302  -3.8226  -3.8128  -3.8088
    -3.7995  -3.7992  -3.7656  -3.7557  -3.7375  -3.7191  -3.7186  -3.7055
    -3.6227  -3.5394  -3.4760  -3.4286  -3.4064  -3.3698  -3.2691  -3.1972
    -2.8175  -2.7154  -2.3112  -2.0815  -1.6564  -0.7319  -0.7069  -0.5629
    -0.5112  -0.4934  -0.3594  -0.3328  -0.2546  -0.1984  -0.1167  -0.0923
    -0.0455   0.0634   0.1623   0.2247   0.3035   0.3794   0.4451   0.5385
     0.5919   0.6248   0.6510   0.6829   0.7380   0.7920   0.8483   0.8521
     0.8932   0.9357   0.9719   1.0076   1.0528   1.0607   1.0670   1.1184
     1.1272   1.1571   1.1943   1.2164   1.2463   1.2790   1.2869   1.3011
     1.3330   1.3549   1.3587   1.4058   1.4084   1.4164   1.4392   1.4472
     1.4704   1.5282   1.5329   1.5609   1.5951   1.6088   1.6248   1.6415
     1.6519   1.6665   1.7058   1.7124   1.7229   1.7347   1.7445   1.7797
     1.7828   1.8162   1.8337   1.8503   1.8667   1.8843   1.8957   1.9211
     1.9309   1.9434   1.9621   1.9715   1.9988   2.0094   2.0273   2.0365
     2.0479   2.0560   2.0720   2.0808   2.0908   2.1072   2.1139   2.1186
     2.1288   2.1330   2.1416   2.1453   2.1751   2.1789   2.2088   2.2209
     2.2306   2.2398   2.2478   2.2721   2.2872   2.3067   2.3107   2.3300
     2.3360   2.3505   2.3727   2.3825   2.3897   2.4005   2.4178   2.4215
     2.4340   2.4453   2.4615   2.4697   2.4768   2.4823   2.4988   2.5049
     2.5136   2.5332   2.5415   2.5439   2.5643   2.5670   2.5803   2.5891
     2.5932   2.6061   2.6160   2.6307   2.6340   2.6392   2.6541   2.6588
     2.6706   2.6852   2.6970   2.7031   2.7090   2.7161   2.7228   2.7284
     2.7395   2.7403   2.7585   2.7659   2.7749   2.7832   2.7847   2.8009
     2.8084   2.8185   2.8238   2.8268   2.8504   2.8604   2.8649   2.8709
     2.8840   2.9005   2.9026

     the Fermi energy is    -3.7739 ev

!    total energy              =  -11682.10528334 Ry
     estimated scf accuracy    <          7.4E-09 Ry
     smearing contrib. (-TS)   =      -0.11089439 Ry
     internal energy E=F+TS    =  -11681.99438895 Ry

     The total energy is F=E-TS. E is the sum of the following terms:
     one-electron contribution = -355890.47085462 Ry
     hartree contribution      =  178402.25156060 Ry
     xc contribution           =   -2470.89709302 Ry
     ewald contribution        =  170636.82678354 Ry
     one-center paw contrib.   =   -2359.70478545 Ry

     convergence has been achieved in 292 iterations

     negative rho (up, down):  6.029E-02 0.000E+00

     Forces acting on atoms (cartesian axes, Ry/au):

     atom    1 type  1   force =     0.01198994    0.01351397    0.05504145
     atom    2 type  1   force =     0.02832114    0.02472986   -0.00020827
     atom    3 type  1   force =     0.00760300    0.00108269   -0.00349324
     atom    4 type  1   force =    -0.01245987   -0.01522809   -0.01031543
     atom    5 type  1   force =     0.01478636   -0.02242862   -0.02709113
     atom    6 type  1   force =     0.00350953   -0.00146818    0.00460298
     atom    7 type  1   force =    -0.00852054    0.01191829    0.01200691
     atom    8 type  1   force =    -0.01214075   -0.03107873    0.00338208
     atom    9 type  1   force =    -0.00149684    0.00641324    0.01347634
     atom   10 type  1   force =     0.01823875   -0.00179167    0.01765391
     atom   11 type  1   force =    -0.01121433   -0.00523148   -0.01232911
     atom   12 type  2   force =     0.00697821    0.12281562   -0.04037435
     atom   13 type  2   force =     0.13685995    0.10069419   -0.00115637
     atom   14 type  2   force =     0.08062000    0.03196899   -0.06290969
     atom   15 type  2   force =     0.14687897   -0.03950950   -0.15271841
     atom   16 type  2   force =     0.02150076    0.03840458    0.04014171
     atom   17 type  2   force =     0.15428558    0.01498404    0.25436173
     atom   18 type  2   force =    -0.01246643   -0.04666038   -0.04948031
     atom   19 type  2   force =    -0.01073870    0.03866129   -0.10070214
     atom   20 type  2   force =    -0.02586408   -0.01330058   -0.04181197
     atom   21 type  2   force =    -0.05465450    0.13496637   -0.03939614
     atom   22 type  2   force =     0.03575391   -0.13312444    0.09261285
     atom   23 type  2   force =    -0.03934272   -0.06825030   -0.05871831
     atom   24 type  2   force =     0.03247333    0.02647268    0.01011717
     atom   25 type  2   force =     0.06548366    0.00673682    0.07203060
     atom   26 type  2   force =    -0.01650673   -0.00961100   -0.01109107
     atom   27 type  2   force =     0.04178546    0.11801716   -0.07349927
     atom   28 type  2   force =    -0.00194800   -0.05839202   -0.01140444
     atom   29 type  2   force =    -0.03140909   -0.05047374    0.08152399
     atom   30 type  2   force =     0.03233563   -0.03167595   -0.03952519
     atom   31 type  2   force =     0.03575558    0.02202064    0.00221756
     atom   32 type  2   force =    -0.00991042   -0.06579167    0.08800604
     atom   33 type  2   force =    -0.05572915    0.01800767   -0.05542026
     atom   34 type  2   force =     0.06104836   -0.02692792   -0.02230927
     atom   35 type  3   force =    -0.01331927   -0.07803065    0.00316204
     atom   36 type  3   force =    -0.16429488    0.08793160   -0.04854355
     atom   37 type  3   force =    -0.06763859    0.03586186   -0.01400673
     atom   38 type  3   force =    -0.05432983   -0.00011317   -0.00933865
     atom   39 type  3   force =     0.07406493    0.00716371    0.01036488
     atom   40 type  3   force =     0.08666011    0.02283111   -0.04332548
     atom   41 type  3   force =    -0.10893611   -0.09032191   -0.13253008
     atom   42 type  3   force =     0.01209742   -0.06054025    0.06462056
     atom   43 type  3   force =     0.01844047   -0.02232331   -0.04844760
     atom   44 type  3   force =     0.06109523    0.10572923    0.04119660
     atom   45 type  3   force =    -0.03231228   -0.00092687   -0.03155416
     atom   46 type  3   force =    -0.03628305    0.12438637    0.05984189
     atom   47 type  3   force =    -0.05595675    0.00757707   -0.14728744
     atom   48 type  3   force =    -0.02875378   -0.12202759   -0.13758522
     atom   49 type  3   force =     0.06189781    0.18237418    0.05227484
     atom   50 type  3   force =     0.04371016   -0.02214050   -0.09774439
     atom   51 type  3   force =    -0.01918620    0.04788568    0.07057439
     atom   52 type  3   force =    -0.12117228   -0.10580419    0.11949471
     atom   53 type  3   force =    -0.12316180   -0.10990407   -0.05472783
     atom   54 type  3   force =    -0.03654980   -0.02307697    0.10040943
     atom   55 type  3   force =    -0.14999959    0.03099209    0.03096584
     atom   56 type  3   force =    -0.02260260    0.01124202    0.12163935
     atom   57 type  3   force =     0.00706455   -0.09506294   -0.04894281
     atom   58 type  3   force =     0.06090938   -0.00840148    0.04779763
     atom   59 type  3   force =    -0.03557059   -0.01077032    0.03893643
     atom   60 type  3   force =     0.07904567   -0.07455276   -0.00356518
     atom   61 type  3   force =     0.01540795    0.19123492    0.03556034
     atom   62 type  3   force =    -0.01925378   -0.01655537   -0.00617153
     atom   63 type  3   force =     0.01626723    0.01191682   -0.00640347
     atom   64 type  3   force =     0.00301564    0.05905842    0.08276440
     atom   65 type  3   force =    -0.00818730    0.02321406    0.02035453
     atom   66 type  3   force =    -0.01588378    0.00339143   -0.01873457
     atom   67 type  3   force =     0.03129185    0.00051857    0.10220231
     atom   68 type  3   force =    -0.06488196   -0.03465930    0.07983216
     atom   69 type  3   force =     0.04497305    0.03723267    0.03187254
     atom   70 type  3   force =    -0.05033414   -0.06709692   -0.05576171
     atom   71 type  3   force =     0.04849129   -0.03741574    0.05246936
     atom   72 type  3   force =     0.01423239    0.11139621    0.19922632
     atom   73 type  3   force =    -0.07869465    0.05105969   -0.07639802
     atom   74 type  3   force =     0.00529603   -0.06456289   -0.04794043
     atom   75 type  3   force =    -0.06313210    0.00864131   -0.00230323
     atom   76 type  3   force =     0.04452176   -0.10613286   -0.06057635
     atom   77 type  3   force =    -0.03077879    0.07737322    0.03344968
     atom   78 type  3   force =    -0.09863187   -0.02064198   -0.06889417
     atom   79 type  3   force =    -0.00397034   -0.04282092    0.03499762
     atom   80 type  3   force =    -0.03170434    0.03977546   -0.00608594
     atom   81 type  3   force =     0.03047060    0.01866673   -0.03967326
     atom   82 type  3   force =    -0.04203759    0.01736587   -0.05439316
     atom   83 type  3   force =    -0.05126029    0.09454949    0.02434593
     atom   84 type  3   force =    -0.02491116    0.04022925   -0.04046183
     atom   85 type  3   force =    -0.01128540   -0.09865031    0.07703215
     atom   86 type  3   force =    -0.02846637   -0.07920470   -0.10456769
     atom   87 type  3   force =     0.02213244   -0.00717157   -0.06804695
     atom   88 type  3   force =    -0.00062964    0.05375924   -0.11883032
     atom   89 type  3   force =    -0.04853904   -0.02060997    0.06486488
     atom   90 type  3   force =     0.05366118   -0.04775962   -0.04649084
     atom   91 type  3   force =     0.06646942    0.04065663   -0.01538534
     atom   92 type  3   force =    -0.00909322   -0.00580470   -0.02089331
     atom   93 type  3   force =    -0.08709148   -0.10491273   -0.00533965
     atom   94 type  3   force =     0.07175819    0.08986654    0.05020848
     atom   95 type  3   force =    -0.01087022   -0.01077849   -0.06901604
     atom   96 type  3   force =    -0.09370386   -0.01180445    0.15325850
     atom   97 type  3   force =    -0.02817761   -0.04657380   -0.00175162
     atom   98 type  3   force =     0.10433321    0.01084402    0.09548988
     atom   99 type  3   force =    -0.05541537   -0.00677398    0.03650222
     atom  100 type  3   force =     0.02259643   -0.07809381    0.07966536
     atom  101 type  3   force =    -0.06016246    0.02730387   -0.01091144
     atom  102 type  3   force =     0.03026583    0.01714899    0.03129509
     atom  103 type  3   force =     0.04698057    0.03113814    0.09743670
     atom  104 type  3   force =    -0.08246141   -0.07738498   -0.00516782
     atom  105 type  3   force =     0.02908730    0.05417757   -0.00660716
     atom  106 type  3   force =     0.03818956    0.11421692   -0.01551732
     atom  107 type  3   force =    -0.02829920   -0.00304308    0.02817339
     atom  108 type  3   force =     0.04681646   -0.00991981    0.04581766
     atom  109 type  3   force =     0.10918672    0.02050268   -0.03991307
     atom  110 type  3   force =     0.13934473    0.00801470   -0.06093871
     atom  111 type  3   force =    -0.02033717   -0.01790827    0.01769197
     atom  112 type  3   force =    -0.06696861    0.09519150   -0.01069805
     atom  113 type  3   force =     0.02128271   -0.01983483   -0.05618754
     atom  114 type  3   force =    -0.03896025    0.02175150    0.08106946
     atom  115 type  3   force =     0.01336395   -0.02840293    0.07654325
     atom  116 type  3   force =     0.08473415    0.00791484   -0.04835889
     atom  117 type  3   force =    -0.06879458    0.00334012    0.03774942
     atom  118 type  3   force =    -0.11832824    0.11173310    0.02566911
     atom  119 type  3   force =     0.07046545   -0.00673769    0.03243715
     atom  120 type  3   force =     0.00918104    0.02807999    0.10530302
     atom  121 type  3   force =     0.12986956    0.07610830    0.01634138
     atom  122 type  4   force =     0.03934200    0.01291332    0.02861350
     atom  123 type  4   force =    -0.06150005   -0.04005553   -0.00952742
     atom  124 type  4   force =     0.00361019    0.02431676   -0.04627979
     atom  125 type  4   force =     0.01813256   -0.00576875   -0.00428199
     atom  126 type  4   force =    -0.13133563   -0.14924311   -0.01138235
     atom  127 type  4   force =    -0.09950374   -0.12885854   -0.07372966
     atom  128 type  4   force =     0.01054708   -0.04946049    0.05952741
     atom  129 type  4   force =     0.00885735   -0.06154671   -0.01147730
     atom  130 type  4   force =     0.00888799   -0.02171890    0.00932733
     atom  131 type  4   force =     0.00672073   -0.01823959   -0.01308936
     atom  132 type  4   force =     0.04932076   -0.03836608   -0.01677323
     atom  133 type  4   force =    -0.03659018   -0.05918687    0.03630044
     atom  134 type  4   force =    -0.09349353    0.00757525   -0.04010025
     atom  135 type  4   force =     0.02241379   -0.02687736    0.12454874
     atom  136 type  4   force =     0.01792639   -0.01014754   -0.01838030
     atom  137 type  4   force =     0.05385060    0.04127065   -0.03419890
     atom  138 type  4   force =     0.01578977    0.00197748   -0.01530559
     atom  139 type  4   force =    -0.00675365    0.02802435   -0.02075795
     atom  140 type  4   force =     0.02154281   -0.06866771    0.02200712
     atom  141 type  4   force =     0.05842997   -0.01200860    0.00214347
     atom  142 type  4   force =    -0.10496734   -0.05310892    0.04674700
     atom  143 type  4   force =    -0.15030341   -0.03711716   -0.09753006
     atom  144 type  4   force =    -0.00563140   -0.01755233    0.02992874
     atom  145 type  4   force =    -0.04009115    0.03669755    0.01603017
     atom  146 type  4   force =    -0.02193288    0.01689533   -0.02250368
     atom  147 type  4   force =    -0.13172053   -0.04975149    0.03207212
     atom  148 type  4   force =     0.01368117   -0.02072574   -0.01295905
     atom  149 type  4   force =     0.06869578    0.03542880    0.01729133
     atom  150 type  4   force =    -0.06348265   -0.05299346   -0.02000170
     atom  151 type  4   force =     0.05092349    0.03694041    0.02448891
     atom  152 type  4   force =    -0.05807870    0.02463910    0.01510130
     atom  153 type  4   force =     0.07628193    0.01869083    0.07641571
     atom  154 type  4   force =    -0.09647181    0.00591001    0.00664320
     atom  155 type  4   force =    -0.01250694   -0.01442147   -0.00922275
     atom  156 type  4   force =    -0.05023972    0.04124331   -0.02248458
     atom  157 type  4   force =     0.04245295   -0.01059739   -0.00374028
     atom  158 type  4   force =     0.01335740    0.01209866   -0.02431330
     atom  159 type  4   force =     0.06701192    0.00747154   -0.05886595
     atom  160 type  4   force =     0.03931712   -0.08923863    0.01384727
     atom  161 type  4   force =     0.00299067   -0.02878363    0.07142261
     atom  162 type  4   force =     0.05271601    0.09508401    0.01497844
     atom  163 type  4   force =    -0.01542374    0.05817848   -0.01560357
     atom  164 type  4   force =     0.02451358    0.02903478    0.06696373
     atom  165 type  4   force =    -0.07482458    0.00946972    0.04936321
     atom  166 type  4   force =    -0.00156254   -0.10197413    0.00500101
     atom  167 type  4   force =    -0.03913023   -0.04002695   -0.01517081
     atom  168 type  4   force =     0.01693493   -0.18436011    0.05845318
     atom  169 type  4   force =     0.05233227    0.04495940   -0.09520097
     atom  170 type  4   force =     0.02788742   -0.04778113   -0.03583568
     atom  171 type  4   force =     0.01258269   -0.01692157    0.00344261
     atom  172 type  4   force =    -0.07002941    0.01233644   -0.04390267
     atom  173 type  4   force =    -0.03892718    0.00700613   -0.02543322
     atom  174 type  4   force =     0.05689850    0.08613956    0.01847320
     atom  175 type  4   force =     0.01311116    0.04180509    0.00304194
     atom  176 type  4   force =     0.03800822   -0.00539124    0.02564798
     atom  177 type  4   force =     0.06421578   -0.00460608   -0.00842333
     atom  178 type  4   force =    -0.00360963    0.03671162    0.04541597
     atom  179 type  4   force =    -0.01189454    0.02842247    0.00299511
     atom  180 type  4   force =    -0.05734955    0.00564733   -0.00722585
     atom  181 type  4   force =     0.00000131   -0.00052233    0.09593526
     atom  182 type  4   force =    -0.02452511   -0.06135835    0.05014897
     atom  183 type  4   force =    -0.03314804    0.10683415   -0.05865953
     atom  184 type  4   force =     0.01827107   -0.01126529    0.05176054
     atom  185 type  4   force =     0.04932872   -0.03492208   -0.01728382
     atom  186 type  4   force =    -0.01141000   -0.01731185    0.00167731
     atom  187 type  4   force =    -0.02757801   -0.01186509    0.05029116
     atom  188 type  4   force =    -0.02037509   -0.01786811   -0.04715423
     atom  189 type  4   force =    -0.01984078    0.03527264   -0.00041599
     atom  190 type  4   force =     0.05861167   -0.03610059    0.00663703
     atom  191 type  4   force =    -0.01853618   -0.00334697   -0.00665267
     atom  192 type  4   force =    -0.03514317    0.02414480   -0.03099830
     atom  193 type  4   force =     0.03627515   -0.06463676    0.02168672
     atom  194 type  4   force =    -0.04962846    0.00127502   -0.00628793
     atom  195 type  4   force =    -0.01024733   -0.00640121    0.01838540
     atom  196 type  4   force =     0.00241035   -0.02551674   -0.06108667
     atom  197 type  4   force =     0.00925955    0.01572278   -0.00012016
     atom  198 type  4   force =    -0.03842617    0.04138957   -0.01356253
     atom  199 type  4   force =     0.00812395   -0.02589720    0.00623931
     atom  200 type  4   force =    -0.00958818   -0.03603570    0.05783693
     atom  201 type  4   force =    -0.01077907   -0.04757545   -0.02854258
     atom  202 type  4   force =     0.01618059    0.01501642    0.04155344
     atom  203 type  4   force =    -0.05688344   -0.05915015   -0.10308448
     atom  204 type  4   force =    -0.00238971    0.01816100    0.06244300
     atom  205 type  4   force =     0.01018923    0.07387916   -0.01371065
     atom  206 type  4   force =    -0.04069998   -0.03140586   -0.04467577
     atom  207 type  4   force =    -0.00469044   -0.03032763    0.03534217
     atom  208 type  4   force =    -0.00080705    0.01181602   -0.01007498
     atom  209 type  4   force =    -0.04447542    0.03168239   -0.05087393
     atom  210 type  4   force =    -0.01135391    0.01307678   -0.05118082
     atom  211 type  4   force =    -0.00049678   -0.03481643   -0.05648453
     atom  212 type  4   force =     0.04257877   -0.03957207   -0.03317048
     atom  213 type  4   force =     0.04284613   -0.14884210   -0.08361589
     atom  214 type  4   force =     0.05171324    0.06496782   -0.05765096
     atom  215 type  4   force =    -0.02676623   -0.02909242    0.00518638
     atom  216 type  4   force =    -0.02211842    0.07576216    0.04091269
     atom  217 type  4   force =    -0.02414458    0.03766231   -0.04189387
     atom  218 type  4   force =     0.01494339    0.02514767   -0.00788151
     atom  219 type  4   force =    -0.04401593   -0.04014577   -0.00919227
     atom  220 type  4   force =     0.01254311   -0.04156333    0.02303762
     atom  221 type  4   force =    -0.00425959    0.03038494    0.06497012
     atom  222 type  4   force =     0.10392208   -0.01656685    0.00584938
     atom  223 type  4   force =     0.02178949    0.08581921   -0.05091728
     atom  224 type  4   force =     0.03971221    0.02492676   -0.01338541
     atom  225 type  4   force =     0.06108221    0.04951596   -0.00338544
     atom  226 type  4   force =     0.02007110   -0.02508566    0.02082687
     atom  227 type  4   force =    -0.02257784    0.05200665    0.04179497
     atom  228 type  4   force =     0.00321600   -0.01708437   -0.02723176
     atom  229 type  4   force =     0.01368355    0.00005353    0.05417599
     atom  230 type  4   force =     0.05288640    0.04910459   -0.00148658
     atom  231 type  4   force =     0.04251338   -0.02092801    0.07120568
     atom  232 type  4   force =     0.04274865   -0.06426563   -0.00879310
     atom  233 type  4   force =     0.03888325    0.05820350    0.02901612
     atom  234 type  4   force =    -0.03303650   -0.05982547   -0.11439757
     atom  235 type  4   force =    -0.01906513    0.15895625   -0.01449166
     atom  236 type  4   force =     0.08809457   -0.01639109   -0.04576158
     atom  237 type  4   force =     0.00620443    0.00678926    0.01214454
     atom  238 type  4   force =    -0.01093243   -0.01290121    0.04262798
     atom  239 type  4   force =     0.01914285   -0.03606413    0.00733903
     atom  240 type  4   force =     0.07764628    0.03085461    0.02820923
     atom  241 type  4   force =     0.03133132   -0.01972066   -0.00494784
     atom  242 type  4   force =    -0.20421639   -0.02976163    0.07892169
     atom  243 type  4   force =     0.02976318    0.00104203    0.02045071
     atom  244 type  4   force =    -0.05117641   -0.00158992   -0.04531647
     atom  245 type  4   force =    -0.01912074   -0.02914956   -0.09480408
     atom  246 type  4   force =     0.02446700   -0.00896761   -0.03124186
     atom  247 type  4   force =    -0.00636803   -0.01714117   -0.06720055
     atom  248 type  4   force =    -0.01646144    0.03020171    0.05875679
     atom  249 type  4   force =     0.03809671    0.02612974   -0.06221820
     atom  250 type  4   force =    -0.08196005   -0.01670124    0.00422020
     atom  251 type  4   force =    -0.00777960   -0.00391827   -0.01948594
     atom  252 type  4   force =    -0.07105888    0.01907298   -0.05236716
     atom  253 type  4   force =     0.00126409   -0.04522696   -0.11035721
     atom  254 type  4   force =    -0.09100679    0.01337963   -0.01475325
     atom  255 type  4   force =     0.01624142   -0.01882573    0.02039391
     atom  256 type  4   force =     0.03194098   -0.00801613    0.03525219
     atom  257 type  4   force =     0.02693257   -0.02500754    0.03378914
     atom  258 type  4   force =     0.00067338    0.01269688   -0.02909347
     atom  259 type  4   force =     0.04801359    0.01503395   -0.00891480
     atom  260 type  4   force =    -0.04570163   -0.01158526   -0.06092694
     atom  261 type  4   force =     0.04153768    0.02787444   -0.03935260
     atom  262 type  4   force =    -0.05492718   -0.01079360    0.04592739
     atom  263 type  4   force =     0.09640675   -0.02627643    0.01767176
     atom  264 type  4   force =    -0.04573684    0.04262038   -0.02251680
     atom  265 type  4   force =     0.02493604    0.01529923   -0.03972872
     atom  266 type  4   force =     0.02701034    0.02036597   -0.04800271
     atom  267 type  4   force =     0.07746525   -0.00409787   -0.04274792
     atom  268 type  4   force =     0.02718851   -0.04396444   -0.03136845
     atom  269 type  4   force =    -0.01663268   -0.06670703    0.00510920
     atom  270 type  4   force =    -0.07174995   -0.01326028   -0.02963671
     atom  271 type  4   force =     0.06962582    0.01181103    0.00868655
     atom  272 type  4   force =     0.02761231    0.05490290   -0.01276603
     atom  273 type  4   force =     0.00244493   -0.00628655    0.04768373
     atom  274 type  4   force =    -0.02440214    0.00275661    0.02711910
     atom  275 type  4   force =    -0.01180811   -0.02055672    0.01818918
     atom  276 type  4   force =     0.04365364    0.07911666    0.06965949
     atom  277 type  4   force =     0.02661667   -0.01173426   -0.07657154
     atom  278 type  4   force =    -0.02161866    0.06304909    0.04435109
     atom  279 type  4   force =    -0.01201484   -0.02156688    0.00405676
     atom  280 type  4   force =    -0.02690578    0.05670934    0.00950197
     atom  281 type  4   force =     0.04153596    0.03157675    0.04328648
     atom  282 type  4   force =     0.03676151   -0.05138437    0.01536670
     atom  283 type  4   force =     0.00388614   -0.06519906   -0.03213410
     atom  284 type  4   force =     0.07179326   -0.05366741   -0.03051318
     atom  285 type  4   force =     0.01850554   -0.01659004    0.01459981
     atom  286 type  4   force =    -0.11835233   -0.02981621   -0.06915985
     atom  287 type  4   force =    -0.01604797   -0.00149938    0.04443571
     atom  288 type  4   force =     0.06713687   -0.00387689   -0.05574969
     atom  289 type  4   force =     0.02103199    0.09119073   -0.02693730
     atom  290 type  4   force =     0.10195120   -0.05831286   -0.11030972
     atom  291 type  4   force =    -0.03025711    0.01407481   -0.01563235
     atom  292 type  4   force =    -0.01954780   -0.01136621    0.01439962
     atom  293 type  4   force =    -0.00649877   -0.02628771   -0.04963255
     atom  294 type  4   force =     0.08007584   -0.02996372    0.16776339
     atom  295 type  4   force =    -0.05387566    0.06401830    0.06797803
     atom  296 type  4   force =    -0.05990604    0.01920563    0.03732087
     atom  297 type  4   force =    -0.01785160    0.01398607   -0.02430823
     atom  298 type  4   force =     0.01303104    0.01337837    0.01801806
     atom  299 type  4   force =    -0.06671966   -0.14472722   -0.02711607
     atom  300 type  4   force =    -0.01170287   -0.05288761   -0.03410775
     atom  301 type  4   force =    -0.07375837    0.03965758    0.02584850
     atom  302 type  4   force =     0.00578279    0.12646105    0.11049113
     atom  303 type  4   force =    -0.01420900   -0.02294084   -0.03986400
     atom  304 type  4   force =    -0.03901037   -0.00162514    0.01122676
     atom  305 type  4   force =    -0.03630576   -0.01653090    0.00698144
     atom  306 type  4   force =     0.00811918    0.01576883   -0.05869500
     atom  307 type  4   force =     0.02342733    0.02015927    0.04235824
     atom  308 type  4   force =     0.00975050    0.00088553   -0.05118765
     atom  309 type  4   force =     0.00197533   -0.02057527    0.01390357
     atom  310 type  4   force =     0.09236931   -0.00427176    0.11082135
     atom  311 type  4   force =    -0.03276794   -0.01342121    0.01149248
     atom  312 type  4   force =    -0.02337655    0.02160791    0.01458438
     atom  313 type  4   force =     0.01443140   -0.08744881    0.01937927
     atom  314 type  4   force =    -0.04559490    0.01303619   -0.02396065
     atom  315 type  4   force =    -0.01721636   -0.00381870   -0.02790024
     atom  316 type  4   force =    -0.00559565   -0.00389913    0.01813666
     atom  317 type  4   force =    -0.00169070    0.06901417    0.04006118
     atom  318 type  4   force =     0.04038597    0.00254129   -0.01760628
     atom  319 type  4   force =    -0.02971056   -0.01473198   -0.06110479
     atom  320 type  4   force =     0.04267388   -0.01855406   -0.02677800
     atom  321 type  4   force =    -0.02610709    0.12884536    0.03813504
     atom  322 type  4   force =     0.02390461    0.01095241   -0.06530268
     atom  323 type  4   force =     0.03527990   -0.03552572    0.04978045
     atom  324 type  4   force =     0.05190730    0.00482093   -0.02334984
     atom  325 type  4   force =     0.03440101   -0.02324323   -0.02834651
     atom  326 type  4   force =    -0.00823750    0.11665303    0.05598196
     atom  327 type  4   force =     0.04741325    0.04959688   -0.03981191
     atom  328 type  4   force =     0.02046313    0.00100840   -0.01990322
     atom  329 type  4   force =     0.10558079    0.01069263    0.01854888
     atom  330 type  4   force =     0.02366522   -0.03648490   -0.05440485
     atom  331 type  4   force =     0.03238716    0.04218081   -0.00806882
     atom  332 type  4   force =     0.02198761    0.05075604   -0.01243910
     atom  333 type  4   force =    -0.05390264   -0.05586816    0.02739342
     atom  334 type  4   force =     0.02374947    0.04554561   -0.02798489
     atom  335 type  4   force =     0.06794778    0.02175537   -0.02189067
     atom  336 type  4   force =    -0.03950832   -0.03106783   -0.04403166
     atom  337 type  4   force =    -0.00486528   -0.00469538   -0.02311993
     atom  338 type  4   force =    -0.05724167    0.04315056   -0.01900248
     atom  339 type  5   force =    -0.02047314    0.02372921    0.03467509
     atom  340 type  5   force =     0.00639414   -0.02889332    0.02831658
     atom  341 type  6   force =     0.02475753    0.00359103    0.00443611
     atom  342 type  6   force =    -0.02461572   -0.00361324   -0.00428084
     atom  343 type  6   force =     0.00314156   -0.04246991    0.00355941
     atom  344 type  6   force =     0.00749892   -0.04200350    0.00441766
     atom  345 type  6   force =    -0.00726916    0.04205076   -0.00405263
     atom  346 type  6   force =    -0.00368530    0.04242416   -0.00370817
     atom  347 type  6   force =     0.02921879    0.02314491    0.00382722
     atom  348 type  6   force =    -0.03412078    0.01408113   -0.00715243
     atom  349 type  6   force =     0.03411807   -0.01409050    0.00719387
     atom  350 type  6   force =    -0.02949573   -0.02311985   -0.00386337
     atom  351 type  7   force =     0.00296907    0.00578576    0.00010414
     atom  352 type  7   force =    -0.00414904    0.00474683   -0.00118827
     atom  353 type  7   force =     0.00419759   -0.00475803    0.00104828
     atom  354 type  7   force =    -0.00269938   -0.00573864   -0.00019333
     atom  355 type  7   force =     0.00392305   -0.00332919    0.00088674
     atom  356 type  7   force =    -0.00288983   -0.00419962   -0.00031663
     atom  357 type  7   force =     0.00295616    0.00428865    0.00018985
     atom  358 type  7   force =    -0.00383538    0.00320363   -0.00102565

     Total force =     1.686654     Total SCF correction =     0.000212


     Computing stress (Cartesian axis) and pressure


     negative rho (up, down):  6.029E-02 0.000E+00
          total   stress  (Ry/bohr**3)                   (kbar)     P=        7.98
   0.00005256   0.00000157  -0.00000258            7.73        0.23       -0.38
   0.00000157   0.00006095   0.00000342            0.23        8.97        0.50
  -0.00000258   0.00000342   0.00004924           -0.38        0.50        7.24


     Writing all to output data dir ./outputs/pwscf.save/ :
     XML data file, charge density, pseudopotentials, collected wavefunctions
 
     init_run     :    146.08s CPU    149.16s WALL (       1 calls)
     electrons    :  82540.68s CPU  83957.05s WALL (       1 calls)
     forces       :     92.80s CPU     95.73s WALL (       1 calls)
     stress       :    350.68s CPU    355.63s WALL (       1 calls)

     Called by init_run:
     wfcinit      :    130.19s CPU    131.98s WALL (       1 calls)
     potinit      :      1.19s CPU      1.28s WALL (       1 calls)
     hinit0       :      1.42s CPU      1.46s WALL (       1 calls)

     Called by electrons:
     c_bands      :  69053.32s CPU  69854.60s WALL (     292 calls)
     sum_band     :  12105.22s CPU  12449.71s WALL (     292 calls)
     v_of_rho     :    133.04s CPU    138.03s WALL (     293 calls)
     newd         :    991.91s CPU   1245.84s WALL (     293 calls)
     PAW_pot      :    165.38s CPU    166.53s WALL (     293 calls)
     mix_rho      :     74.09s CPU     76.90s WALL (     292 calls)

     Called by c_bands:
     init_us_2    :    640.04s CPU    648.99s WALL (     586 calls)
     cegterg      :  68182.53s CPU  68970.40s WALL (     292 calls)

     Called by *egterg:
     cdiaghg      :    976.72s CPU    984.56s WALL (     632 calls)
     h_psi        :  37972.21s CPU  38358.09s WALL (     633 calls)
     s_psi        :  11268.20s CPU  11364.80s WALL (     633 calls)
     g_psi        :     44.74s CPU     45.33s WALL (     340 calls)

     Called by h_psi:
     h_psi:calbec :  11332.31s CPU  11409.50s WALL (     633 calls)
     vloc_psi     :  15308.62s CPU  15460.99s WALL (     633 calls)
                                        0.00s GPU  (     633 calls)
     add_vuspsi   :  11259.53s CPU  11347.46s WALL (     633 calls)

     General routines
     calbec       :  17280.92s CPU  17396.59s WALL (     942 calls)
     fft          :    152.74s CPU    158.33s WALL (    3832 calls)
     ffts         :     11.97s CPU     12.42s WALL (     585 calls)
     fftw         :  14833.40s CPU  14972.49s WALL ( 1647426 calls)
     interpolate  :     16.48s CPU     17.11s WALL (     293 calls)
 
     Parallel routines
 
     PWSCF        :     23h 5m CPU     23h31m WALL

 
   This run was terminated on:   5: 9:55  10Mar2026            

=------------------------------------------------------------------------------=
   JOB DONE.
=------------------------------------------------------------------------------=
