
     Program PWSCF v.7.5 starts on  5Mar2026 at  9:17:29 

     This program is part of the open-source Quantum ESPRESSO suite
     for quantum simulation of materials; please cite
         "P. Giannozzi et al., J. Phys.:Condens. Matter 21 395502 (2009);
         "P. Giannozzi et al., J. Phys.:Condens. Matter 29 465901 (2017);
         "P. Giannozzi et al., J. Chem. Phys. 152 154105 (2020);
          URL http://www.quantum-espresso.org", 
     in publications or presentations arising from this work. More details at
     http://www.quantum-espresso.org/quote

     Parallel version (MPI), running on    80 processors

     MPI processes distributed on     4 nodes
     73962 MiB available memory on the printing compute node when the environment starts
 
     Reading input from NaphthaleneOnGlassSite2Snapshot10.in
Warning: card &CELL ignored
Warning: card &FCP ignored
Warning: card &RISM ignored

     Current dimensions of program PWSCF are:
     Max number of different atomic species (ntypx) = 10
     Max number of k-points (npk) =  40000
     Max angular momentum in pseudopotentials (lmaxx) =  4
     file Na.paw.z_9.ld1.psl.v1.0.0-low.upf: wavefunction(s)  2P renormalized
     file O.pbe-n-kjpaw_psl.0.1.UPF: wavefunction(s)  2P renormalized
     file Al.pbe-n-kjpaw_psl.1.0.0.UPF: wavefunction(s)  3S 3P renormalized
     file C.pbe-n-kjpaw_psl.1.0.0.UPF: wavefunction(s)  2S 2P renormalized
 
     R & G space division:  proc/nbgrp/npool/nimage =      80
     Subspace diagonalization in iterative solution of the eigenvalue problem:
     one sub-group per band group will be used
     custom distributed-memory algorithm (size of sub-group:  8*  8 procs)

 
     Parallelization info
     --------------------
     sticks:   dense  smooth     PW     G-vecs:    dense   smooth      PW
     Min         450     400    100               199276   167008   20874
     Max         451     401    101               199303   167021   20885
     Sum       36073   32057   8021             15943719 13361281 1670237
 
     Using Slab Decomposition
 


     bravais-lattice index     =            0
     lattice parameter (alat)  =      35.4885  a.u.
     unit-cell volume          =  138228.4306 (a.u.)^3
     number of atoms/cell      =          358
     number of atomic types    =            7
     number of electrons       =      1872.00
     number of Kohn-Sham states=         1123
     kinetic-energy cutoff     =      80.0000  Ry
     charge density cutoff     =     360.0000  Ry
     scf convergence threshold =      1.0E-08
     mixing beta               =       0.1000
     number of iterations used =            8  plain     mixing
     Exchange-correlation= PBE
                           (   1   4   3   4   0   0   0)

     celldm(1)=  35.488539  celldm(2)=   0.000000  celldm(3)=   0.000000
     celldm(4)=   0.000000  celldm(5)=   0.000000  celldm(6)=   0.000000

     crystal axes: (cart. coord. in units of alat)
               a(1) = (   1.000000   0.000000   0.000000 )  
               a(2) = (   0.000000   1.000000   0.000000 )  
               a(3) = (   0.000000   0.000000   3.092666 )  

     reciprocal axes: (cart. coord. in units 2 pi/alat)
               b(1) = (  1.000000  0.000000  0.000000 )  
               b(2) = (  0.000000  1.000000  0.000000 )  
               b(3) = (  0.000000  0.000000  0.323346 )  


     PseudoPot. # 1 for Na read from file:
     /home/sabeel/VOCC_Simulation/pseudopotentials/SSSP_Precision/Na.paw.z_9.ld1.psl.v1.0.0-low.upf
     MD5 check sum: 32bccecb13d7399e6c7dae6fe6685ff0
     Pseudo is Projector augmented-wave + core cor, Zval =  9.0
     Generated using &quot;atomic&quot; code by A. Dal Corso  v.6.3MaX
     Shape of augmentation charge: PSQ
     Using radial grid of 1121 points,  4 beta functions with: 
                l(1) =   0
                l(2) =   0
                l(3) =   1
                l(4) =   1
     Q(r) pseudized with 0 coefficients 


     PseudoPot. # 2 for B  read from file:
     /home/sabeel/VOCC_Simulation/pseudopotentials/SSSP_Precision/B_pbe_v1.01.uspp.F.UPF
     MD5 check sum: d081ebb89d0c768e112975f650467a00
     Pseudo is Ultrasoft + core correction, Zval =  3.0
     Generated by new atomic code, or converted to UPF format
     Using radial grid of  781 points,  4 beta functions with: 
                l(1) =   0
                l(2) =   0
                l(3) =   1
                l(4) =   1
     Q(r) pseudized with  8 coefficients,  rinner =    1.100   1.100   1.100


     PseudoPot. # 3 for Si read from file:
     /home/sabeel/VOCC_Simulation/pseudopotentials/SSSP_Precision/Si.pbe-n-rrkjus_psl.1.0.0.UPF
     MD5 check sum: 0b0bb1205258b0d07b9f9672cf965d36
     Pseudo is Ultrasoft + core correction, Zval =  4.0
     Generated using "atomic" code by A. Dal Corso  v.5.1
     Using radial grid of 1141 points,  6 beta functions with: 
                l(1) =   0
                l(2) =   0
                l(3) =   1
                l(4) =   1
                l(5) =   2
                l(6) =   2
     Q(r) pseudized with 0 coefficients 


     PseudoPot. # 4 for O  read from file:
     /home/sabeel/VOCC_Simulation/pseudopotentials/SSSP_Precision/O.pbe-n-kjpaw_psl.0.1.UPF
     MD5 check sum: 0234752ac141de4415c5fc33072bef88
     Pseudo is Projector augmented-wave + core cor, Zval =  6.0
     Generated using "atomic" code by A. Dal Corso  v.5.0.99 svn rev. 10869
     Shape of augmentation charge: BESSEL
     Using radial grid of 1095 points,  4 beta functions with: 
                l(1) =   0
                l(2) =   0
                l(3) =   1
                l(4) =   1
     Q(r) pseudized with 0 coefficients 


     PseudoPot. # 5 for Al read from file:
     /home/sabeel/VOCC_Simulation/pseudopotentials/SSSP_Precision/Al.pbe-n-kjpaw_psl.1.0.0.UPF
     MD5 check sum: cfc449ca30b5f3223ec38ddd88ac046d
     Pseudo is Projector augmented-wave + core cor, Zval =  3.0
     Generated using "atomic" code by A. Dal Corso  v.5.1
     Shape of augmentation charge: PSQ
     Using radial grid of 1135 points,  6 beta functions with: 
                l(1) =   0
                l(2) =   0
                l(3) =   1
                l(4) =   1
                l(5) =   2
                l(6) =   2
     Q(r) pseudized with 0 coefficients 


     PseudoPot. # 6 for C  read from file:
     /home/sabeel/VOCC_Simulation/pseudopotentials/SSSP_Precision/C.pbe-n-kjpaw_psl.1.0.0.UPF
     MD5 check sum: 5d2aebdfa2cae82b50a7e79e9516da0f
     Pseudo is Projector augmented-wave + core cor, Zval =  4.0
     Generated using "atomic" code by A. Dal Corso  v.5.1
     Shape of augmentation charge: PSQ
     Using radial grid of 1073 points,  4 beta functions with: 
                l(1) =   0
                l(2) =   0
                l(3) =   1
                l(4) =   1
     Q(r) pseudized with 0 coefficients 


     PseudoPot. # 7 for H  read from file:
     /home/sabeel/VOCC_Simulation/pseudopotentials/SSSP_Precision/H_ONCV_PBE-1.0.oncvpsp.upf
     MD5 check sum: 1790becc920ee074925cf490c71280fe
     Pseudo is Norm-conserving, Zval =  1.0
     Generated using ONCVPSP code by D. R. Hamann
     Using radial grid of 1166 points,  2 beta functions with: 
                l(1) =   0
                l(2) =   0

     atomic species   valence    mass     pseudopotential
     Na                9.00    22.98977     Na( 1.00)
     B                 3.00    10.81000     B ( 1.00)
     Si                4.00    28.08500     Si( 1.00)
     O                 6.00    15.99900     O ( 1.00)
     Al                3.00    26.98154     Al( 1.00)
     C                 4.00    12.01100     C ( 1.00)
     H                 1.00     1.00800     H ( 1.00)

     No symmetry found



   Cartesian axes

     site n.     atom                  positions (alat units)
         1        Na     tau(   1) = (   0.2476327   0.1287261   1.4401902  )
         2        Na     tau(   2) = (   0.2347070   0.3964799   1.8357059  )
         3        Na     tau(   3) = (   0.2580766   0.4457236   1.6551511  )
         4        Na     tau(   4) = (   0.0484944   0.0277893   1.6277847  )
         5        Na     tau(   5) = (   0.2352313   0.0813062   1.2863150  )
         6        Na     tau(   6) = (   0.0747243   0.2371463   1.1982473  )
         7        Na     tau(   7) = (   0.1133306   0.7698962   1.8611434  )
         8        Na     tau(   8) = (   0.9037110   0.1954209   1.2700780  )
         9        Na     tau(   9) = (   0.5181841   0.1014052   1.4940734  )
        10        Na     tau(  10) = (   0.3803624   0.0140251   1.8302637  )
        11        Na     tau(  11) = (   0.3545179   0.4989222   1.3772145  )
        12        B      tau(  12) = (   0.9565860   0.6559989   1.4661680  )
        13        B      tau(  13) = (   0.3779039   0.3190213   1.8506233  )
        14        B      tau(  14) = (   0.6357433   0.7757670   1.3375748  )
        15        B      tau(  15) = (   0.9958362   0.0827877   1.8476266  )
        16        B      tau(  16) = (   0.6987179   0.5586979   1.3943070  )
        17        B      tau(  17) = (   0.0903279   0.5997535   1.2200041  )
        18        B      tau(  18) = (   0.9460845   0.5017876   1.4754679  )
        19        B      tau(  19) = (   0.0032347   0.0527127   1.2839437  )
        20        B      tau(  20) = (   0.1241012   0.5940167   1.6016841  )
        21        B      tau(  21) = (   0.4174729   0.9198072   1.5541475  )
        22        B      tau(  22) = (   0.4638227   0.9107282   1.2322731  )
        23        B      tau(  23) = (   0.5096053   0.7092947   1.5000083  )
        24        B      tau(  24) = (   0.4035376   0.9367665   1.6900270  )
        25        B      tau(  25) = (   0.7132674   0.8560217   1.2558196  )
        26        B      tau(  26) = (   0.2579773   0.4217781   1.2874388  )
        27        B      tau(  27) = (   0.1862793   0.2338812   1.3576537  )
        28        B      tau(  28) = (   0.2134919   0.3664862   1.5073156  )
        29        B      tau(  29) = (   0.3546252   0.0462610   1.5293894  )
        30        B      tau(  30) = (   0.8082206   0.9504483   1.6218439  )
        31        B      tau(  31) = (   0.4915043   0.5408159   1.2913026  )
        32        B      tau(  32) = (   0.2471486   0.9450605   1.4099193  )
        33        B      tau(  33) = (   0.7089246   0.1566090   1.6669558  )
        34        B      tau(  34) = (   0.4858908   0.1745693   1.3498737  )
        35        Si     tau(  35) = (   0.5740761   0.3686341   1.4981594  )
        36        Si     tau(  36) = (   0.9600416   0.6521543   1.2713743  )
        37        Si     tau(  37) = (   0.8029666   0.9237355   1.4090604  )
        38        Si     tau(  38) = (   0.6589027   0.0111466   1.4303706  )
        39        Si     tau(  39) = (   0.7148031   0.8518694   1.6658713  )
        40        Si     tau(  40) = (   0.4062844   0.4370669   1.7000479  )
        41        Si     tau(  41) = (   0.8652299   0.0194200   1.2866760  )
        42        Si     tau(  42) = (   0.8792462   0.4724358   1.3313926  )
        43        Si     tau(  43) = (   0.9761010   0.8191325   1.3004490  )
        44        Si     tau(  44) = (   0.0927580   0.6000365   1.4532062  )
        45        Si     tau(  45) = (   0.8492038   0.6801733   1.8429896  )
        46        Si     tau(  46) = (   0.7648638   0.9759642   1.8781504  )
        47        Si     tau(  47) = (   0.8282769   0.9005504   1.7531841  )
        48        Si     tau(  48) = (   0.2400871   0.2615564   1.6009290  )
        49        Si     tau(  49) = (   0.0782160   0.8578516   1.7113893  )
        50        Si     tau(  50) = (   0.1793983   0.5421597   1.3229395  )
        51        Si     tau(  51) = (   0.3045589   0.3154693   1.3856788  )
        52        Si     tau(  52) = (   0.1868342   0.9496617   1.8144358  )
        53        Si     tau(  53) = (   0.5597482   0.9942014   1.8563540  )
        54        Si     tau(  54) = (   0.3283405   0.8654915   1.7979255  )
        55        Si     tau(  55) = (   0.3944303   0.1342286   1.2558232  )
        56        Si     tau(  56) = (   0.5556116   0.4029995   1.7688172  )
        57        Si     tau(  57) = (   0.8886951   0.0519111   1.5515978  )
        58        Si     tau(  58) = (   0.9177874   0.8266438   1.8602018  )
        59        Si     tau(  59) = (   0.5141592   0.7513592   1.7304853  )
        60        Si     tau(  60) = (   0.6200680   0.7296116   1.5975635  )
        61        Si     tau(  61) = (   0.4531771   0.2653855   1.4551164  )
        62        Si     tau(  62) = (   0.9530092   0.1910999   1.6203079  )
        63        Si     tau(  63) = (   0.9806318   0.2594417   1.4695044  )
        64        Si     tau(  64) = (   0.1810221   0.5658568   1.7318917  )
        65        Si     tau(  65) = (   0.2276537   0.6624309   1.2309086  )
        66        Si     tau(  66) = (   0.7086066   0.3068958   1.4624957  )
        67        Si     tau(  67) = (   0.7573617   0.5008676   1.2102682  )
        68        Si     tau(  68) = (   0.0630774   0.5052222   1.8068999  )
        69        Si     tau(  69) = (   0.9531780   0.4208941   1.7332624  )
        70        Si     tau(  70) = (   0.8429520   0.6341042   1.3864806  )
        71        Si     tau(  71) = (   0.8255070   0.2513717   1.7092992  )
        72        Si     tau(  72) = (   0.4660404   0.3166643   1.5999861  )
        73        Si     tau(  73) = (   0.3218087   0.1696541   1.7095271  )
        74        Si     tau(  74) = (   0.6054871   0.0864265   1.2929813  )
        75        Si     tau(  75) = (   0.4402609   0.0821865   1.6559030  )
        76        Si     tau(  76) = (   0.3770531   0.0317907   1.3941734  )
        77        Si     tau(  77) = (   0.5059912   0.8072476   1.3243503  )
        78        Si     tau(  78) = (   0.6069382   0.5044701   1.6609957  )
        79        Si     tau(  79) = (   0.6370349   0.4244534   1.3741369  )
        80        Si     tau(  80) = (   0.6855674   0.7078304   1.8645318  )
        81        Si     tau(  81) = (   0.0765130   0.9298841   1.2314627  )
        82        Si     tau(  82) = (   0.9863684   0.4054382   1.2235204  )
        83        Si     tau(  83) = (   0.4950631   0.2585395   1.7548401  )
        84        Si     tau(  84) = (   0.5719431   0.1160579   1.7357262  )
        85        Si     tau(  85) = (   0.3566442   0.7389475   1.7027041  )
        86        Si     tau(  86) = (   0.5887626   0.6478135   1.7482870  )
        87        Si     tau(  87) = (   0.3778403   0.4701707   1.1981005  )
        88        Si     tau(  88) = (   0.7705746   0.7745811   1.3546535  )
        89        Si     tau(  89) = (   0.6353056   0.3899359   1.2194797  )
        90        Si     tau(  90) = (   0.3199297   0.6027545   1.8036004  )
        91        Si     tau(  91) = (   0.6901246   0.5787282   1.5496775  )
        92        Si     tau(  92) = (   0.1108815   0.9857043   1.4484254  )
        93        Si     tau(  93) = (   0.0087222   0.8101075   1.4596435  )
        94        Si     tau(  94) = (   0.4662737   0.5842118   1.4387730  )
        95        Si     tau(  95) = (   0.1497603   0.1150345   1.8191784  )
        96        Si     tau(  96) = (   0.9119816   0.9073773   1.5284091  )
        97        Si     tau(  97) = (   0.5081777   0.9347421   1.4393654  )
        98        Si     tau(  98) = (   0.9733658   0.9480751   1.7929925  )
        99        Si     tau(  99) = (   0.2449909   0.7736475   1.5958723  )
       100        Si     tau( 100) = (   0.2568298   0.7840856   1.3334763  )
       101        Si     tau( 101) = (   0.1600543   0.7576293   1.4557816  )
       102        Si     tau( 102) = (   0.9190690   0.2974838   1.8287833  )
       103        Si     tau( 103) = (   0.8499270   0.3745654   1.6104514  )
       104        Si     tau( 104) = (   0.8444491   0.5369054   1.7673517  )
       105        Si     tau( 105) = (   0.1203187   0.1732756   1.6597012  )
       106        Si     tau( 106) = (   0.6321686   0.6005607   1.2681838  )
       107        Si     tau( 107) = (   0.6235724   0.8470731   1.8048529  )
       108        Si     tau( 108) = (   0.7501132   0.1202716   1.2309056  )
       109        Si     tau( 109) = (   0.2746484   0.2046900   1.8670863  )
       110        Si     tau( 110) = (   0.2273259   0.0646953   1.6216725  )
       111        Si     tau( 111) = (   0.0729274   0.4042159   1.4579120  )
       112        Si     tau( 112) = (   0.6640697   0.1601480   1.5162335  )
       113        Si     tau( 113) = (   0.1226817   0.7031938   1.6887692  )
       114        Si     tau( 114) = (   0.8406300   0.5276586   1.5875131  )
       115        Si     tau( 115) = (   0.8389500   0.3149315   1.3901795  )
       116        Si     tau( 116) = (   0.1722727   0.9211130   1.5953570  )
       117        Si     tau( 117) = (   0.0763504   0.1375521   1.3930086  )
       118        Si     tau( 118) = (   0.3256209   0.9115638   1.2548481  )
       119        Si     tau( 119) = (   0.3955849   0.7224945   1.4035300  )
       120        Si     tau( 120) = (   0.4652418   0.5499611   1.5942954  )
       121        Si     tau( 121) = (   0.1212618   0.3651412   1.3045003  )
       122        O      tau( 122) = (   0.0295168   0.4481121   1.8630498  )
       123        O      tau( 123) = (   0.8632305   0.7660730   1.8351295  )
       124        O      tau( 124) = (   0.7865379   0.5198677   1.8292109  )
       125        O      tau( 125) = (   0.7687039   0.8065522   1.2712216  )
       126        O      tau( 126) = (   0.2613316   0.2462125   1.3627201  )
       127        O      tau( 127) = (   0.4383841   0.2721051   1.5384261  )
       128        O      tau( 128) = (   0.4075804   0.9041606   1.6244717  )
       129        O      tau( 129) = (   0.2891632   0.9821156   1.2266374  )
       130        O      tau( 130) = (   0.3003666   0.1796727   1.7902854  )
       131        O      tau( 131) = (   0.5973279   0.4225163   1.2949590  )
       132        O      tau( 132) = (   0.5334428   0.5020140   1.6146071  )
       133        O      tau( 133) = (   0.2755656   0.1058719   1.6786020  )
       134        O      tau( 134) = (   0.1545595   0.1075181   1.6150265  )
       135        O      tau( 135) = (   0.1198242   0.5723265   1.5291309  )
       136        O      tau( 136) = (   0.5826608   0.7211316   1.6806210  )
       137        O      tau( 137) = (   0.4384820   0.7620469   1.6969890  )
       138        O      tau( 138) = (   0.3813441   0.2977472   1.4178316  )
       139        O      tau( 139) = (   0.9518571   0.2429557   1.5505285  )
       140        O      tau( 140) = (   0.6668767   0.5177678   1.6031137  )
       141        O      tau( 141) = (   0.1520770   0.1695411   1.3620472  )
       142        O      tau( 142) = (   0.6925009   0.7509516   1.3753791  )
       143        O      tau( 143) = (   0.1434568   0.6580895   1.2139172  )
       144        O      tau( 144) = (   0.4761486   0.9028411   1.5138988  )
       145        O      tau( 145) = (   0.0631356   0.5782061   1.8492954  )
       146        O      tau( 146) = (   0.5876332   0.4146284   1.8503125  )
       147        O      tau( 147) = (   0.1071621   0.8902567   1.6361869  )
       148        O      tau( 148) = (   0.0331486   0.1967754   1.4407710  )
       149        O      tau( 149) = (   0.9443941   0.9810288   1.5588672  )
       150        O      tau( 150) = (   0.5485694   0.5774714   1.2625723  )
       151        O      tau( 151) = (   0.6090489   0.9225244   1.8421140  )
       152        O      tau( 152) = (   0.3184350   0.7927686   1.7545505  )
       153        O      tau( 153) = (   0.2965868   0.2359092   1.6579206  )
       154        O      tau( 154) = (   0.3399948   0.4149078   1.7451441  )
       155        O      tau( 155) = (   0.6583099   0.3076783   1.2358723  )
       156        O      tau( 156) = (   0.5620926   0.7442927   1.5385442  )
       157        O      tau( 157) = (   0.5556976   0.3175372   1.7688381  )
       158        O      tau( 158) = (   0.3525972   0.6632019   1.7471104  )
       159        O      tau( 159) = (   0.9620412   0.3446718   1.7697440  )
       160        O      tau( 160) = (   0.5313272   0.1848172   1.7709556  )
       161        O      tau( 161) = (   0.9429693   0.0183272   1.3239474  )
       162        O      tau( 162) = (   0.4858005   0.9533180   1.8755890  )
       163        O      tau( 163) = (   0.3657073   0.5328581   1.8345358  )
       164        O      tau( 164) = (   0.4406081   0.5066782   1.2484323  )
       165        O      tau( 165) = (   0.3135028   0.2834622   1.8690668  )
       166        O      tau( 166) = (   0.7907911   0.8360261   1.7119523  )
       167        O      tau( 167) = (   0.7289290   0.9234833   1.2340123  )
       168        O      tau( 168) = (   0.1454692   0.2885690   1.3267456  )
       169        O      tau( 169) = (   0.3914991   0.9066251   1.7575926  )
       170        O      tau( 170) = (   0.7079875   0.2222935   1.4707635  )
       171        O      tau( 171) = (   0.9743698   0.8515159   1.5269402  )
       172        O      tau( 172) = (   0.1330105   0.5361140   1.2470617  )
       173        O      tau( 173) = (   0.5827735   0.0420994   1.2254729  )
       174        O      tau( 174) = (   0.8602910   0.6220068   1.7811976  )
       175        O      tau( 175) = (   0.5252483   0.6418342   1.4684534  )
       176        O      tau( 176) = (   0.6556139   0.6691234   1.7930720  )
       177        O      tau( 177) = (   0.9478947   0.4555202   1.2814895  )
       178        O      tau( 178) = (   0.9699578   0.0766966   1.2188133  )
       179        O      tau( 179) = (   0.5480526   0.8088247   1.7836236  )
       180        O      tau( 180) = (   0.3152477   0.7447790   1.3880620  )
       181        O      tau( 181) = (   0.1477991   0.6460434   1.7450578  )
       182        O      tau( 182) = (   0.4226375   0.0083615   1.6949577  )
       183        O      tau( 183) = (   0.5004654   0.8461638   1.2447985  )
       184        O      tau( 184) = (   0.7864920   0.8423242   1.4036977  )
       185        O      tau( 185) = (   0.9046070   0.6136339   1.3286598  )
       186        O      tau( 186) = (   0.1308852   0.5564651   1.3912596  )
       187        O      tau( 187) = (   0.0181193   0.9388870   1.8632981  )
       188        O      tau( 188) = (   0.5236768   0.3172741   1.4469420  )
       189        O      tau( 189) = (   0.6771903   0.1363695   1.2729556  )
       190        O      tau( 190) = (   0.5668565   0.7520726   1.3411952  )
       191        O      tau( 191) = (   0.4390184   0.1054952   1.8920128  )
       192        O      tau( 192) = (   0.2801127   0.0556319   1.5537880  )
       193        O      tau( 193) = (   0.9517833   0.2240015   1.8530263  )
       194        O      tau( 194) = (   0.4078786   0.5134087   1.6517908  )
       195        O      tau( 195) = (   0.6735166   0.7941076   1.8547702  )
       196        O      tau( 196) = (   0.7896414   0.2674110   1.3392843  )
       197        O      tau( 197) = (   0.9136500   0.5214282   1.5392122  )
       198        O      tau( 198) = (   0.5881526   0.4350093   1.4460280  )
       199        O      tau( 199) = (   0.7745755   0.5842257   1.3844862  )
       200        O      tau( 200) = (   0.2034896   0.9862494   1.6415920  )
       201        O      tau( 201) = (   0.1233221   0.6813655   1.4530684  )
       202        O      tau( 202) = (   0.7937827   0.3272627   1.4639956  )
       203        O      tau( 203) = (   0.4473563   0.5396589   1.5104804  )
       204        O      tau( 204) = (   0.6542799   0.3403998   1.5182787  )
       205        O      tau( 205) = (   0.8234572   0.7113307   1.3622509  )
       206        O      tau( 206) = (   0.8127487   0.4431771   1.5824090  )
       207        O      tau( 207) = (   0.5134106   0.6764784   1.7758121  )
       208        O      tau( 208) = (   0.1836556   0.7783442   1.3761575  )
       209        O      tau( 209) = (   0.8104766   0.3105590   1.6473803  )
       210        O      tau( 210) = (   0.3044033   0.9850075   1.3843284  )
       211        O      tau( 211) = (   0.1301504   0.8965179   1.7717389  )
       212        O      tau( 212) = (   0.3197141   0.1653364   1.2298596  )
       213        O      tau( 213) = (   0.4699233   0.1934200   1.4196372  )
       214        O      tau( 214) = (   0.2809558   0.8612246   1.3097159  )
       215        O      tau( 215) = (   0.4264163   0.2824703   1.8051299  )
       216        O      tau( 216) = (   0.6599679   0.6539216   1.5790006  )
       217        O      tau( 217) = (   0.7349642   0.9291111   1.6364595  )
       218        O      tau( 218) = (   0.0099961   0.4612132   1.4800917  )
       219        O      tau( 219) = (   0.5892025   0.1978638   1.5290320  )
       220        O      tau( 220) = (   0.0485841   0.8646896   1.2765110  )
       221        O      tau( 221) = (   0.9732948   0.8322736   1.3845405  )
       222        O      tau( 222) = (   0.4005127   0.1467648   1.7001924  )
       223        O      tau( 223) = (   0.8561165   0.3880932   1.3551362  )
       224        O      tau( 224) = (   0.1908703   0.7320545   1.6493092  )
       225        O      tau( 225) = (   0.5316561   0.3624401   1.5720686  )
       226        O      tau( 226) = (   0.6407674   0.0341441   1.3503554  )
       227        O      tau( 227) = (   0.2507360   0.3493753   1.4464087  )
       228        O      tau( 228) = (   0.5138994   0.8709061   1.3834646  )
       229        O      tau( 229) = (   0.9079300   0.5013233   1.4088368  )
       230        O      tau( 230) = (   0.4395504   0.1937154   1.2966161  )
       231        O      tau( 231) = (   0.2308999   0.6103161   1.2990312  )
       232        O      tau( 232) = (   0.3685013   0.9700313   1.5258447  )
       233        O      tau( 233) = (   0.8514985   0.9494698   1.6877232  )
       234        O      tau( 234) = (   0.0187499   0.4824011   1.7364241  )
       235        O      tau( 235) = (   0.2414021   0.3421124   1.5740169  )
       236        O      tau( 236) = (   0.6097970   0.4413714   1.7163163  )
       237        O      tau( 237) = (   0.4788214   0.4352721   1.7472383  )
       238        O      tau( 238) = (   0.1395403   0.9630524   1.5257738  )
       239        O      tau( 239) = (   0.3787358   0.0784353   1.3203646  )
       240        O      tau( 240) = (   0.5839692   0.9685892   1.4551464  )
       241        O      tau( 241) = (   0.9110607   0.6557788   1.2003494  )
       242        O      tau( 242) = (   0.0686474   0.1043740   1.8437037  )
       243        O      tau( 243) = (   0.1460976   0.3999842   1.5060950  )
       244        O      tau( 244) = (   0.4166165   0.3782170   1.6358330  )
       245        O      tau( 245) = (   0.0075933   0.9084354   1.7265037  )
       246        O      tau( 246) = (   0.8482460   0.9888286   1.2074661  )
       247        O      tau( 247) = (   0.6787187   0.3475581   1.3906861  )
       248        O      tau( 248) = (   0.2793975   0.6318760   1.8700688  )
       249        O      tau( 249) = (   0.1753735   0.9662414   1.3957977  )
       250        O      tau( 250) = (   0.0079684   0.6039592   1.4520956  )
       251        O      tau( 251) = (   0.6799702   0.7916690   1.6137563  )
       252        O      tau( 252) = (   0.8228944   0.4963375   1.2716413  )
       253        O      tau( 253) = (   0.1652982   0.5553089   1.6491463  )
       254        O      tau( 254) = (   0.6527640   0.8346788   1.2935381  )
       255        O      tau( 255) = (   0.0358116   0.1810737   1.6422342  )
       256        O      tau( 256) = (   0.5638762   0.0484964   1.7892635  )
       257        O      tau( 257) = (   0.7314789   0.9670683   1.4359075  )
       258        O      tau( 258) = (   0.2559548   0.8899428   1.4535926  )
       259        O      tau( 259) = (   0.7774448   0.5773609   1.5598674  )
       260        O      tau( 260) = (   0.0868638   0.6515873   1.6288983  )
       261        O      tau( 261) = (   0.2614827   0.9212168   1.7891965  )
       262        O      tau( 262) = (   0.1954831   0.1735609   1.8664394  )
       263        O      tau( 263) = (   0.9906684   0.7948073   1.8435173  )
       264        O      tau( 264) = (   0.4575167   0.9955248   1.4051103  )
       265        O      tau( 265) = (   0.7735858   0.2011661   1.2118609  )
       266        O      tau( 266) = (   0.8814090   0.9281431   1.4499689  )
       267        O      tau( 267) = (   0.4072071   0.9256292   1.2771435  )
       268        O      tau( 268) = (   0.8399764   0.8937974   1.5751596  )
       269        O      tau( 269) = (   0.9802476   0.7272430   1.4739436  )
       270        O      tau( 270) = (   0.4029974   0.6353892   1.4077172  )
       271        O      tau( 271) = (   0.5236271   0.0940762   1.6637713  )
       272        O      tau( 272) = (   0.2291142   0.8566340   1.6031926  )
       273        O      tau( 273) = (   0.1369597   0.1529802   1.7410824  )
       274        O      tau( 274) = (   0.8956842   0.4684356   1.7728116  )
       275        O      tau( 275) = (   0.0304714   0.3296381   1.4668483  )
       276        O      tau( 276) = (   0.9261533   0.1126670   1.5937994  )
       277        O      tau( 277) = (   0.3196110   0.7473434   1.6269653  )
       278        O      tau( 278) = (   0.2346612   0.4755155   1.3381933  )
       279        O      tau( 279) = (   0.0309321   0.9618656   1.4299785  )
       280        O      tau( 280) = (   0.1026240   0.4047238   1.3770124  )
       281        O      tau( 281) = (   0.0996948   0.0720356   1.4419196  )
       282        O      tau( 282) = (   0.9796419   0.7336502   1.2951357  )
       283        O      tau( 283) = (   0.4798587   0.2721799   1.6719849  )
       284        O      tau( 284) = (   0.1447462   0.5042309   1.7791641  )
       285        O      tau( 285) = (   0.6584207   0.0850578   1.4744274  )
       286        O      tau( 286) = (   0.8447302   0.2856675   1.7867899  )
       287        O      tau( 287) = (   0.9236456   0.3532967   1.8933803  )
       288        O      tau( 288) = (   0.7131244   0.4260542   1.2089447  )
       289        O      tau( 289) = (   0.1815374   0.0351118   1.8104616  )
       290        O      tau( 290) = (   0.0329975   0.6097415   1.2681351  )
       291        O      tau( 291) = (   0.8998275   0.8951096   1.8045433  )
       292        O      tau( 292) = (   0.3016404   0.4593341   1.2337882  )
       293        O      tau( 293) = (   0.2631331   0.5633327   1.7490475  )
       294        O      tau( 294) = (   0.7023044   0.1539457   1.5910141  )
       295        O      tau( 295) = (   0.5450848   0.1349270   1.3303906  )
       296        O      tau( 296) = (   0.1632620   0.2443342   1.6379519  )
       297        O      tau( 297) = (   0.1916640   0.3894955   1.2601897  )
       298        O      tau( 298) = (   0.0615898   0.0043928   1.2718305  )
       299        O      tau( 299) = (   0.3967139   0.3875856   1.8762703  )
       300        O      tau( 300) = (   0.4846187   0.5410669   1.3666698  )
       301        O      tau( 301) = (   0.8186424   0.0168112   1.5820830  )
       302        O      tau( 302) = (   0.5974300   0.5762403   1.7036424  )
       303        O      tau( 303) = (   0.4323575   0.7667648   1.3386386  )
       304        O      tau( 304) = (   0.7719883   0.9374236   1.8028857  )
       305        O      tau( 305) = (   0.7672182   0.1900179   1.6976508  )
       306        O      tau( 306) = (   0.8994379   0.0650389   1.4672678  )
       307        O      tau( 307) = (   0.4462121   0.7426137   1.4731770  )
       308        O      tau( 308) = (   0.9211726   0.3961581   1.6533343  )
       309        O      tau( 309) = (   0.2420202   0.2200105   1.5251544  )
       310        O      tau( 310) = (   0.8842963   0.6436934   1.4589679  )
       311        O      tau( 311) = (   0.6482991   0.6785877   1.2330670  )
       312        O      tau( 312) = (   0.4832983   0.6325017   1.6039613  )
       313        O      tau( 313) = (   0.7361349   0.0571749   1.8732737  )
       314        O      tau( 314) = (   0.6649925   0.8590630   1.7336776  )
       315        O      tau( 315) = (   0.9130296   0.2721061   1.4159943  )
       316        O      tau( 316) = (   0.6511009   0.5989696   1.3506902  )
       317        O      tau( 317) = (   0.8131240   0.0898692   1.2825970  )
       318        O      tau( 318) = (   0.6524595   0.1336951   1.7108949  )
       319        O      tau( 319) = (   0.6784211   0.5695802   1.4690337  )
       320        O      tau( 320) = (   0.9018920   0.2183548   1.6834522  )
       321        O      tau( 321) = (   0.9678130   0.0358255   1.7940055  )
       322        O      tau( 322) = (   0.8368182   0.5391156   1.6776043  )
       323        O      tau( 323) = (   0.7668768   0.6856661   1.8697035  )
       324        O      tau( 324) = (   0.1531671   0.9301796   1.8945654  )
       325        O      tau( 325) = (   0.2178402   0.7542098   1.5177838  )
       326        O      tau( 326) = (   0.3614324   0.0782581   1.4600024  )
       327        O      tau( 327) = (   0.4053368   0.0766386   1.5793453  )
       328        O      tau( 328) = (   0.3320739   0.8564650   1.8828345  )
       329        O      tau( 329) = (   0.0914304   0.8126101   1.4681485  )
       330        O      tau( 330) = (   0.2416337   0.7445048   1.2588964  )
       331        O      tau( 331) = (   0.8232583   0.9617889   1.3373563  )
       332        O      tau( 332) = (   0.0224173   0.1103921   1.3331986  )
       333        O      tau( 333) = (   0.0827261   0.7743688   1.7158336  )
       334        O      tau( 334) = (   0.3058372   0.3697607   1.3216954  )
       335        O      tau( 335) = (   0.6940744   0.4843818   1.3763524  )
       336        O      tau( 336) = (   0.0505520   0.3569640   1.2588409  )
       337        O      tau( 337) = (   0.6956442   0.5556100   1.2255199  )
       338        O      tau( 338) = (   0.9205918   0.8444316   1.2442634  )
       339        Al     tau( 339) = (   0.9474166   0.9984982   1.4171699  )
       340        Al     tau( 340) = (   0.7317137   0.2651324   1.2660316  )
       341        C      tau( 341) = (   0.5214378   0.4015461   0.8480379  )
       342        C      tau( 342) = (   0.4479569   0.3909766   0.8350900  )
       343        C      tau( 343) = (   0.5653175   0.3422400   0.8602755  )
       344        C      tau( 344) = (   0.4205128   0.3214128   0.8347759  )
       345        C      tau( 345) = (   0.5488767   0.4711092   0.8483511  )
       346        C      tau( 346) = (   0.4040833   0.4502831   0.8228481  )
       347        C      tau( 347) = (   0.5371518   0.2734980   0.8597597  )
       348        C      tau( 348) = (   0.4648892   0.2631047   0.8470372  )
       349        C      tau( 349) = (   0.5045065   0.5294176   0.8360855  )
       350        C      tau( 350) = (   0.4322510   0.5190244   0.8233535  )
       351        H      tau( 351) = (   0.6219558   0.3491057   0.8703341  )
       352        H      tau( 352) = (   0.3641909   0.3120316   0.8249437  )
       353        H      tau( 353) = (   0.6051969   0.4804959   0.8581880  )
       354        H      tau( 354) = (   0.3474366   0.4434151   0.8127772  )
       355        H      tau( 355) = (   0.5716658   0.2280845   0.8693046  )
       356        H      tau( 356) = (   0.4429953   0.2095720   0.8466418  )
       357        H      tau( 357) = (   0.5264020   0.5829447   0.8364762  )
       358        H      tau( 358) = (   0.3977363   0.5644431   0.8138080  )

     number of k points=     1  Gaussian smearing, width (Ry)=  0.0100
                       cart. coord. in units 2pi/alat
        k(    1) = (   0.0000000   0.0000000   0.0000000), wk =   2.0000000

     Dense  grid: 15943719 G-vectors     FFT dimensions: ( 216, 216, 675)

     Smooth grid: 13361281 G-vectors     FFT dimensions: ( 216, 216, 625)

     Estimated max dynamical RAM per process >       4.14 GB

     Estimated total dynamical RAM >     331.13 GB

     Check: negative core charge=   -0.000001

     Initial potential from superposition of free atoms

     starting charge    1871.8703, renormalised to    1872.0000

     negative rho (up, down):  4.104E-02 0.000E+00
     Starting wfcs are 1419 randomized atomic wfcs
     Checking if some PAW data can be deallocated... 

     total cpu time spent up to now is      149.3 secs

     per-process dynamical memory:  1754.1 Mb

     Self-consistent Calculation

     iteration #  1     ecut=    80.00 Ry     beta= 0.10
     Davidson diagonalization with overlap
     ethr =  1.00E-02,  avg # of iterations =  3.0

     negative rho (up, down):  4.303E-02 0.000E+00

     total cpu time spent up to now is      643.8 secs

     total energy              =  -11693.37749781 Ry
     estimated scf accuracy    <     115.59039892 Ry

     iteration #  2     ecut=    80.00 Ry     beta= 0.10
     Davidson diagonalization with overlap
     ethr =  6.17E-03,  avg # of iterations =  1.0

     negative rho (up, down):  4.469E-02 0.000E+00

     total cpu time spent up to now is      931.0 secs

     total energy              =  -11688.11079555 Ry
     estimated scf accuracy    <      84.84157788 Ry

     iteration #  3     ecut=    80.00 Ry     beta= 0.10
     Davidson diagonalization with overlap
     ethr =  4.53E-03,  avg # of iterations =  1.0

     negative rho (up, down):  4.647E-02 0.000E+00

     total cpu time spent up to now is     1219.2 secs

     total energy              =  -11681.49293109 Ry
     estimated scf accuracy    <      59.13617524 Ry

     iteration #  4     ecut=    80.00 Ry     beta= 0.10
     Davidson diagonalization with overlap
     ethr =  3.16E-03,  avg # of iterations =  2.0

     negative rho (up, down):  4.752E-02 0.000E+00

     total cpu time spent up to now is     1543.4 secs

     total energy              =  -11682.82141674 Ry
     estimated scf accuracy    <      60.36067122 Ry

     iteration #  5     ecut=    80.00 Ry     beta= 0.10
     Davidson diagonalization with overlap
     ethr =  3.16E-03,  avg # of iterations =  1.0

     negative rho (up, down):  4.861E-02 0.000E+00

     total cpu time spent up to now is     1830.0 secs

     total energy              =  -11682.19342059 Ry
     estimated scf accuracy    <      39.46645562 Ry

     iteration #  6     ecut=    80.00 Ry     beta= 0.10
     Davidson diagonalization with overlap
     ethr =  2.11E-03,  avg # of iterations =  1.0

     negative rho (up, down):  4.944E-02 0.000E+00

     total cpu time spent up to now is     2116.6 secs

     total energy              =  -11682.42603630 Ry
     estimated scf accuracy    <      26.74601016 Ry

     iteration #  7     ecut=    80.00 Ry     beta= 0.10
     Davidson diagonalization with overlap
     ethr =  1.43E-03,  avg # of iterations =  2.0

     negative rho (up, down):  5.023E-02 0.000E+00

     total cpu time spent up to now is     2440.3 secs

     total energy              =  -11682.17176548 Ry
     estimated scf accuracy    <      34.91336172 Ry

     iteration #  8     ecut=    80.00 Ry     beta= 0.10
     Davidson diagonalization with overlap
     ethr =  1.43E-03,  avg # of iterations =  1.0

     negative rho (up, down):  5.079E-02 0.000E+00

     total cpu time spent up to now is     2727.3 secs

     total energy              =  -11682.31383746 Ry
     estimated scf accuracy    <      18.92595639 Ry

     iteration #  9     ecut=    80.00 Ry     beta= 0.10
     Davidson diagonalization with overlap
     ethr =  1.01E-03,  avg # of iterations =  2.0

     negative rho (up, down):  5.137E-02 0.000E+00

     total cpu time spent up to now is     3050.4 secs

     total energy              =  -11682.13518591 Ry
     estimated scf accuracy    <      18.35947724 Ry

     iteration # 10     ecut=    80.00 Ry     beta= 0.10
     Davidson diagonalization with overlap
     ethr =  9.81E-04,  avg # of iterations =  1.0

     negative rho (up, down):  5.187E-02 0.000E+00

     total cpu time spent up to now is     3337.6 secs

     total energy              =  -11682.15560517 Ry
     estimated scf accuracy    <      12.22398127 Ry

     iteration # 11     ecut=    80.00 Ry     beta= 0.10
     Davidson diagonalization with overlap
     ethr =  6.53E-04,  avg # of iterations =  2.0

     negative rho (up, down):  5.220E-02 0.000E+00

     total cpu time spent up to now is     3662.1 secs

     total energy              =  -11682.05001118 Ry
     estimated scf accuracy    <      21.53049545 Ry

     iteration # 12     ecut=    80.00 Ry     beta= 0.10
     Davidson diagonalization with overlap
     ethr =  6.53E-04,  avg # of iterations =  1.0

     negative rho (up, down):  5.248E-02 0.000E+00

     total cpu time spent up to now is     3951.5 secs

     total energy              =  -11682.31268484 Ry
     estimated scf accuracy    <       4.96118978 Ry

     iteration # 13     ecut=    80.00 Ry     beta= 0.10
     Davidson diagonalization with overlap
     ethr =  2.65E-04,  avg # of iterations = 16.0

     negative rho (up, down):  5.288E-02 0.000E+00

     total cpu time spent up to now is     4386.5 secs

     total energy              =  -11682.21090544 Ry
     estimated scf accuracy    <       5.96775833 Ry

     iteration # 14     ecut=    80.00 Ry     beta= 0.10
     Davidson diagonalization with overlap
     ethr =  2.65E-04,  avg # of iterations =  1.0

     negative rho (up, down):  5.343E-02 0.000E+00

     total cpu time spent up to now is     4674.9 secs

     total energy              =  -11682.09520189 Ry
     estimated scf accuracy    <       4.70164662 Ry

     iteration # 15     ecut=    80.00 Ry     beta= 0.10
     Davidson diagonalization with overlap
     ethr =  2.51E-04,  avg # of iterations =  1.0

     negative rho (up, down):  5.340E-02 0.000E+00

     total cpu time spent up to now is     4963.5 secs

     total energy              =  -11681.88965268 Ry
     estimated scf accuracy    <      19.01087114 Ry

     iteration # 16     ecut=    80.00 Ry     beta= 0.10
     Davidson diagonalization with overlap
     ethr =  2.51E-04,  avg # of iterations =  2.0

     negative rho (up, down):  5.375E-02 0.000E+00

     total cpu time spent up to now is     5287.3 secs

     total energy              =  -11682.13544219 Ry
     estimated scf accuracy    <       3.78087071 Ry

     iteration # 17     ecut=    80.00 Ry     beta= 0.10
     Davidson diagonalization with overlap
     ethr =  2.02E-04,  avg # of iterations =  1.0

     negative rho (up, down):  5.425E-02 0.000E+00

     total cpu time spent up to now is     5575.6 secs

     total energy              =  -11682.07060200 Ry
     estimated scf accuracy    <       3.32360457 Ry

     iteration # 18     ecut=    80.00 Ry     beta= 0.10
     Davidson diagonalization with overlap
     ethr =  1.78E-04,  avg # of iterations =  1.0

     negative rho (up, down):  5.425E-02 0.000E+00

     total cpu time spent up to now is     5863.6 secs

     total energy              =  -11681.96753453 Ry
     estimated scf accuracy    <       8.11940401 Ry

     iteration # 19     ecut=    80.00 Ry     beta= 0.10
     Davidson diagonalization with overlap
     ethr =  1.78E-04,  avg # of iterations =  2.0

     negative rho (up, down):  5.449E-02 0.000E+00

     total cpu time spent up to now is     6187.3 secs

     total energy              =  -11682.11849410 Ry
     estimated scf accuracy    <       3.14961184 Ry

     iteration # 20     ecut=    80.00 Ry     beta= 0.10
     Davidson diagonalization with overlap
     ethr =  1.68E-04,  avg # of iterations =  1.0

     negative rho (up, down):  5.496E-02 0.000E+00

     total cpu time spent up to now is     6476.1 secs

     total energy              =  -11682.06629980 Ry
     estimated scf accuracy    <       2.91628015 Ry

     iteration # 21     ecut=    80.00 Ry     beta= 0.10
     Davidson diagonalization with overlap
     ethr =  1.56E-04,  avg # of iterations =  1.0

     negative rho (up, down):  5.509E-02 0.000E+00

     total cpu time spent up to now is     6764.0 secs

     total energy              =  -11681.99169653 Ry
     estimated scf accuracy    <      10.41032209 Ry

     iteration # 22     ecut=    80.00 Ry     beta= 0.10
     Davidson diagonalization with overlap
     ethr =  1.56E-04,  avg # of iterations =  1.0

     negative rho (up, down):  5.519E-02 0.000E+00

     total cpu time spent up to now is     7052.1 secs

     total energy              =  -11682.04446919 Ry
     estimated scf accuracy    <       7.94990718 Ry

     iteration # 23     ecut=    80.00 Ry     beta= 0.10
     Davidson diagonalization with overlap
     ethr =  1.56E-04,  avg # of iterations =  1.0

     negative rho (up, down):  5.521E-02 0.000E+00

     total cpu time spent up to now is     7339.9 secs

     total energy              =  -11682.07670667 Ry
     estimated scf accuracy    <       4.46423198 Ry

     iteration # 24     ecut=    80.00 Ry     beta= 0.10
     Davidson diagonalization with overlap
     ethr =  1.56E-04,  avg # of iterations =  1.0

     negative rho (up, down):  5.573E-02 0.000E+00

     total cpu time spent up to now is     7629.1 secs

     total energy              =  -11682.06552152 Ry
     estimated scf accuracy    <       3.78794607 Ry

     iteration # 25     ecut=    80.00 Ry     beta= 0.10
     Davidson diagonalization with overlap
     ethr =  1.56E-04,  avg # of iterations =  1.0

     negative rho (up, down):  5.571E-02 0.000E+00

     total cpu time spent up to now is     7917.0 secs

     total energy              =  -11682.06660448 Ry
     estimated scf accuracy    <       2.61542885 Ry

     iteration # 26     ecut=    80.00 Ry     beta= 0.10
     Davidson diagonalization with overlap
     ethr =  1.40E-04,  avg # of iterations =  1.0

     negative rho (up, down):  5.591E-02 0.000E+00

     total cpu time spent up to now is     8204.7 secs

     total energy              =  -11682.08616306 Ry
     estimated scf accuracy    <       1.24161665 Ry

     iteration # 27     ecut=    80.00 Ry     beta= 0.10
     Davidson diagonalization with overlap
     ethr =  6.63E-05,  avg # of iterations =  1.0

     negative rho (up, down):  5.669E-02 0.000E+00

     total cpu time spent up to now is     8493.5 secs

     total energy              =  -11682.06810445 Ry
     estimated scf accuracy    <       1.77217955 Ry

     iteration # 28     ecut=    80.00 Ry     beta= 0.10
     Davidson diagonalization with overlap
     ethr =  6.63E-05,  avg # of iterations =  1.0

     negative rho (up, down):  5.606E-02 0.000E+00

     total cpu time spent up to now is     8781.3 secs

     total energy              =  -11681.99523727 Ry
     estimated scf accuracy    <       6.60157672 Ry

     iteration # 29     ecut=    80.00 Ry     beta= 0.10
     Davidson diagonalization with overlap
     ethr =  6.63E-05,  avg # of iterations =  1.0

     negative rho (up, down):  5.630E-02 0.000E+00

     total cpu time spent up to now is     9069.2 secs

     total energy              =  -11682.07335372 Ry
     estimated scf accuracy    <       4.25687758 Ry

     iteration # 30     ecut=    80.00 Ry     beta= 0.10
     Davidson diagonalization with overlap
     ethr =  6.63E-05,  avg # of iterations =  1.0

     negative rho (up, down):  5.645E-02 0.000E+00

     total cpu time spent up to now is     9357.5 secs

     total energy              =  -11682.08746796 Ry
     estimated scf accuracy    <       1.13854908 Ry

     iteration # 31     ecut=    80.00 Ry     beta= 0.10
     Davidson diagonalization with overlap
     ethr =  6.08E-05,  avg # of iterations =  1.0

     negative rho (up, down):  5.671E-02 0.000E+00

     total cpu time spent up to now is     9645.5 secs

     total energy              =  -11682.08845068 Ry
     estimated scf accuracy    <       1.85166906 Ry

     iteration # 32     ecut=    80.00 Ry     beta= 0.10
     Davidson diagonalization with overlap
     ethr =  6.08E-05,  avg # of iterations =  1.0

     negative rho (up, down):  5.676E-02 0.000E+00

     total cpu time spent up to now is     9933.0 secs

     total energy              =  -11682.07528634 Ry
     estimated scf accuracy    <       1.77788948 Ry

     iteration # 33     ecut=    80.00 Ry     beta= 0.10
     Davidson diagonalization with overlap
     ethr =  6.08E-05,  avg # of iterations =  1.0

     negative rho (up, down):  5.660E-02 0.000E+00

     total cpu time spent up to now is    10221.4 secs

     total energy              =  -11682.05862800 Ry
     estimated scf accuracy    <       5.41893237 Ry

     iteration # 34     ecut=    80.00 Ry     beta= 0.10
     Davidson diagonalization with overlap
     ethr =  6.08E-05,  avg # of iterations =  1.0

     negative rho (up, down):  5.686E-02 0.000E+00

     total cpu time spent up to now is    10508.5 secs

     total energy              =  -11682.08921253 Ry
     estimated scf accuracy    <       0.97015045 Ry

     iteration # 35     ecut=    80.00 Ry     beta= 0.10
     Davidson diagonalization with overlap
     ethr =  5.18E-05,  avg # of iterations =  1.0

     negative rho (up, down):  5.687E-02 0.000E+00

     total cpu time spent up to now is    10796.5 secs

     total energy              =  -11682.08076257 Ry
     estimated scf accuracy    <       1.60564943 Ry

     iteration # 36     ecut=    80.00 Ry     beta= 0.10
     Davidson diagonalization with overlap
     ethr =  5.18E-05,  avg # of iterations =  1.0

     negative rho (up, down):  5.695E-02 0.000E+00

     total cpu time spent up to now is    11084.5 secs

     total energy              =  -11682.09412523 Ry
     estimated scf accuracy    <       0.67069405 Ry

     iteration # 37     ecut=    80.00 Ry     beta= 0.10
     Davidson diagonalization with overlap
     ethr =  3.58E-05,  avg # of iterations =  1.0

     negative rho (up, down):  5.726E-02 0.000E+00

     total cpu time spent up to now is    11372.6 secs

     total energy              =  -11682.09133679 Ry
     estimated scf accuracy    <       0.36841636 Ry

     iteration # 38     ecut=    80.00 Ry     beta= 0.10
     Davidson diagonalization with overlap
     ethr =  1.97E-05,  avg # of iterations = 20.0

     negative rho (up, down):  5.704E-02 0.000E+00

     total cpu time spent up to now is    11803.5 secs

     total energy              =  -11682.04896857 Ry
     estimated scf accuracy    <       4.19140047 Ry

     iteration # 39     ecut=    80.00 Ry     beta= 0.10
     Davidson diagonalization with overlap
     ethr =  1.97E-05,  avg # of iterations =  1.0

     negative rho (up, down):  5.714E-02 0.000E+00

     total cpu time spent up to now is    12090.7 secs

     total energy              =  -11682.09203463 Ry
     estimated scf accuracy    <       1.25600777 Ry

     iteration # 40     ecut=    80.00 Ry     beta= 0.10
     Davidson diagonalization with overlap
     ethr =  1.97E-05,  avg # of iterations =  1.0

     negative rho (up, down):  5.720E-02 0.000E+00

     total cpu time spent up to now is    12378.3 secs

     total energy              =  -11682.09793078 Ry
     estimated scf accuracy    <       0.29277011 Ry

     iteration # 41     ecut=    80.00 Ry     beta= 0.10
     Davidson diagonalization with overlap
     ethr =  1.56E-05,  avg # of iterations =  1.0

     negative rho (up, down):  5.736E-02 0.000E+00

     total cpu time spent up to now is    12665.4 secs

     total energy              =  -11682.09810938 Ry
     estimated scf accuracy    <       0.33408840 Ry

     iteration # 42     ecut=    80.00 Ry     beta= 0.10
     Davidson diagonalization with overlap
     ethr =  1.56E-05,  avg # of iterations =  1.0

     negative rho (up, down):  5.752E-02 0.000E+00

     total cpu time spent up to now is    12953.2 secs

     total energy              =  -11682.09722193 Ry
     estimated scf accuracy    <       0.35255491 Ry

     iteration # 43     ecut=    80.00 Ry     beta= 0.10
     Davidson diagonalization with overlap
     ethr =  1.56E-05,  avg # of iterations =  1.0

     negative rho (up, down):  5.735E-02 0.000E+00

     total cpu time spent up to now is    13241.0 secs

     total energy              =  -11682.09138052 Ry
     estimated scf accuracy    <       0.54931278 Ry

     iteration # 44     ecut=    80.00 Ry     beta= 0.10
     Davidson diagonalization with overlap
     ethr =  1.56E-05,  avg # of iterations =  1.0

     negative rho (up, down):  5.766E-02 0.000E+00

     total cpu time spent up to now is    13528.4 secs

     total energy              =  -11682.08769569 Ry
     estimated scf accuracy    <       1.86154405 Ry

     iteration # 45     ecut=    80.00 Ry     beta= 0.10
     Davidson diagonalization with overlap
     ethr =  1.56E-05,  avg # of iterations =  1.0

     negative rho (up, down):  5.753E-02 0.000E+00

     total cpu time spent up to now is    13816.8 secs

     total energy              =  -11682.09422046 Ry
     estimated scf accuracy    <       0.34806145 Ry

     iteration # 46     ecut=    80.00 Ry     beta= 0.10
     Davidson diagonalization with overlap
     ethr =  1.56E-05,  avg # of iterations =  1.0

     negative rho (up, down):  5.761E-02 0.000E+00

     total cpu time spent up to now is    14104.6 secs

     total energy              =  -11682.09453184 Ry
     estimated scf accuracy    <       0.82992414 Ry

     iteration # 47     ecut=    80.00 Ry     beta= 0.10
     Davidson diagonalization with overlap
     ethr =  1.56E-05,  avg # of iterations =  1.0

     negative rho (up, down):  5.789E-02 0.000E+00

     total cpu time spent up to now is    14392.7 secs

     total energy              =  -11682.09927059 Ry
     estimated scf accuracy    <       0.30516619 Ry

     iteration # 48     ecut=    80.00 Ry     beta= 0.10
     Davidson diagonalization with overlap
     ethr =  1.56E-05,  avg # of iterations =  1.0

     negative rho (up, down):  5.815E-02 0.000E+00

     total cpu time spent up to now is    14680.6 secs

     total energy              =  -11682.09936381 Ry
     estimated scf accuracy    <       0.24701785 Ry

     iteration # 49     ecut=    80.00 Ry     beta= 0.10
     Davidson diagonalization with overlap
     ethr =  1.32E-05,  avg # of iterations =  1.0

     negative rho (up, down):  5.771E-02 0.000E+00

     total cpu time spent up to now is    14968.6 secs

     total energy              =  -11682.08829612 Ry
     estimated scf accuracy    <       1.37705934 Ry

     iteration # 50     ecut=    80.00 Ry     beta= 0.10
     Davidson diagonalization with overlap
     ethr =  1.32E-05,  avg # of iterations =  1.0

     negative rho (up, down):  5.776E-02 0.000E+00

     total cpu time spent up to now is    15256.2 secs

     total energy              =  -11682.09438037 Ry
     estimated scf accuracy    <       0.91651627 Ry

     iteration # 51     ecut=    80.00 Ry     beta= 0.10
     Davidson diagonalization with overlap
     ethr =  1.32E-05,  avg # of iterations =  1.0

     negative rho (up, down):  5.786E-02 0.000E+00

     total cpu time spent up to now is    15543.8 secs

     total energy              =  -11682.10046036 Ry
     estimated scf accuracy    <       0.22815757 Ry

     iteration # 52     ecut=    80.00 Ry     beta= 0.10
     Davidson diagonalization with overlap
     ethr =  1.22E-05,  avg # of iterations =  1.0

     negative rho (up, down):  5.793E-02 0.000E+00

     total cpu time spent up to now is    15831.6 secs

     total energy              =  -11682.10148623 Ry
     estimated scf accuracy    <       0.12130632 Ry

     iteration # 53     ecut=    80.00 Ry     beta= 0.10
     Davidson diagonalization with overlap
     ethr =  6.48E-06,  avg # of iterations =  1.0

     negative rho (up, down):  5.798E-02 0.000E+00

     total cpu time spent up to now is    16119.6 secs

     total energy              =  -11682.10165760 Ry
     estimated scf accuracy    <       0.09125082 Ry

     iteration # 54     ecut=    80.00 Ry     beta= 0.10
     Davidson diagonalization with overlap
     ethr =  4.87E-06,  avg # of iterations =  1.0

     negative rho (up, down):  5.804E-02 0.000E+00

     total cpu time spent up to now is    16407.5 secs

     total energy              =  -11682.10115385 Ry
     estimated scf accuracy    <       0.22751654 Ry

     iteration # 55     ecut=    80.00 Ry     beta= 0.10
     Davidson diagonalization with overlap
     ethr =  4.87E-06,  avg # of iterations =  1.0

     negative rho (up, down):  5.802E-02 0.000E+00

     total cpu time spent up to now is    16695.4 secs

     total energy              =  -11682.10174183 Ry
     estimated scf accuracy    <       0.05383540 Ry

     iteration # 56     ecut=    80.00 Ry     beta= 0.10
     Davidson diagonalization with overlap
     ethr =  2.88E-06,  avg # of iterations =  1.0

     negative rho (up, down):  5.805E-02 0.000E+00

     total cpu time spent up to now is    16983.3 secs

     total energy              =  -11682.10048403 Ry
     estimated scf accuracy    <       0.31779600 Ry

     iteration # 57     ecut=    80.00 Ry     beta= 0.10
     Davidson diagonalization with overlap
     ethr =  2.88E-06,  avg # of iterations =  1.0

     negative rho (up, down):  5.814E-02 0.000E+00

     total cpu time spent up to now is    17271.4 secs

     total energy              =  -11682.10261152 Ry
     estimated scf accuracy    <       0.05718806 Ry

     iteration # 58     ecut=    80.00 Ry     beta= 0.10
     Davidson diagonalization with overlap
     ethr =  2.88E-06,  avg # of iterations =  1.0

     negative rho (up, down):  5.826E-02 0.000E+00

     total cpu time spent up to now is    17558.9 secs

     total energy              =  -11682.10306379 Ry
     estimated scf accuracy    <       0.05074681 Ry

     iteration # 59     ecut=    80.00 Ry     beta= 0.10
     Davidson diagonalization with overlap
     ethr =  2.71E-06,  avg # of iterations =  1.0

     negative rho (up, down):  5.823E-02 0.000E+00

     total cpu time spent up to now is    17846.6 secs

     total energy              =  -11682.10186488 Ry
     estimated scf accuracy    <       0.07565650 Ry

     iteration # 60     ecut=    80.00 Ry     beta= 0.10
     Davidson diagonalization with overlap
     ethr =  2.71E-06,  avg # of iterations =  1.0

     negative rho (up, down):  5.817E-02 0.000E+00

     total cpu time spent up to now is    18134.3 secs

     total energy              =  -11682.09915665 Ry
     estimated scf accuracy    <       0.42697062 Ry

     iteration # 61     ecut=    80.00 Ry     beta= 0.10
     Davidson diagonalization with overlap
     ethr =  2.71E-06,  avg # of iterations =  2.0

     negative rho (up, down):  5.819E-02 0.000E+00

     total cpu time spent up to now is    18457.5 secs

     total energy              =  -11682.09993218 Ry
     estimated scf accuracy    <       0.39738505 Ry

     iteration # 62     ecut=    80.00 Ry     beta= 0.10
     Davidson diagonalization with overlap
     ethr =  2.71E-06,  avg # of iterations =  1.0

     negative rho (up, down):  5.822E-02 0.000E+00

     total cpu time spent up to now is    18745.7 secs

     total energy              =  -11682.10296645 Ry
     estimated scf accuracy    <       0.03945168 Ry

     iteration # 63     ecut=    80.00 Ry     beta= 0.10
     Davidson diagonalization with overlap
     ethr =  2.11E-06,  avg # of iterations =  1.0

     negative rho (up, down):  5.827E-02 0.000E+00

     total cpu time spent up to now is    19033.4 secs

     total energy              =  -11682.10316711 Ry
     estimated scf accuracy    <       0.04247668 Ry

     iteration # 64     ecut=    80.00 Ry     beta= 0.10
     Davidson diagonalization with overlap
     ethr =  2.11E-06,  avg # of iterations =  1.0

     negative rho (up, down):  5.830E-02 0.000E+00

     total cpu time spent up to now is    19320.0 secs

     total energy              =  -11682.10307501 Ry
     estimated scf accuracy    <       0.07495078 Ry

     iteration # 65     ecut=    80.00 Ry     beta= 0.10
     Davidson diagonalization with overlap
     ethr =  2.11E-06,  avg # of iterations =  1.0

     negative rho (up, down):  5.831E-02 0.000E+00

     total cpu time spent up to now is    19609.3 secs

     total energy              =  -11682.10336402 Ry
     estimated scf accuracy    <       0.01485823 Ry

     iteration # 66     ecut=    80.00 Ry     beta= 0.10
     Davidson diagonalization with overlap
     ethr =  7.94E-07,  avg # of iterations =  1.0

     negative rho (up, down):  5.829E-02 0.000E+00

     total cpu time spent up to now is    19896.6 secs

     total energy              =  -11682.10289165 Ry
     estimated scf accuracy    <       0.08069185 Ry

     iteration # 67     ecut=    80.00 Ry     beta= 0.10
     Davidson diagonalization with overlap
     ethr =  7.94E-07,  avg # of iterations =  1.0

     negative rho (up, down):  5.834E-02 0.000E+00

     total cpu time spent up to now is    20184.3 secs

     total energy              =  -11682.10353549 Ry
     estimated scf accuracy    <       0.02419734 Ry

     iteration # 68     ecut=    80.00 Ry     beta= 0.10
     Davidson diagonalization with overlap
     ethr =  7.94E-07,  avg # of iterations =  1.0

     negative rho (up, down):  5.839E-02 0.000E+00

     total cpu time spent up to now is    20472.1 secs

     total energy              =  -11682.10377237 Ry
     estimated scf accuracy    <       0.00848801 Ry

     iteration # 69     ecut=    80.00 Ry     beta= 0.10
     Davidson diagonalization with overlap
     ethr =  4.53E-07,  avg # of iterations =  1.0

     negative rho (up, down):  5.845E-02 0.000E+00

     total cpu time spent up to now is    20759.5 secs

     total energy              =  -11682.10380707 Ry
     estimated scf accuracy    <       0.00898067 Ry

     iteration # 70     ecut=    80.00 Ry     beta= 0.10
     Davidson diagonalization with overlap
     ethr =  4.53E-07,  avg # of iterations =  1.0

     negative rho (up, down):  5.844E-02 0.000E+00

     total cpu time spent up to now is    21049.6 secs

     total energy              =  -11682.10328897 Ry
     estimated scf accuracy    <       0.06354211 Ry

     iteration # 71     ecut=    80.00 Ry     beta= 0.10
     Davidson diagonalization with overlap
     ethr =  4.53E-07,  avg # of iterations =  1.0

     negative rho (up, down):  5.840E-02 0.000E+00

     total cpu time spent up to now is    21337.9 secs

     total energy              =  -11682.10318468 Ry
     estimated scf accuracy    <       0.06284424 Ry

     iteration # 72     ecut=    80.00 Ry     beta= 0.10
     Davidson diagonalization with overlap
     ethr =  4.53E-07,  avg # of iterations =  1.0

     negative rho (up, down):  5.842E-02 0.000E+00

     total cpu time spent up to now is    21625.9 secs

     total energy              =  -11682.10330376 Ry
     estimated scf accuracy    <       0.05819930 Ry

     iteration # 73     ecut=    80.00 Ry     beta= 0.10
     Davidson diagonalization with overlap
     ethr =  4.53E-07,  avg # of iterations =  1.0

     negative rho (up, down):  5.845E-02 0.000E+00

     total cpu time spent up to now is    21914.3 secs

     total energy              =  -11682.10366359 Ry
     estimated scf accuracy    <       0.03440009 Ry

     iteration # 74     ecut=    80.00 Ry     beta= 0.10
     Davidson diagonalization with overlap
     ethr =  4.53E-07,  avg # of iterations =  1.0

     negative rho (up, down):  5.846E-02 0.000E+00

     total cpu time spent up to now is    22201.6 secs

     total energy              =  -11682.10373768 Ry
     estimated scf accuracy    <       0.03647585 Ry

     iteration # 75     ecut=    80.00 Ry     beta= 0.10
     Davidson diagonalization with overlap
     ethr =  4.53E-07,  avg # of iterations =  1.0

     negative rho (up, down):  5.851E-02 0.000E+00

     total cpu time spent up to now is    22488.3 secs

     total energy              =  -11682.10397166 Ry
     estimated scf accuracy    <       0.01064122 Ry

     iteration # 76     ecut=    80.00 Ry     beta= 0.10
     Davidson diagonalization with overlap
     ethr =  4.53E-07,  avg # of iterations =  1.0

     negative rho (up, down):  5.846E-02 0.000E+00

     total cpu time spent up to now is    22776.3 secs

     total energy              =  -11682.10370650 Ry
     estimated scf accuracy    <       0.02375297 Ry

     iteration # 77     ecut=    80.00 Ry     beta= 0.10
     Davidson diagonalization with overlap
     ethr =  4.53E-07,  avg # of iterations =  1.0

     negative rho (up, down):  5.848E-02 0.000E+00

     total cpu time spent up to now is    23065.3 secs

     total energy              =  -11682.10390655 Ry
     estimated scf accuracy    <       0.02154317 Ry

     iteration # 78     ecut=    80.00 Ry     beta= 0.10
     Davidson diagonalization with overlap
     ethr =  4.53E-07,  avg # of iterations =  1.0

     negative rho (up, down):  5.851E-02 0.000E+00

     total cpu time spent up to now is    23352.7 secs

     total energy              =  -11682.10403480 Ry
     estimated scf accuracy    <       0.00482152 Ry

     iteration # 79     ecut=    80.00 Ry     beta= 0.10
     Davidson diagonalization with overlap
     ethr =  2.58E-07,  avg # of iterations =  1.0

     negative rho (up, down):  5.852E-02 0.000E+00

     total cpu time spent up to now is    23639.4 secs

     total energy              =  -11682.10405893 Ry
     estimated scf accuracy    <       0.00406337 Ry

     iteration # 80     ecut=    80.00 Ry     beta= 0.10
     Davidson diagonalization with overlap
     ethr =  2.17E-07,  avg # of iterations =  1.0

     negative rho (up, down):  5.853E-02 0.000E+00

     total cpu time spent up to now is    23927.4 secs

     total energy              =  -11682.10404708 Ry
     estimated scf accuracy    <       0.00723932 Ry

     iteration # 81     ecut=    80.00 Ry     beta= 0.10
     Davidson diagonalization with overlap
     ethr =  2.17E-07,  avg # of iterations =  1.0

     negative rho (up, down):  5.856E-02 0.000E+00

     total cpu time spent up to now is    24216.5 secs

     total energy              =  -11682.10411828 Ry
     estimated scf accuracy    <       0.00364024 Ry

     iteration # 82     ecut=    80.00 Ry     beta= 0.10
     Davidson diagonalization with overlap
     ethr =  1.94E-07,  avg # of iterations =  1.0

     negative rho (up, down):  5.857E-02 0.000E+00

     total cpu time spent up to now is    24503.9 secs

     total energy              =  -11682.10399738 Ry
     estimated scf accuracy    <       0.01699728 Ry

     iteration # 83     ecut=    80.00 Ry     beta= 0.10
     Davidson diagonalization with overlap
     ethr =  1.94E-07,  avg # of iterations =  1.0

     negative rho (up, down):  5.857E-02 0.000E+00

     total cpu time spent up to now is    24792.5 secs

     total energy              =  -11682.10399447 Ry
     estimated scf accuracy    <       0.02091135 Ry

     iteration # 84     ecut=    80.00 Ry     beta= 0.10
     Davidson diagonalization with overlap
     ethr =  1.94E-07,  avg # of iterations =  1.0

     negative rho (up, down):  5.858E-02 0.000E+00

     total cpu time spent up to now is    25080.8 secs

     total energy              =  -11682.10407133 Ry
     estimated scf accuracy    <       0.01874953 Ry

     iteration # 85     ecut=    80.00 Ry     beta= 0.10
     Davidson diagonalization with overlap
     ethr =  1.94E-07,  avg # of iterations =  1.0

     negative rho (up, down):  5.861E-02 0.000E+00

     total cpu time spent up to now is    25368.7 secs

     total energy              =  -11682.10419637 Ry
     estimated scf accuracy    <       0.00661793 Ry

     iteration # 86     ecut=    80.00 Ry     beta= 0.10
     Davidson diagonalization with overlap
     ethr =  1.94E-07,  avg # of iterations =  1.0

     negative rho (up, down):  5.857E-02 0.000E+00

     total cpu time spent up to now is    25656.7 secs

     total energy              =  -11682.10406793 Ry
     estimated scf accuracy    <       0.00941161 Ry

     iteration # 87     ecut=    80.00 Ry     beta= 0.10
     Davidson diagonalization with overlap
     ethr =  1.94E-07,  avg # of iterations =  1.0

     negative rho (up, down):  5.858E-02 0.000E+00

     total cpu time spent up to now is    25943.7 secs

     total energy              =  -11682.10408367 Ry
     estimated scf accuracy    <       0.01977332 Ry

     iteration # 88     ecut=    80.00 Ry     beta= 0.10
     Davidson diagonalization with overlap
     ethr =  1.94E-07,  avg # of iterations =  1.0

     negative rho (up, down):  5.860E-02 0.000E+00

     total cpu time spent up to now is    26231.1 secs

     total energy              =  -11682.10419908 Ry
     estimated scf accuracy    <       0.00457387 Ry

     iteration # 89     ecut=    80.00 Ry     beta= 0.10
     Davidson diagonalization with overlap
     ethr =  1.94E-07,  avg # of iterations =  1.0

     negative rho (up, down):  5.863E-02 0.000E+00

     total cpu time spent up to now is    26517.9 secs

     total energy              =  -11682.10424860 Ry
     estimated scf accuracy    <       0.00223278 Ry

     iteration # 90     ecut=    80.00 Ry     beta= 0.10
     Davidson diagonalization with overlap
     ethr =  1.19E-07,  avg # of iterations =  1.0

     negative rho (up, down):  5.862E-02 0.000E+00

     total cpu time spent up to now is    26805.8 secs

     total energy              =  -11682.10421845 Ry
     estimated scf accuracy    <       0.00311658 Ry

     iteration # 91     ecut=    80.00 Ry     beta= 0.10
     Davidson diagonalization with overlap
     ethr =  1.19E-07,  avg # of iterations =  1.0

     negative rho (up, down):  5.864E-02 0.000E+00

     total cpu time spent up to now is    27093.9 secs

     total energy              =  -11682.10428028 Ry
     estimated scf accuracy    <       0.00154930 Ry

     iteration # 92     ecut=    80.00 Ry     beta= 0.10
     Davidson diagonalization with overlap
     ethr =  8.28E-08,  avg # of iterations =  1.0

     negative rho (up, down):  5.866E-02 0.000E+00

     total cpu time spent up to now is    27380.9 secs

     total energy              =  -11682.10427098 Ry
     estimated scf accuracy    <       0.00333138 Ry

     iteration # 93     ecut=    80.00 Ry     beta= 0.10
     Davidson diagonalization with overlap
     ethr =  8.28E-08,  avg # of iterations =  1.0

     negative rho (up, down):  5.865E-02 0.000E+00

     total cpu time spent up to now is    27668.4 secs

     total energy              =  -11682.10424759 Ry
     estimated scf accuracy    <       0.00541968 Ry

     iteration # 94     ecut=    80.00 Ry     beta= 0.10
     Davidson diagonalization with overlap
     ethr =  8.28E-08,  avg # of iterations =  1.0

     negative rho (up, down):  5.866E-02 0.000E+00

     total cpu time spent up to now is    27956.5 secs

     total energy              =  -11682.10424985 Ry
     estimated scf accuracy    <       0.00819386 Ry

     iteration # 95     ecut=    80.00 Ry     beta= 0.10
     Davidson diagonalization with overlap
     ethr =  8.28E-08,  avg # of iterations =  1.0

     negative rho (up, down):  5.868E-02 0.000E+00

     total cpu time spent up to now is    28244.6 secs

     total energy              =  -11682.10431026 Ry
     estimated scf accuracy    <       0.00308186 Ry

     iteration # 96     ecut=    80.00 Ry     beta= 0.10
     Davidson diagonalization with overlap
     ethr =  8.28E-08,  avg # of iterations =  1.0

     negative rho (up, down):  5.868E-02 0.000E+00

     total cpu time spent up to now is    28532.8 secs

     total energy              =  -11682.10428019 Ry
     estimated scf accuracy    <       0.00295497 Ry

     iteration # 97     ecut=    80.00 Ry     beta= 0.10
     Davidson diagonalization with overlap
     ethr =  8.28E-08,  avg # of iterations =  1.0

     negative rho (up, down):  5.867E-02 0.000E+00

     total cpu time spent up to now is    28820.0 secs

     total energy              =  -11682.10419064 Ry
     estimated scf accuracy    <       0.01966096 Ry

     iteration # 98     ecut=    80.00 Ry     beta= 0.10
     Davidson diagonalization with overlap
     ethr =  8.28E-08,  avg # of iterations =  1.0

     negative rho (up, down):  5.869E-02 0.000E+00

     total cpu time spent up to now is    29107.7 secs

     total energy              =  -11682.10429763 Ry
     estimated scf accuracy    <       0.00483275 Ry

     iteration # 99     ecut=    80.00 Ry     beta= 0.10
     Davidson diagonalization with overlap
     ethr =  8.28E-08,  avg # of iterations =  1.0

     negative rho (up, down):  5.871E-02 0.000E+00

     total cpu time spent up to now is    29395.4 secs

     total energy              =  -11682.10434048 Ry
     estimated scf accuracy    <       0.00167694 Ry

     iteration #100     ecut=    80.00 Ry     beta= 0.10
     Davidson diagonalization with overlap
     ethr =  8.28E-08,  avg # of iterations =  1.0

     negative rho (up, down):  5.869E-02 0.000E+00

     total cpu time spent up to now is    29682.5 secs

     total energy              =  -11682.10430926 Ry
     estimated scf accuracy    <       0.00229211 Ry

     iteration #101     ecut=    80.00 Ry     beta= 0.10
     Davidson diagonalization with overlap
     ethr =  8.28E-08,  avg # of iterations =  1.0

     negative rho (up, down):  5.871E-02 0.000E+00

     total cpu time spent up to now is    29971.1 secs

     total energy              =  -11682.10435016 Ry
     estimated scf accuracy    <       0.00101783 Ry

     iteration #102     ecut=    80.00 Ry     beta= 0.10
     Davidson diagonalization with overlap
     ethr =  5.44E-08,  avg # of iterations =  1.0

     negative rho (up, down):  5.872E-02 0.000E+00

     total cpu time spent up to now is    30259.3 secs

     total energy              =  -11682.10435221 Ry
     estimated scf accuracy    <       0.00137724 Ry

     iteration #103     ecut=    80.00 Ry     beta= 0.10
     Davidson diagonalization with overlap
     ethr =  5.44E-08,  avg # of iterations =  1.0

     negative rho (up, down):  5.872E-02 0.000E+00

     total cpu time spent up to now is    30548.2 secs

     total energy              =  -11682.10435195 Ry
     estimated scf accuracy    <       0.00124521 Ry

     iteration #104     ecut=    80.00 Ry     beta= 0.10
     Davidson diagonalization with overlap
     ethr =  5.44E-08,  avg # of iterations =  1.0

     negative rho (up, down):  5.872E-02 0.000E+00

     total cpu time spent up to now is    30835.9 secs

     total energy              =  -11682.10434375 Ry
     estimated scf accuracy    <       0.00331263 Ry

     iteration #105     ecut=    80.00 Ry     beta= 0.10
     Davidson diagonalization with overlap
     ethr =  5.44E-08,  avg # of iterations =  1.0

     negative rho (up, down):  5.873E-02 0.000E+00

     total cpu time spent up to now is    31124.2 secs

     total energy              =  -11682.10436886 Ry
     estimated scf accuracy    <       0.00118927 Ry

     iteration #106     ecut=    80.00 Ry     beta= 0.10
     Davidson diagonalization with overlap
     ethr =  5.44E-08,  avg # of iterations =  1.0

     negative rho (up, down):  5.875E-02 0.000E+00

     total cpu time spent up to now is    31412.2 secs

     total energy              =  -11682.10438354 Ry
     estimated scf accuracy    <       0.00068097 Ry

     iteration #107     ecut=    80.00 Ry     beta= 0.10
     Davidson diagonalization with overlap
     ethr =  3.64E-08,  avg # of iterations =  1.0

     negative rho (up, down):  5.874E-02 0.000E+00

     total cpu time spent up to now is    31699.8 secs

     total energy              =  -11682.10433935 Ry
     estimated scf accuracy    <       0.00547031 Ry

     iteration #108     ecut=    80.00 Ry     beta= 0.10
     Davidson diagonalization with overlap
     ethr =  3.64E-08,  avg # of iterations =  1.0

     negative rho (up, down):  5.875E-02 0.000E+00

     total cpu time spent up to now is    31987.7 secs

     total energy              =  -11682.10436405 Ry
     estimated scf accuracy    <       0.00299773 Ry

     iteration #109     ecut=    80.00 Ry     beta= 0.10
     Davidson diagonalization with overlap
     ethr =  3.64E-08,  avg # of iterations =  1.0

     negative rho (up, down):  5.877E-02 0.000E+00

     total cpu time spent up to now is    32275.5 secs

     total energy              =  -11682.10439016 Ry
     estimated scf accuracy    <       0.00090052 Ry

     iteration #110     ecut=    80.00 Ry     beta= 0.10
     Davidson diagonalization with overlap
     ethr =  3.64E-08,  avg # of iterations =  1.0

     negative rho (up, down):  5.874E-02 0.000E+00

     total cpu time spent up to now is    32563.7 secs

     total energy              =  -11682.10436736 Ry
     estimated scf accuracy    <       0.00097028 Ry

     iteration #111     ecut=    80.00 Ry     beta= 0.10
     Davidson diagonalization with overlap
     ethr =  3.64E-08,  avg # of iterations =  1.0

     negative rho (up, down):  5.876E-02 0.000E+00

     total cpu time spent up to now is    32851.7 secs

     total energy              =  -11682.10438819 Ry
     estimated scf accuracy    <       0.00120060 Ry

     iteration #112     ecut=    80.00 Ry     beta= 0.10
     Davidson diagonalization with overlap
     ethr =  3.64E-08,  avg # of iterations =  1.0

     negative rho (up, down):  5.877E-02 0.000E+00

     total cpu time spent up to now is    33139.6 secs

     total energy              =  -11682.10439110 Ry
     estimated scf accuracy    <       0.00098864 Ry

     iteration #113     ecut=    80.00 Ry     beta= 0.10
     Davidson diagonalization with overlap
     ethr =  3.64E-08,  avg # of iterations =  1.0

     negative rho (up, down):  5.877E-02 0.000E+00

     total cpu time spent up to now is    33427.7 secs

     total energy              =  -11682.10439464 Ry
     estimated scf accuracy    <       0.00070170 Ry

     iteration #114     ecut=    80.00 Ry     beta= 0.10
     Davidson diagonalization with overlap
     ethr =  3.64E-08,  avg # of iterations =  1.0

     negative rho (up, down):  5.877E-02 0.000E+00

     total cpu time spent up to now is    33715.4 secs

     total energy              =  -11682.10438839 Ry
     estimated scf accuracy    <       0.00180522 Ry

     iteration #115     ecut=    80.00 Ry     beta= 0.10
     Davidson diagonalization with overlap
     ethr =  3.64E-08,  avg # of iterations =  1.0

     negative rho (up, down):  5.877E-02 0.000E+00

     total cpu time spent up to now is    34003.9 secs

     total energy              =  -11682.10439985 Ry
     estimated scf accuracy    <       0.00065652 Ry

     iteration #116     ecut=    80.00 Ry     beta= 0.10
     Davidson diagonalization with overlap
     ethr =  3.51E-08,  avg # of iterations =  1.0

     negative rho (up, down):  5.879E-02 0.000E+00

     total cpu time spent up to now is    34291.1 secs

     total energy              =  -11682.10441042 Ry
     estimated scf accuracy    <       0.00023069 Ry

     iteration #117     ecut=    80.00 Ry     beta= 0.10
     Davidson diagonalization with overlap
     ethr =  1.23E-08,  avg # of iterations =  1.0

     negative rho (up, down):  5.878E-02 0.000E+00

     total cpu time spent up to now is    34578.8 secs

     total energy              =  -11682.10440154 Ry
     estimated scf accuracy    <       0.00107567 Ry

     iteration #118     ecut=    80.00 Ry     beta= 0.10
     Davidson diagonalization with overlap
     ethr =  1.23E-08,  avg # of iterations =  1.0

     negative rho (up, down):  5.879E-02 0.000E+00

     total cpu time spent up to now is    34866.3 secs

     total energy              =  -11682.10440358 Ry
     estimated scf accuracy    <       0.00105816 Ry

     iteration #119     ecut=    80.00 Ry     beta= 0.10
     Davidson diagonalization with overlap
     ethr =  1.23E-08,  avg # of iterations =  1.0

     negative rho (up, down):  5.880E-02 0.000E+00

     total cpu time spent up to now is    35154.2 secs

     total energy              =  -11682.10441253 Ry
     estimated scf accuracy    <       0.00034599 Ry

     iteration #120     ecut=    80.00 Ry     beta= 0.10
     Davidson diagonalization with overlap
     ethr =  1.23E-08,  avg # of iterations =  1.0

     negative rho (up, down):  5.879E-02 0.000E+00

     total cpu time spent up to now is    35441.8 secs

     total energy              =  -11682.10440571 Ry
     estimated scf accuracy    <       0.00033585 Ry

     iteration #121     ecut=    80.00 Ry     beta= 0.10
     Davidson diagonalization with overlap
     ethr =  1.23E-08,  avg # of iterations =  1.0

     negative rho (up, down):  5.880E-02 0.000E+00

     total cpu time spent up to now is    35729.6 secs

     total energy              =  -11682.10440885 Ry
     estimated scf accuracy    <       0.00100913 Ry

     iteration #122     ecut=    80.00 Ry     beta= 0.10
     Davidson diagonalization with overlap
     ethr =  1.23E-08,  avg # of iterations =  1.0

     negative rho (up, down):  5.880E-02 0.000E+00

     total cpu time spent up to now is    36027.6 secs

     total energy              =  -11682.10441411 Ry
     estimated scf accuracy    <       0.00045563 Ry

     iteration #123     ecut=    80.00 Ry     beta= 0.10
     Davidson diagonalization with overlap
     ethr =  1.23E-08,  avg # of iterations =  1.0

     negative rho (up, down):  5.881E-02 0.000E+00

     total cpu time spent up to now is    36315.6 secs

     total energy              =  -11682.10441599 Ry
     estimated scf accuracy    <       0.00042092 Ry

     iteration #124     ecut=    80.00 Ry     beta= 0.10
     Davidson diagonalization with overlap
     ethr =  1.23E-08,  avg # of iterations =  1.0

     negative rho (up, down):  5.880E-02 0.000E+00

     total cpu time spent up to now is    36603.4 secs

     total energy              =  -11682.10441172 Ry
     estimated scf accuracy    <       0.00107886 Ry

     iteration #125     ecut=    80.00 Ry     beta= 0.10
     Davidson diagonalization with overlap
     ethr =  1.23E-08,  avg # of iterations =  1.0

     negative rho (up, down):  5.881E-02 0.000E+00

     total cpu time spent up to now is    36891.5 secs

     total energy              =  -11682.10441548 Ry
     estimated scf accuracy    <       0.00049664 Ry

     iteration #126     ecut=    80.00 Ry     beta= 0.10
     Davidson diagonalization with overlap
     ethr =  1.23E-08,  avg # of iterations =  1.0

     negative rho (up, down):  5.881E-02 0.000E+00

     total cpu time spent up to now is    37179.1 secs

     total energy              =  -11682.10442273 Ry
     estimated scf accuracy    <       0.00011829 Ry

     iteration #127     ecut=    80.00 Ry     beta= 0.10
     Davidson diagonalization with overlap
     ethr =  6.32E-09,  avg # of iterations =  1.0

     negative rho (up, down):  5.881E-02 0.000E+00

     total cpu time spent up to now is    37466.8 secs

     total energy              =  -11682.10442071 Ry
     estimated scf accuracy    <       0.00030026 Ry

     iteration #128     ecut=    80.00 Ry     beta= 0.10
     Davidson diagonalization with overlap
     ethr =  6.32E-09,  avg # of iterations =  1.0

     negative rho (up, down):  5.881E-02 0.000E+00

     total cpu time spent up to now is    37755.6 secs

     total energy              =  -11682.10442029 Ry
     estimated scf accuracy    <       0.00037997 Ry

     iteration #129     ecut=    80.00 Ry     beta= 0.10
     Davidson diagonalization with overlap
     ethr =  6.32E-09,  avg # of iterations =  1.0

     negative rho (up, down):  5.882E-02 0.000E+00

     total cpu time spent up to now is    38044.1 secs

     total energy              =  -11682.10442366 Ry
     estimated scf accuracy    <       0.00014161 Ry

     iteration #130     ecut=    80.00 Ry     beta= 0.10
     Davidson diagonalization with overlap
     ethr =  6.32E-09,  avg # of iterations =  1.0

     negative rho (up, down):  5.882E-02 0.000E+00

     total cpu time spent up to now is    38331.6 secs

     total energy              =  -11682.10442506 Ry
     estimated scf accuracy    <       0.00009889 Ry

     iteration #131     ecut=    80.00 Ry     beta= 0.10
     Davidson diagonalization with overlap
     ethr =  5.28E-09,  avg # of iterations =  1.0

     negative rho (up, down):  5.883E-02 0.000E+00

     total cpu time spent up to now is    38619.5 secs

     total energy              =  -11682.10442313 Ry
     estimated scf accuracy    <       0.00043028 Ry

     iteration #132     ecut=    80.00 Ry     beta= 0.10
     Davidson diagonalization with overlap
     ethr =  5.28E-09,  avg # of iterations =  1.0

     negative rho (up, down):  5.883E-02 0.000E+00

     total cpu time spent up to now is    38907.6 secs

     total energy              =  -11682.10442579 Ry
     estimated scf accuracy    <       0.00018098 Ry

     iteration #133     ecut=    80.00 Ry     beta= 0.10
     Davidson diagonalization with overlap
     ethr =  5.28E-09,  avg # of iterations =  1.0

     negative rho (up, down):  5.883E-02 0.000E+00

     total cpu time spent up to now is    39196.2 secs

     total energy              =  -11682.10442693 Ry
     estimated scf accuracy    <       0.00020254 Ry

     iteration #134     ecut=    80.00 Ry     beta= 0.10
     Davidson diagonalization with overlap
     ethr =  5.28E-09,  avg # of iterations =  1.0

     negative rho (up, down):  5.883E-02 0.000E+00

     total cpu time spent up to now is    39484.6 secs

     total energy              =  -11682.10442514 Ry
     estimated scf accuracy    <       0.00053270 Ry

     iteration #135     ecut=    80.00 Ry     beta= 0.10
     Davidson diagonalization with overlap
     ethr =  5.28E-09,  avg # of iterations =  1.0

     negative rho (up, down):  5.883E-02 0.000E+00

     total cpu time spent up to now is    39772.3 secs

     total energy              =  -11682.10442437 Ry
     estimated scf accuracy    <       0.00035143 Ry

     iteration #136     ecut=    80.00 Ry     beta= 0.10
     Davidson diagonalization with overlap
     ethr =  5.28E-09,  avg # of iterations =  1.0

     negative rho (up, down):  5.883E-02 0.000E+00

     total cpu time spent up to now is    40060.1 secs

     total energy              =  -11682.10442911 Ry
     estimated scf accuracy    <       0.00011021 Ry

     iteration #137     ecut=    80.00 Ry     beta= 0.10
     Davidson diagonalization with overlap
     ethr =  5.28E-09,  avg # of iterations =  1.0

     negative rho (up, down):  5.884E-02 0.000E+00

     total cpu time spent up to now is    40347.9 secs

     total energy              =  -11682.10442917 Ry
     estimated scf accuracy    <       0.00016353 Ry

     iteration #138     ecut=    80.00 Ry     beta= 0.10
     Davidson diagonalization with overlap
     ethr =  5.28E-09,  avg # of iterations =  1.0

     negative rho (up, down):  5.884E-02 0.000E+00

     total cpu time spent up to now is    40638.5 secs

     total energy              =  -11682.10442822 Ry
     estimated scf accuracy    <       0.00021130 Ry

     iteration #139     ecut=    80.00 Ry     beta= 0.10
     Davidson diagonalization with overlap
     ethr =  5.28E-09,  avg # of iterations =  1.0

     negative rho (up, down):  5.884E-02 0.000E+00

     total cpu time spent up to now is    40925.9 secs

     total energy              =  -11682.10442970 Ry
     estimated scf accuracy    <       0.00008874 Ry

     iteration #140     ecut=    80.00 Ry     beta= 0.10
     Davidson diagonalization with overlap
     ethr =  4.74E-09,  avg # of iterations =  1.0

     negative rho (up, down):  5.884E-02 0.000E+00

     total cpu time spent up to now is    41212.7 secs

     total energy              =  -11682.10443169 Ry
     estimated scf accuracy    <       0.00003975 Ry

     iteration #141     ecut=    80.00 Ry     beta= 0.10
     Davidson diagonalization with overlap
     ethr =  2.12E-09,  avg # of iterations =  1.0

     negative rho (up, down):  5.884E-02 0.000E+00

     total cpu time spent up to now is    41500.9 secs

     total energy              =  -11682.10443068 Ry
     estimated scf accuracy    <       0.00011517 Ry

     iteration #142     ecut=    80.00 Ry     beta= 0.10
     Davidson diagonalization with overlap
     ethr =  2.12E-09,  avg # of iterations =  1.0

     negative rho (up, down):  5.884E-02 0.000E+00

     total cpu time spent up to now is    41789.2 secs

     total energy              =  -11682.10443146 Ry
     estimated scf accuracy    <       0.00006568 Ry

     iteration #143     ecut=    80.00 Ry     beta= 0.10
     Davidson diagonalization with overlap
     ethr =  2.12E-09,  avg # of iterations =  1.0

     negative rho (up, down):  5.885E-02 0.000E+00

     total cpu time spent up to now is    42076.8 secs

     total energy              =  -11682.10443216 Ry
     estimated scf accuracy    <       0.00008303 Ry

     iteration #144     ecut=    80.00 Ry     beta= 0.10
     Davidson diagonalization with overlap
     ethr =  2.12E-09,  avg # of iterations =  1.0

     negative rho (up, down):  5.885E-02 0.000E+00

     total cpu time spent up to now is    42364.7 secs

     total energy              =  -11682.10443207 Ry
     estimated scf accuracy    <       0.00019079 Ry

     iteration #145     ecut=    80.00 Ry     beta= 0.10
     Davidson diagonalization with overlap
     ethr =  2.12E-09,  avg # of iterations =  1.0

     negative rho (up, down):  5.885E-02 0.000E+00

     total cpu time spent up to now is    42652.5 secs

     total energy              =  -11682.10443084 Ry
     estimated scf accuracy    <       0.00016312 Ry

     iteration #146     ecut=    80.00 Ry     beta= 0.10
     Davidson diagonalization with overlap
     ethr =  2.12E-09,  avg # of iterations =  1.0

     negative rho (up, down):  5.885E-02 0.000E+00

     total cpu time spent up to now is    42940.2 secs

     total energy              =  -11682.10443262 Ry
     estimated scf accuracy    <       0.00010687 Ry

     iteration #147     ecut=    80.00 Ry     beta= 0.10
     Davidson diagonalization with overlap
     ethr =  2.12E-09,  avg # of iterations =  1.0

     negative rho (up, down):  5.885E-02 0.000E+00

     total cpu time spent up to now is    43228.1 secs

     total energy              =  -11682.10443340 Ry
     estimated scf accuracy    <       0.00010386 Ry

     iteration #148     ecut=    80.00 Ry     beta= 0.10
     Davidson diagonalization with overlap
     ethr =  2.12E-09,  avg # of iterations =  1.0

     negative rho (up, down):  5.885E-02 0.000E+00

     total cpu time spent up to now is    43515.6 secs

     total energy              =  -11682.10443265 Ry
     estimated scf accuracy    <       0.00012545 Ry

     iteration #149     ecut=    80.00 Ry     beta= 0.10
     Davidson diagonalization with overlap
     ethr =  2.12E-09,  avg # of iterations =  1.0

     negative rho (up, down):  5.885E-02 0.000E+00

     total cpu time spent up to now is    43803.9 secs

     total energy              =  -11682.10443293 Ry
     estimated scf accuracy    <       0.00007635 Ry

     iteration #150     ecut=    80.00 Ry     beta= 0.10
     Davidson diagonalization with overlap
     ethr =  2.12E-09,  avg # of iterations =  1.0

     negative rho (up, down):  5.886E-02 0.000E+00

     total cpu time spent up to now is    44091.6 secs

     total energy              =  -11682.10443451 Ry
     estimated scf accuracy    <       0.00002662 Ry

     iteration #151     ecut=    80.00 Ry     beta= 0.10
     Davidson diagonalization with overlap
     ethr =  1.42E-09,  avg # of iterations =  1.0

     negative rho (up, down):  5.886E-02 0.000E+00

     total cpu time spent up to now is    44379.3 secs

     total energy              =  -11682.10443399 Ry
     estimated scf accuracy    <       0.00004168 Ry

     iteration #152     ecut=    80.00 Ry     beta= 0.10
     Davidson diagonalization with overlap
     ethr =  1.42E-09,  avg # of iterations =  1.0

     negative rho (up, down):  5.886E-02 0.000E+00

     total cpu time spent up to now is    44666.8 secs

     total energy              =  -11682.10443425 Ry
     estimated scf accuracy    <       0.00003672 Ry

     iteration #153     ecut=    80.00 Ry     beta= 0.10
     Davidson diagonalization with overlap
     ethr =  1.42E-09,  avg # of iterations =  1.0

     negative rho (up, down):  5.886E-02 0.000E+00

     total cpu time spent up to now is    44954.3 secs

     total energy              =  -11682.10443467 Ry
     estimated scf accuracy    <       0.00003152 Ry

     iteration #154     ecut=    80.00 Ry     beta= 0.10
     Davidson diagonalization with overlap
     ethr =  1.42E-09,  avg # of iterations =  1.0

     negative rho (up, down):  5.886E-02 0.000E+00

     total cpu time spent up to now is    45241.8 secs

     total energy              =  -11682.10443502 Ry
     estimated scf accuracy    <       0.00004396 Ry

     iteration #155     ecut=    80.00 Ry     beta= 0.10
     Davidson diagonalization with overlap
     ethr =  1.42E-09,  avg # of iterations =  1.0

     negative rho (up, down):  5.886E-02 0.000E+00

     total cpu time spent up to now is    45529.5 secs

     total energy              =  -11682.10443466 Ry
     estimated scf accuracy    <       0.00006273 Ry

     iteration #156     ecut=    80.00 Ry     beta= 0.10
     Davidson diagonalization with overlap
     ethr =  1.42E-09,  avg # of iterations =  1.0

     negative rho (up, down):  5.886E-02 0.000E+00

     total cpu time spent up to now is    45817.1 secs

     total energy              =  -11682.10443474 Ry
     estimated scf accuracy    <       0.00006389 Ry

     iteration #157     ecut=    80.00 Ry     beta= 0.10
     Davidson diagonalization with overlap
     ethr =  1.42E-09,  avg # of iterations =  1.0

     negative rho (up, down):  5.886E-02 0.000E+00

     total cpu time spent up to now is    46104.5 secs

     total energy              =  -11682.10443547 Ry
     estimated scf accuracy    <       0.00004315 Ry

     iteration #158     ecut=    80.00 Ry     beta= 0.10
     Davidson diagonalization with overlap
     ethr =  1.42E-09,  avg # of iterations =  1.0

     negative rho (up, down):  5.886E-02 0.000E+00

     total cpu time spent up to now is    46392.8 secs

     total energy              =  -11682.10443528 Ry
     estimated scf accuracy    <       0.00005581 Ry

     iteration #159     ecut=    80.00 Ry     beta= 0.10
     Davidson diagonalization with overlap
     ethr =  1.42E-09,  avg # of iterations =  1.0

     negative rho (up, down):  5.886E-02 0.000E+00

     total cpu time spent up to now is    46680.9 secs

     total energy              =  -11682.10443487 Ry
     estimated scf accuracy    <       0.00005455 Ry

     iteration #160     ecut=    80.00 Ry     beta= 0.10
     Davidson diagonalization with overlap
     ethr =  1.42E-09,  avg # of iterations =  1.0

     negative rho (up, down):  5.887E-02 0.000E+00

     total cpu time spent up to now is    46967.3 secs

     total energy              =  -11682.10443589 Ry
     estimated scf accuracy    <       0.00002364 Ry

     iteration #161     ecut=    80.00 Ry     beta= 0.10
     Davidson diagonalization with overlap
     ethr =  1.26E-09,  avg # of iterations =  1.0

     negative rho (up, down):  5.886E-02 0.000E+00

     total cpu time spent up to now is    47255.0 secs

     total energy              =  -11682.10443569 Ry
     estimated scf accuracy    <       0.00001892 Ry

     iteration #162     ecut=    80.00 Ry     beta= 0.10
     Davidson diagonalization with overlap
     ethr =  1.01E-09,  avg # of iterations =  1.0

     negative rho (up, down):  5.886E-02 0.000E+00

     total cpu time spent up to now is    47543.9 secs

     total energy              =  -11682.10443568 Ry
     estimated scf accuracy    <       0.00002863 Ry

     iteration #163     ecut=    80.00 Ry     beta= 0.10
     Davidson diagonalization with overlap
     ethr =  1.01E-09,  avg # of iterations =  1.0

     negative rho (up, down):  5.887E-02 0.000E+00

     total cpu time spent up to now is    47832.3 secs

     total energy              =  -11682.10443593 Ry
     estimated scf accuracy    <       0.00002119 Ry

     iteration #164     ecut=    80.00 Ry     beta= 0.10
     Davidson diagonalization with overlap
     ethr =  1.01E-09,  avg # of iterations =  1.0

     negative rho (up, down):  5.887E-02 0.000E+00

     total cpu time spent up to now is    48124.6 secs

     total energy              =  -11682.10443621 Ry
     estimated scf accuracy    <       0.00001400 Ry

     iteration #165     ecut=    80.00 Ry     beta= 0.10
     Davidson diagonalization with overlap
     ethr =  7.48E-10,  avg # of iterations =  1.0

     negative rho (up, down):  5.887E-02 0.000E+00

     total cpu time spent up to now is    48412.2 secs

     total energy              =  -11682.10443628 Ry
     estimated scf accuracy    <       0.00002115 Ry

     iteration #166     ecut=    80.00 Ry     beta= 0.10
     Davidson diagonalization with overlap
     ethr =  7.48E-10,  avg # of iterations =  1.0

     negative rho (up, down):  5.887E-02 0.000E+00

     total cpu time spent up to now is    48700.8 secs

     total energy              =  -11682.10443608 Ry
     estimated scf accuracy    <       0.00002329 Ry

     iteration #167     ecut=    80.00 Ry     beta= 0.10
     Davidson diagonalization with overlap
     ethr =  7.48E-10,  avg # of iterations =  1.0

     negative rho (up, down):  5.887E-02 0.000E+00

     total cpu time spent up to now is    48987.5 secs

     total energy              =  -11682.10443640 Ry
     estimated scf accuracy    <       0.00001919 Ry

     iteration #168     ecut=    80.00 Ry     beta= 0.10
     Davidson diagonalization with overlap
     ethr =  7.48E-10,  avg # of iterations =  1.0

     negative rho (up, down):  5.887E-02 0.000E+00

     total cpu time spent up to now is    49275.9 secs

     total energy              =  -11682.10443649 Ry
     estimated scf accuracy    <       0.00001823 Ry

     iteration #169     ecut=    80.00 Ry     beta= 0.10
     Davidson diagonalization with overlap
     ethr =  7.48E-10,  avg # of iterations =  1.0

     negative rho (up, down):  5.887E-02 0.000E+00

     total cpu time spent up to now is    49563.7 secs

     total energy              =  -11682.10443620 Ry
     estimated scf accuracy    <       0.00002279 Ry

     iteration #170     ecut=    80.00 Ry     beta= 0.10
     Davidson diagonalization with overlap
     ethr =  7.48E-10,  avg # of iterations =  1.0

     negative rho (up, down):  5.887E-02 0.000E+00

     total cpu time spent up to now is    49851.1 secs

     total energy              =  -11682.10443661 Ry
     estimated scf accuracy    <       0.00001958 Ry

     iteration #171     ecut=    80.00 Ry     beta= 0.10
     Davidson diagonalization with overlap
     ethr =  7.48E-10,  avg # of iterations =  1.0

     negative rho (up, down):  5.887E-02 0.000E+00

     total cpu time spent up to now is    50138.4 secs

     total energy              =  -11682.10443661 Ry
     estimated scf accuracy    <       0.00000833 Ry

     iteration #172     ecut=    80.00 Ry     beta= 0.10
     Davidson diagonalization with overlap
     ethr =  4.45E-10,  avg # of iterations =  1.0

     negative rho (up, down):  5.887E-02 0.000E+00

     total cpu time spent up to now is    50425.3 secs

     total energy              =  -11682.10443649 Ry
     estimated scf accuracy    <       0.00002032 Ry

     iteration #173     ecut=    80.00 Ry     beta= 0.10
     Davidson diagonalization with overlap
     ethr =  4.45E-10,  avg # of iterations =  1.0

     negative rho (up, down):  5.887E-02 0.000E+00

     total cpu time spent up to now is    50713.0 secs

     total energy              =  -11682.10443659 Ry
     estimated scf accuracy    <       0.00001967 Ry

     iteration #174     ecut=    80.00 Ry     beta= 0.10
     Davidson diagonalization with overlap
     ethr =  4.45E-10,  avg # of iterations =  1.0

     negative rho (up, down):  5.887E-02 0.000E+00

     total cpu time spent up to now is    51000.3 secs

     total energy              =  -11682.10443679 Ry
     estimated scf accuracy    <       0.00000951 Ry

     iteration #175     ecut=    80.00 Ry     beta= 0.10
     Davidson diagonalization with overlap
     ethr =  4.45E-10,  avg # of iterations =  1.0

     negative rho (up, down):  5.888E-02 0.000E+00

     total cpu time spent up to now is    51288.3 secs

     total energy              =  -11682.10443690 Ry
     estimated scf accuracy    <       0.00000909 Ry

     iteration #176     ecut=    80.00 Ry     beta= 0.10
     Davidson diagonalization with overlap
     ethr =  4.45E-10,  avg # of iterations =  1.0

     negative rho (up, down):  5.887E-02 0.000E+00

     total cpu time spent up to now is    51575.5 secs

     total energy              =  -11682.10443674 Ry
     estimated scf accuracy    <       0.00000962 Ry

     iteration #177     ecut=    80.00 Ry     beta= 0.10
     Davidson diagonalization with overlap
     ethr =  4.45E-10,  avg # of iterations =  1.0

     negative rho (up, down):  5.887E-02 0.000E+00

     total cpu time spent up to now is    51863.5 secs

     total energy              =  -11682.10443688 Ry
     estimated scf accuracy    <       0.00001092 Ry

     iteration #178     ecut=    80.00 Ry     beta= 0.10
     Davidson diagonalization with overlap
     ethr =  4.45E-10,  avg # of iterations =  1.0

     negative rho (up, down):  5.888E-02 0.000E+00

     total cpu time spent up to now is    52151.4 secs

     total energy              =  -11682.10443697 Ry
     estimated scf accuracy    <       0.00000605 Ry

     iteration #179     ecut=    80.00 Ry     beta= 0.10
     Davidson diagonalization with overlap
     ethr =  3.23E-10,  avg # of iterations =  1.0

     negative rho (up, down):  5.888E-02 0.000E+00

     total cpu time spent up to now is    52438.4 secs

     total energy              =  -11682.10443691 Ry
     estimated scf accuracy    <       0.00000704 Ry

     iteration #180     ecut=    80.00 Ry     beta= 0.10
     Davidson diagonalization with overlap
     ethr =  3.23E-10,  avg # of iterations =  1.0

     negative rho (up, down):  5.888E-02 0.000E+00

     total cpu time spent up to now is    52726.2 secs

     total energy              =  -11682.10443698 Ry
     estimated scf accuracy    <       0.00001139 Ry

     iteration #181     ecut=    80.00 Ry     beta= 0.10
     Davidson diagonalization with overlap
     ethr =  3.23E-10,  avg # of iterations =  1.0

     negative rho (up, down):  5.888E-02 0.000E+00

     total cpu time spent up to now is    53014.2 secs

     total energy              =  -11682.10443707 Ry
     estimated scf accuracy    <       0.00000308 Ry

     iteration #182     ecut=    80.00 Ry     beta= 0.10
     Davidson diagonalization with overlap
     ethr =  1.64E-10,  avg # of iterations =  1.0

     negative rho (up, down):  5.888E-02 0.000E+00

     total cpu time spent up to now is    53301.7 secs

     total energy              =  -11682.10443700 Ry
     estimated scf accuracy    <       0.00000924 Ry

     iteration #183     ecut=    80.00 Ry     beta= 0.10
     Davidson diagonalization with overlap
     ethr =  1.64E-10,  avg # of iterations =  1.0

     negative rho (up, down):  5.888E-02 0.000E+00

     total cpu time spent up to now is    53589.7 secs

     total energy              =  -11682.10443696 Ry
     estimated scf accuracy    <       0.00001349 Ry

     iteration #184     ecut=    80.00 Ry     beta= 0.10
     Davidson diagonalization with overlap
     ethr =  1.64E-10,  avg # of iterations =  1.0

     negative rho (up, down):  5.888E-02 0.000E+00

     total cpu time spent up to now is    53877.7 secs

     total energy              =  -11682.10443708 Ry
     estimated scf accuracy    <       0.00000784 Ry

     iteration #185     ecut=    80.00 Ry     beta= 0.10
     Davidson diagonalization with overlap
     ethr =  1.64E-10,  avg # of iterations =  1.0

     negative rho (up, down):  5.888E-02 0.000E+00

     total cpu time spent up to now is    54166.4 secs

     total energy              =  -11682.10443717 Ry
     estimated scf accuracy    <       0.00000550 Ry

     iteration #186     ecut=    80.00 Ry     beta= 0.10
     Davidson diagonalization with overlap
     ethr =  1.64E-10,  avg # of iterations =  1.0

     negative rho (up, down):  5.888E-02 0.000E+00

     total cpu time spent up to now is    54454.5 secs

     total energy              =  -11682.10443707 Ry
     estimated scf accuracy    <       0.00000457 Ry

     iteration #187     ecut=    80.00 Ry     beta= 0.10
     Davidson diagonalization with overlap
     ethr =  1.64E-10,  avg # of iterations =  1.0

     negative rho (up, down):  5.888E-02 0.000E+00

     total cpu time spent up to now is    54742.4 secs

     total energy              =  -11682.10443711 Ry
     estimated scf accuracy    <       0.00000886 Ry

     iteration #188     ecut=    80.00 Ry     beta= 0.10
     Davidson diagonalization with overlap
     ethr =  1.64E-10,  avg # of iterations =  1.0

     negative rho (up, down):  5.888E-02 0.000E+00

     total cpu time spent up to now is    55031.1 secs

     total energy              =  -11682.10443718 Ry
     estimated scf accuracy    <       0.00000308 Ry

     iteration #189     ecut=    80.00 Ry     beta= 0.10
     Davidson diagonalization with overlap
     ethr =  1.64E-10,  avg # of iterations =  1.0

     negative rho (up, down):  5.888E-02 0.000E+00

     total cpu time spent up to now is    55318.9 secs

     total energy              =  -11682.10443720 Ry
     estimated scf accuracy    <       0.00000215 Ry

     iteration #190     ecut=    80.00 Ry     beta= 0.10
     Davidson diagonalization with overlap
     ethr =  1.15E-10,  avg # of iterations =  1.0

     negative rho (up, down):  5.888E-02 0.000E+00

     total cpu time spent up to now is    55607.4 secs

     total energy              =  -11682.10443719 Ry
     estimated scf accuracy    <       0.00000489 Ry

     iteration #191     ecut=    80.00 Ry     beta= 0.10
     Davidson diagonalization with overlap
     ethr =  1.15E-10,  avg # of iterations =  1.0

     negative rho (up, down):  5.888E-02 0.000E+00

     total cpu time spent up to now is    55895.2 secs

     total energy              =  -11682.10443724 Ry
     estimated scf accuracy    <       0.00000120 Ry

     iteration #192     ecut=    80.00 Ry     beta= 0.10
     Davidson diagonalization with overlap
     ethr =  6.40E-11,  avg # of iterations =  1.0

     negative rho (up, down):  5.888E-02 0.000E+00

     total cpu time spent up to now is    56183.5 secs

     total energy              =  -11682.10443723 Ry
     estimated scf accuracy    <       0.00000297 Ry

     iteration #193     ecut=    80.00 Ry     beta= 0.10
     Davidson diagonalization with overlap
     ethr =  6.40E-11,  avg # of iterations =  1.0

     negative rho (up, down):  5.888E-02 0.000E+00

     total cpu time spent up to now is    56471.5 secs

     total energy              =  -11682.10443720 Ry
     estimated scf accuracy    <       0.00000588 Ry

     iteration #194     ecut=    80.00 Ry     beta= 0.10
     Davidson diagonalization with overlap
     ethr =  6.40E-11,  avg # of iterations =  1.0

     negative rho (up, down):  5.888E-02 0.000E+00

     total cpu time spent up to now is    56759.3 secs

     total energy              =  -11682.10443723 Ry
     estimated scf accuracy    <       0.00000587 Ry

     iteration #195     ecut=    80.00 Ry     beta= 0.10
     Davidson diagonalization with overlap
     ethr =  6.40E-11,  avg # of iterations =  1.0

     negative rho (up, down):  5.888E-02 0.000E+00

     total cpu time spent up to now is    57048.2 secs

     total energy              =  -11682.10443728 Ry
     estimated scf accuracy    <       0.00000329 Ry

     iteration #196     ecut=    80.00 Ry     beta= 0.10
     Davidson diagonalization with overlap
     ethr =  6.40E-11,  avg # of iterations =  1.0

     negative rho (up, down):  5.888E-02 0.000E+00

     total cpu time spent up to now is    57335.9 secs

     total energy              =  -11682.10443725 Ry
     estimated scf accuracy    <       0.00000193 Ry

     iteration #197     ecut=    80.00 Ry     beta= 0.10
     Davidson diagonalization with overlap
     ethr =  6.40E-11,  avg # of iterations =  1.0

     negative rho (up, down):  5.888E-02 0.000E+00

     total cpu time spent up to now is    57624.1 secs

     total energy              =  -11682.10443722 Ry
     estimated scf accuracy    <       0.00000932 Ry

     iteration #198     ecut=    80.00 Ry     beta= 0.10
     Davidson diagonalization with overlap
     ethr =  6.40E-11,  avg # of iterations =  1.0

     negative rho (up, down):  5.888E-02 0.000E+00

     total cpu time spent up to now is    57912.2 secs

     total energy              =  -11682.10443728 Ry
     estimated scf accuracy    <       0.00000261 Ry

     iteration #199     ecut=    80.00 Ry     beta= 0.10
     Davidson diagonalization with overlap
     ethr =  6.40E-11,  avg # of iterations =  1.0

     negative rho (up, down):  5.888E-02 0.000E+00

     total cpu time spent up to now is    58199.0 secs

     total energy              =  -11682.10443731 Ry
     estimated scf accuracy    <       0.00000102 Ry

     iteration #200     ecut=    80.00 Ry     beta= 0.10
     Davidson diagonalization with overlap
     ethr =  5.48E-11,  avg # of iterations =  1.0

     negative rho (up, down):  5.888E-02 0.000E+00

     total cpu time spent up to now is    58488.5 secs

     total energy              =  -11682.10443729 Ry
     estimated scf accuracy    <       0.00000206 Ry

     iteration #201     ecut=    80.00 Ry     beta= 0.10
     Davidson diagonalization with overlap
     ethr =  5.48E-11,  avg # of iterations =  1.0

     negative rho (up, down):  5.888E-02 0.000E+00

     total cpu time spent up to now is    58775.9 secs

     total energy              =  -11682.10443732 Ry
     estimated scf accuracy    <       0.00000059 Ry

     iteration #202     ecut=    80.00 Ry     beta= 0.10
     Davidson diagonalization with overlap
     ethr =  3.17E-11,  avg # of iterations =  1.0

     negative rho (up, down):  5.888E-02 0.000E+00

     total cpu time spent up to now is    59063.5 secs

     total energy              =  -11682.10443732 Ry
     estimated scf accuracy    <       0.00000091 Ry

     iteration #203     ecut=    80.00 Ry     beta= 0.10
     Davidson diagonalization with overlap
     ethr =  3.17E-11,  avg # of iterations =  1.0

     negative rho (up, down):  5.888E-02 0.000E+00

     total cpu time spent up to now is    59351.5 secs

     total energy              =  -11682.10443731 Ry
     estimated scf accuracy    <       0.00000194 Ry

     iteration #204     ecut=    80.00 Ry     beta= 0.10
     Davidson diagonalization with overlap
     ethr =  3.17E-11,  avg # of iterations =  1.0

     negative rho (up, down):  5.888E-02 0.000E+00

     total cpu time spent up to now is    59639.4 secs

     total energy              =  -11682.10443731 Ry
     estimated scf accuracy    <       0.00000285 Ry

     iteration #205     ecut=    80.00 Ry     beta= 0.10
     Davidson diagonalization with overlap
     ethr =  3.17E-11,  avg # of iterations =  1.0

     negative rho (up, down):  5.888E-02 0.000E+00

     total cpu time spent up to now is    59927.5 secs

     total energy              =  -11682.10443733 Ry
     estimated scf accuracy    <       0.00000161 Ry

     iteration #206     ecut=    80.00 Ry     beta= 0.10
     Davidson diagonalization with overlap
     ethr =  3.17E-11,  avg # of iterations =  1.0

     negative rho (up, down):  5.888E-02 0.000E+00

     total cpu time spent up to now is    60215.1 secs

     total energy              =  -11682.10443734 Ry
     estimated scf accuracy    <       0.00000073 Ry

     iteration #207     ecut=    80.00 Ry     beta= 0.10
     Davidson diagonalization with overlap
     ethr =  3.17E-11,  avg # of iterations =  1.0

     negative rho (up, down):  5.888E-02 0.000E+00

     total cpu time spent up to now is    60503.2 secs

     total energy              =  -11682.10443730 Ry
     estimated scf accuracy    <       0.00000570 Ry

     iteration #208     ecut=    80.00 Ry     beta= 0.10
     Davidson diagonalization with overlap
     ethr =  3.17E-11,  avg # of iterations =  1.0

     negative rho (up, down):  5.888E-02 0.000E+00

     total cpu time spent up to now is    60791.7 secs

     total energy              =  -11682.10443733 Ry
     estimated scf accuracy    <       0.00000221 Ry

     iteration #209     ecut=    80.00 Ry     beta= 0.10
     Davidson diagonalization with overlap
     ethr =  3.17E-11,  avg # of iterations =  1.0

     negative rho (up, down):  5.888E-02 0.000E+00

     total cpu time spent up to now is    61080.0 secs

     total energy              =  -11682.10443735 Ry
     estimated scf accuracy    <       0.00000070 Ry

     iteration #210     ecut=    80.00 Ry     beta= 0.10
     Davidson diagonalization with overlap
     ethr =  3.17E-11,  avg # of iterations =  1.0

     negative rho (up, down):  5.888E-02 0.000E+00

     total cpu time spent up to now is    61367.6 secs

     total energy              =  -11682.10443734 Ry
     estimated scf accuracy    <       0.00000116 Ry

     iteration #211     ecut=    80.00 Ry     beta= 0.10
     Davidson diagonalization with overlap
     ethr =  3.17E-11,  avg # of iterations =  1.0

     negative rho (up, down):  5.888E-02 0.000E+00

     total cpu time spent up to now is    61655.4 secs

     total energy              =  -11682.10443735 Ry
     estimated scf accuracy    <       0.00000043 Ry

     iteration #212     ecut=    80.00 Ry     beta= 0.10
     Davidson diagonalization with overlap
     ethr =  2.30E-11,  avg # of iterations =  1.0

     negative rho (up, down):  5.888E-02 0.000E+00

     total cpu time spent up to now is    61942.9 secs

     total energy              =  -11682.10443735 Ry
     estimated scf accuracy    <       0.00000036 Ry

     iteration #213     ecut=    80.00 Ry     beta= 0.10
     Davidson diagonalization with overlap
     ethr =  1.92E-11,  avg # of iterations =  1.0

     negative rho (up, down):  5.888E-02 0.000E+00

     total cpu time spent up to now is    62231.3 secs

     total energy              =  -11682.10443735 Ry
     estimated scf accuracy    <       0.00000068 Ry

     iteration #214     ecut=    80.00 Ry     beta= 0.10
     Davidson diagonalization with overlap
     ethr =  1.92E-11,  avg # of iterations =  1.0

     negative rho (up, down):  5.888E-02 0.000E+00

     total cpu time spent up to now is    62519.5 secs

     total energy              =  -11682.10443735 Ry
     estimated scf accuracy    <       0.00000121 Ry

     iteration #215     ecut=    80.00 Ry     beta= 0.10
     Davidson diagonalization with overlap
     ethr =  1.92E-11,  avg # of iterations =  1.0

     negative rho (up, down):  5.889E-02 0.000E+00

     total cpu time spent up to now is    62808.1 secs

     total energy              =  -11682.10443736 Ry
     estimated scf accuracy    <       0.00000078 Ry

     iteration #216     ecut=    80.00 Ry     beta= 0.10
     Davidson diagonalization with overlap
     ethr =  1.92E-11,  avg # of iterations =  1.0

     negative rho (up, down):  5.889E-02 0.000E+00

     total cpu time spent up to now is    63096.3 secs

     total energy              =  -11682.10443736 Ry
     estimated scf accuracy    <       0.00000027 Ry

     iteration #217     ecut=    80.00 Ry     beta= 0.10
     Davidson diagonalization with overlap
     ethr =  1.42E-11,  avg # of iterations =  1.0

     negative rho (up, down):  5.889E-02 0.000E+00

     total cpu time spent up to now is    63384.9 secs

     total energy              =  -11682.10443735 Ry
     estimated scf accuracy    <       0.00000195 Ry

     iteration #218     ecut=    80.00 Ry     beta= 0.10
     Davidson diagonalization with overlap
     ethr =  1.42E-11,  avg # of iterations =  1.0

     negative rho (up, down):  5.889E-02 0.000E+00

     total cpu time spent up to now is    63673.3 secs

     total energy              =  -11682.10443735 Ry
     estimated scf accuracy    <       0.00000132 Ry

     iteration #219     ecut=    80.00 Ry     beta= 0.10
     Davidson diagonalization with overlap
     ethr =  1.42E-11,  avg # of iterations =  1.0

     negative rho (up, down):  5.889E-02 0.000E+00

     total cpu time spent up to now is    63961.2 secs

     total energy              =  -11682.10443736 Ry
     estimated scf accuracy    <       0.00000044 Ry

     iteration #220     ecut=    80.00 Ry     beta= 0.10
     Davidson diagonalization with overlap
     ethr =  1.42E-11,  avg # of iterations =  1.0

     negative rho (up, down):  5.889E-02 0.000E+00

     total cpu time spent up to now is    64248.4 secs

     total energy              =  -11682.10443736 Ry
     estimated scf accuracy    <       0.00000051 Ry

     iteration #221     ecut=    80.00 Ry     beta= 0.10
     Davidson diagonalization with overlap
     ethr =  1.42E-11,  avg # of iterations =  1.0

     negative rho (up, down):  5.889E-02 0.000E+00

     total cpu time spent up to now is    64536.3 secs

     total energy              =  -11682.10443736 Ry
     estimated scf accuracy    <       0.00000042 Ry

     iteration #222     ecut=    80.00 Ry     beta= 0.10
     Davidson diagonalization with overlap
     ethr =  1.42E-11,  avg # of iterations =  1.0

     negative rho (up, down):  5.889E-02 0.000E+00

     total cpu time spent up to now is    64824.6 secs

     total energy              =  -11682.10443736 Ry
     estimated scf accuracy    <       0.00000025 Ry

     iteration #223     ecut=    80.00 Ry     beta= 0.10
     Davidson diagonalization with overlap
     ethr =  1.34E-11,  avg # of iterations =  1.0

     negative rho (up, down):  5.889E-02 0.000E+00

     total cpu time spent up to now is    65112.4 secs

     total energy              =  -11682.10443736 Ry
     estimated scf accuracy    <       0.00000034 Ry

     iteration #224     ecut=    80.00 Ry     beta= 0.10
     Davidson diagonalization with overlap
     ethr =  1.34E-11,  avg # of iterations =  1.0

     negative rho (up, down):  5.889E-02 0.000E+00

     total cpu time spent up to now is    65400.6 secs

     total energy              =  -11682.10443736 Ry
     estimated scf accuracy    <       0.00000066 Ry

     iteration #225     ecut=    80.00 Ry     beta= 0.10
     Davidson diagonalization with overlap
     ethr =  1.34E-11,  avg # of iterations =  1.0

     negative rho (up, down):  5.889E-02 0.000E+00

     total cpu time spent up to now is    65690.0 secs

     total energy              =  -11682.10443736 Ry
     estimated scf accuracy    <       0.00000049 Ry

     iteration #226     ecut=    80.00 Ry     beta= 0.10
     Davidson diagonalization with overlap
     ethr =  1.34E-11,  avg # of iterations =  1.0

     negative rho (up, down):  5.889E-02 0.000E+00

     total cpu time spent up to now is    65978.5 secs

     total energy              =  -11682.10443737 Ry
     estimated scf accuracy    <       0.00000011 Ry

     iteration #227     ecut=    80.00 Ry     beta= 0.10
     Davidson diagonalization with overlap
     ethr =  5.67E-12,  avg # of iterations =  1.0

     negative rho (up, down):  5.889E-02 0.000E+00

     total cpu time spent up to now is    66266.2 secs

     total energy              =  -11682.10443736 Ry
     estimated scf accuracy    <       0.00000051 Ry

     iteration #228     ecut=    80.00 Ry     beta= 0.10
     Davidson diagonalization with overlap
     ethr =  5.67E-12,  avg # of iterations =  1.0

     negative rho (up, down):  5.889E-02 0.000E+00

     total cpu time spent up to now is    66554.6 secs

     total energy              =  -11682.10443736 Ry
     estimated scf accuracy    <       0.00000055 Ry

     iteration #229     ecut=    80.00 Ry     beta= 0.10
     Davidson diagonalization with overlap
     ethr =  5.67E-12,  avg # of iterations =  1.0

     negative rho (up, down):  5.889E-02 0.000E+00

     total cpu time spent up to now is    66842.0 secs

     total energy              =  -11682.10443737 Ry
     estimated scf accuracy    <       0.00000021 Ry

     iteration #230     ecut=    80.00 Ry     beta= 0.10
     Davidson diagonalization with overlap
     ethr =  5.67E-12,  avg # of iterations =  1.0

     negative rho (up, down):  5.889E-02 0.000E+00

     total cpu time spent up to now is    67129.0 secs

     total energy              =  -11682.10443737 Ry
     estimated scf accuracy    <       0.00000017 Ry

     iteration #231     ecut=    80.00 Ry     beta= 0.10
     Davidson diagonalization with overlap
     ethr =  5.67E-12,  avg # of iterations =  1.0

     negative rho (up, down):  5.889E-02 0.000E+00

     total cpu time spent up to now is    67416.6 secs

     total energy              =  -11682.10443736 Ry
     estimated scf accuracy    <       0.00000040 Ry

     iteration #232     ecut=    80.00 Ry     beta= 0.10
     Davidson diagonalization with overlap
     ethr =  5.67E-12,  avg # of iterations =  1.0

     negative rho (up, down):  5.889E-02 0.000E+00

     total cpu time spent up to now is    67704.6 secs

     total energy              =  -11682.10443737 Ry
     estimated scf accuracy    <       0.00000016 Ry

     iteration #233     ecut=    80.00 Ry     beta= 0.10
     Davidson diagonalization with overlap
     ethr =  5.67E-12,  avg # of iterations =  1.0

     negative rho (up, down):  5.889E-02 0.000E+00

     total cpu time spent up to now is    67992.8 secs

     total energy              =  -11682.10443737 Ry
     estimated scf accuracy    <       0.00000019 Ry

     iteration #234     ecut=    80.00 Ry     beta= 0.10
     Davidson diagonalization with overlap
     ethr =  5.67E-12,  avg # of iterations =  1.0

     negative rho (up, down):  5.889E-02 0.000E+00

     total cpu time spent up to now is    68281.0 secs

     total energy              =  -11682.10443736 Ry
     estimated scf accuracy    <       0.00000038 Ry

     iteration #235     ecut=    80.00 Ry     beta= 0.10
     Davidson diagonalization with overlap
     ethr =  5.67E-12,  avg # of iterations =  1.0

     negative rho (up, down):  5.889E-02 0.000E+00

     total cpu time spent up to now is    68568.8 secs

     total energy              =  -11682.10443736 Ry
     estimated scf accuracy    <       0.00000039 Ry

     iteration #236     ecut=    80.00 Ry     beta= 0.10
     Davidson diagonalization with overlap
     ethr =  5.67E-12,  avg # of iterations =  1.0

     negative rho (up, down):  5.889E-02 0.000E+00

     total cpu time spent up to now is    68855.6 secs

     total energy              =  -11682.10443737 Ry
     estimated scf accuracy    <       0.00000006 Ry

     iteration #237     ecut=    80.00 Ry     beta= 0.10
     Davidson diagonalization with overlap
     ethr =  3.31E-12,  avg # of iterations =  1.0

     negative rho (up, down):  5.889E-02 0.000E+00

     total cpu time spent up to now is    69143.6 secs

     total energy              =  -11682.10443737 Ry
     estimated scf accuracy    <       0.00000014 Ry

     iteration #238     ecut=    80.00 Ry     beta= 0.10
     Davidson diagonalization with overlap
     ethr =  3.31E-12,  avg # of iterations =  1.0

     negative rho (up, down):  5.889E-02 0.000E+00

     total cpu time spent up to now is    69431.0 secs

     total energy              =  -11682.10443736 Ry
     estimated scf accuracy    <       0.00000025 Ry

     iteration #239     ecut=    80.00 Ry     beta= 0.10
     Davidson diagonalization with overlap
     ethr =  3.31E-12,  avg # of iterations =  1.0

     negative rho (up, down):  5.889E-02 0.000E+00

     total cpu time spent up to now is    69718.8 secs

     total energy              =  -11682.10443737 Ry
     estimated scf accuracy    <       0.00000009 Ry

     iteration #240     ecut=    80.00 Ry     beta= 0.10
     Davidson diagonalization with overlap
     ethr =  3.31E-12,  avg # of iterations =  1.0

     negative rho (up, down):  5.889E-02 0.000E+00

     total cpu time spent up to now is    70006.2 secs

     total energy              =  -11682.10443736 Ry
     estimated scf accuracy    <       0.00000005 Ry

     iteration #241     ecut=    80.00 Ry     beta= 0.10
     Davidson diagonalization with overlap
     ethr =  2.88E-12,  avg # of iterations =  1.0

     negative rho (up, down):  5.889E-02 0.000E+00

     total cpu time spent up to now is    70294.6 secs

     total energy              =  -11682.10443736 Ry
     estimated scf accuracy    <       0.00000022 Ry

     iteration #242     ecut=    80.00 Ry     beta= 0.10
     Davidson diagonalization with overlap
     ethr =  2.88E-12,  avg # of iterations =  1.0

     negative rho (up, down):  5.889E-02 0.000E+00

     total cpu time spent up to now is    70582.6 secs

     total energy              =  -11682.10443736 Ry
     estimated scf accuracy    <       0.00000008 Ry

     iteration #243     ecut=    80.00 Ry     beta= 0.10
     Davidson diagonalization with overlap
     ethr =  2.88E-12,  avg # of iterations =  1.0

     negative rho (up, down):  5.889E-02 0.000E+00

     total cpu time spent up to now is    70870.1 secs

     total energy              =  -11682.10443736 Ry
     estimated scf accuracy    <       0.00000009 Ry

     iteration #244     ecut=    80.00 Ry     beta= 0.10
     Davidson diagonalization with overlap
     ethr =  2.88E-12,  avg # of iterations =  1.0

     negative rho (up, down):  5.889E-02 0.000E+00

     total cpu time spent up to now is    71157.8 secs

     total energy              =  -11682.10443736 Ry
     estimated scf accuracy    <       0.00000017 Ry

     iteration #245     ecut=    80.00 Ry     beta= 0.10
     Davidson diagonalization with overlap
     ethr =  2.88E-12,  avg # of iterations =  1.0

     negative rho (up, down):  5.889E-02 0.000E+00

     total cpu time spent up to now is    71445.2 secs

     total energy              =  -11682.10443736 Ry
     estimated scf accuracy    <       0.00000025 Ry

     iteration #246     ecut=    80.00 Ry     beta= 0.10
     Davidson diagonalization with overlap
     ethr =  2.88E-12,  avg # of iterations =  1.0

     negative rho (up, down):  5.889E-02 0.000E+00

     total cpu time spent up to now is    71733.0 secs

     total energy              =  -11682.10443736 Ry
     estimated scf accuracy    <       0.00000006 Ry

     iteration #247     ecut=    80.00 Ry     beta= 0.10
     Davidson diagonalization with overlap
     ethr =  2.88E-12,  avg # of iterations =  1.0

     negative rho (up, down):  5.889E-02 0.000E+00

     total cpu time spent up to now is    72020.9 secs

     total energy              =  -11682.10443736 Ry
     estimated scf accuracy    <       0.00000008 Ry

     iteration #248     ecut=    80.00 Ry     beta= 0.10
     Davidson diagonalization with overlap
     ethr =  2.88E-12,  avg # of iterations =  1.0

     negative rho (up, down):  5.889E-02 0.000E+00

     total cpu time spent up to now is    72308.2 secs

     total energy              =  -11682.10443736 Ry
     estimated scf accuracy    <       0.00000013 Ry

     iteration #249     ecut=    80.00 Ry     beta= 0.10
     Davidson diagonalization with overlap
     ethr =  2.88E-12,  avg # of iterations =  1.0

     negative rho (up, down):  5.889E-02 0.000E+00

     total cpu time spent up to now is    72595.9 secs

     total energy              =  -11682.10443736 Ry
     estimated scf accuracy    <       0.00000005 Ry

     iteration #250     ecut=    80.00 Ry     beta= 0.10
     Davidson diagonalization with overlap
     ethr =  2.83E-12,  avg # of iterations =  1.0

     negative rho (up, down):  5.889E-02 0.000E+00

     total cpu time spent up to now is    72883.6 secs

     total energy              =  -11682.10443736 Ry
     estimated scf accuracy    <       0.00000002 Ry

     iteration #251     ecut=    80.00 Ry     beta= 0.10
     Davidson diagonalization with overlap
     ethr =  1.22E-12,  avg # of iterations =  1.0

     negative rho (up, down):  5.889E-02 0.000E+00

     total cpu time spent up to now is    73171.9 secs

     total energy              =  -11682.10443736 Ry
     estimated scf accuracy    <       0.00000008 Ry

     iteration #252     ecut=    80.00 Ry     beta= 0.10
     Davidson diagonalization with overlap
     ethr =  1.22E-12,  avg # of iterations =  1.0

     negative rho (up, down):  5.889E-02 0.000E+00

     total cpu time spent up to now is    73460.0 secs

     total energy              =  -11682.10443736 Ry
     estimated scf accuracy    <       0.00000003 Ry

     iteration #253     ecut=    80.00 Ry     beta= 0.10
     Davidson diagonalization with overlap
     ethr =  1.22E-12,  avg # of iterations =  1.0

     negative rho (up, down):  5.889E-02 0.000E+00

     total cpu time spent up to now is    73748.0 secs

     total energy              =  -11682.10443736 Ry
     estimated scf accuracy    <       0.00000004 Ry

     iteration #254     ecut=    80.00 Ry     beta= 0.10
     Davidson diagonalization with overlap
     ethr =  1.22E-12,  avg # of iterations =  1.0

     negative rho (up, down):  5.889E-02 0.000E+00

     total cpu time spent up to now is    74034.9 secs

     total energy              =  -11682.10443736 Ry
     estimated scf accuracy    <       0.00000006 Ry

     iteration #255     ecut=    80.00 Ry     beta= 0.10
     Davidson diagonalization with overlap
     ethr =  1.22E-12,  avg # of iterations =  1.0

     negative rho (up, down):  5.889E-02 0.000E+00

     total cpu time spent up to now is    74323.9 secs

     total energy              =  -11682.10443736 Ry
     estimated scf accuracy    <       0.00000011 Ry

     iteration #256     ecut=    80.00 Ry     beta= 0.10
     Davidson diagonalization with overlap
     ethr =  1.22E-12,  avg # of iterations =  1.0

     negative rho (up, down):  5.889E-02 0.000E+00

     total cpu time spent up to now is    74612.1 secs

     total energy              =  -11682.10443736 Ry
     estimated scf accuracy    <       0.00000006 Ry

     iteration #257     ecut=    80.00 Ry     beta= 0.10
     Davidson diagonalization with overlap
     ethr =  1.22E-12,  avg # of iterations =  1.0

     negative rho (up, down):  5.889E-02 0.000E+00

     total cpu time spent up to now is    74900.3 secs

     total energy              =  -11682.10443736 Ry
     estimated scf accuracy    <       0.00000005 Ry

     iteration #258     ecut=    80.00 Ry     beta= 0.10
     Davidson diagonalization with overlap
     ethr =  1.22E-12,  avg # of iterations =  1.0

     negative rho (up, down):  5.889E-02 0.000E+00

     total cpu time spent up to now is    75188.4 secs

     total energy              =  -11682.10443736 Ry
     estimated scf accuracy    <       0.00000007 Ry

     iteration #259     ecut=    80.00 Ry     beta= 0.10
     Davidson diagonalization with overlap
     ethr =  1.22E-12,  avg # of iterations =  1.0

     negative rho (up, down):  5.889E-02 0.000E+00

     total cpu time spent up to now is    75475.7 secs

     total energy              =  -11682.10443736 Ry
     estimated scf accuracy    <       0.00000004 Ry

     iteration #260     ecut=    80.00 Ry     beta= 0.10
     Davidson diagonalization with overlap
     ethr =  1.22E-12,  avg # of iterations =  1.0

     negative rho (up, down):  5.889E-02 0.000E+00

     total cpu time spent up to now is    75763.5 secs

     total energy              =  -11682.10443736 Ry
     estimated scf accuracy    <       0.00000001 Ry

     iteration #261     ecut=    80.00 Ry     beta= 0.10
     Davidson diagonalization with overlap
     ethr =  7.18E-13,  avg # of iterations =  1.0

     negative rho (up, down):  5.889E-02 0.000E+00

     total cpu time spent up to now is    76053.8 secs

     total energy              =  -11682.10443736 Ry
     estimated scf accuracy    <       0.00000002 Ry

     iteration #262     ecut=    80.00 Ry     beta= 0.10
     Davidson diagonalization with overlap
     ethr =  7.18E-13,  avg # of iterations =  1.0

     negative rho (up, down):  5.889E-02 0.000E+00

     total cpu time spent up to now is    76341.9 secs

     total energy              =  -11682.10443736 Ry
     estimated scf accuracy    <       0.00000002 Ry

     iteration #263     ecut=    80.00 Ry     beta= 0.10
     Davidson diagonalization with overlap
     ethr =  7.18E-13,  avg # of iterations =  1.0

     negative rho (up, down):  5.889E-02 0.000E+00

     total cpu time spent up to now is    76630.6 secs

     total energy              =  -11682.10443736 Ry
     estimated scf accuracy    <       0.00000002 Ry

     iteration #264     ecut=    80.00 Ry     beta= 0.10
     Davidson diagonalization with overlap
     ethr =  7.18E-13,  avg # of iterations =  1.0

     negative rho (up, down):  5.889E-02 0.000E+00

     total cpu time spent up to now is    76918.2 secs

     total energy              =  -11682.10443736 Ry
     estimated scf accuracy    <       0.00000002 Ry

     iteration #265     ecut=    80.00 Ry     beta= 0.10
     Davidson diagonalization with overlap
     ethr =  7.18E-13,  avg # of iterations =  1.0

     negative rho (up, down):  5.889E-02 0.000E+00

     total cpu time spent up to now is    77205.9 secs

     total energy              =  -11682.10443736 Ry
     estimated scf accuracy    <       0.00000004 Ry

     iteration #266     ecut=    80.00 Ry     beta= 0.10
     Davidson diagonalization with overlap
     ethr =  7.18E-13,  avg # of iterations =  1.0

     negative rho (up, down):  5.889E-02 0.000E+00

     total cpu time spent up to now is    77493.5 secs

     total energy              =  -11682.10443736 Ry
     estimated scf accuracy    <       0.00000005 Ry

     iteration #267     ecut=    80.00 Ry     beta= 0.10
     Davidson diagonalization with overlap
     ethr =  7.18E-13,  avg # of iterations =  1.0

     negative rho (up, down):  5.889E-02 0.000E+00

     total cpu time spent up to now is    77781.5 secs

     total energy              =  -11682.10443736 Ry
     estimated scf accuracy    <       0.00000002 Ry

     iteration #268     ecut=    80.00 Ry     beta= 0.10
     Davidson diagonalization with overlap
     ethr =  7.18E-13,  avg # of iterations =  1.0

     negative rho (up, down):  5.889E-02 0.000E+00

     total cpu time spent up to now is    78070.9 secs

     total energy              =  -11682.10443736 Ry
     estimated scf accuracy    <       0.00000003 Ry

     iteration #269     ecut=    80.00 Ry     beta= 0.10
     Davidson diagonalization with overlap
     ethr =  7.18E-13,  avg # of iterations =  1.0

     negative rho (up, down):  5.889E-02 0.000E+00

     total cpu time spent up to now is    78359.1 secs

     total energy              =  -11682.10443736 Ry
     estimated scf accuracy    <       0.00000003 Ry

     iteration #270     ecut=    80.00 Ry     beta= 0.10
     Davidson diagonalization with overlap
     ethr =  7.18E-13,  avg # of iterations =  1.0

     negative rho (up, down):  5.889E-02 0.000E+00

     total cpu time spent up to now is    78646.9 secs

     total energy              =  -11682.10443736 Ry
     estimated scf accuracy    <       0.00000001 Ry

     iteration #271     ecut=    80.00 Ry     beta= 0.10
     Davidson diagonalization with overlap
     ethr =  5.51E-13,  avg # of iterations =  1.0

     negative rho (up, down):  5.889E-02 0.000E+00

     total cpu time spent up to now is    78934.9 secs

     End of self-consistent calculation

          k = 0.0000 0.0000 0.0000 (****** PWs)   bands (ev):

   -58.1731 -56.3883 -56.0452 -56.0178 -55.7912 -55.7772 -55.2142 -55.1660
   -54.9437 -54.6882 -54.0494 -30.0997 -30.0826 -30.0445 -28.3391 -28.2964
   -28.2551 -27.9785 -27.9709 -27.9545 -27.9360 -27.9310 -27.9130 -27.7450
   -27.7242 -27.6967 -27.6792 -27.6593 -27.6506 -27.3157 -27.1849 -27.1249
   -27.1186 -27.0901 -27.0581 -27.0377 -26.9363 -26.8846 -26.8440 -26.6646
   -26.6258 -26.5707 -26.4389 -26.3130 -26.0552 -26.0001 -25.9722 -25.9543
   -25.9525 -25.9418 -25.8077 -25.7625 -25.7434 -25.7361 -25.6380 -25.5512
   -25.4824 -25.4213 -25.3724 -25.3153 -25.2948 -25.2407 -25.2162 -25.1990
   -25.1862 -25.1799 -25.1304 -25.0910 -25.0825 -25.0704 -25.0358 -25.0344
   -24.9841 -24.9706 -24.9420 -24.9186 -24.8925 -24.8536 -24.8291 -24.8118
   -24.7938 -24.7899 -24.7564 -24.7349 -24.7200 -24.6958 -24.6724 -24.6391
   -24.6255 -24.5903 -24.5864 -24.5620 -24.5483 -24.5220 -24.5105 -24.4889
   -24.4758 -24.4495 -24.4428 -24.4291 -24.4016 -24.3954 -24.3687 -24.3577
   -24.3362 -24.3099 -24.2896 -24.2815 -24.2653 -24.2461 -24.2317 -24.2055
   -24.1739 -24.1597 -24.1469 -24.1253 -24.1091 -24.0827 -24.0538 -24.0504
   -23.9969 -23.9760 -23.9726 -23.9566 -23.9400 -23.9244 -23.9152 -23.9026
   -23.8882 -23.8826 -23.8756 -23.8680 -23.8599 -23.8494 -23.8201 -23.8060
   -23.7919 -23.7854 -23.7728 -23.7457 -23.7406 -23.7269 -23.7081 -23.6986
   -23.6871 -23.6752 -23.6577 -23.6259 -23.6004 -23.5902 -23.5728 -23.5705
   -23.5429 -23.5288 -23.5249 -23.4920 -23.4852 -23.4753 -23.4630 -23.4444
   -23.4341 -23.4038 -23.3962 -23.3786 -23.3689 -23.3397 -23.3307 -23.3090
   -23.3085 -23.2842 -23.2723 -23.2643 -23.2457 -23.2363 -23.2352 -23.2196
   -23.2022 -23.1937 -23.1790 -23.1416 -23.1138 -23.0937 -23.0896 -23.0734
   -23.0659 -23.0428 -23.0297 -23.0168 -23.0111 -22.9839 -22.9763 -22.9583
   -22.9507 -22.9327 -22.8965 -22.8911 -22.8866 -22.8803 -22.8499 -22.8444
   -22.8233 -22.7461 -22.7137 -22.7022 -22.6594 -22.6359 -22.5888 -22.5783
   -22.5725 -22.5684 -22.5646 -22.5093 -22.4481 -22.4277 -22.4217 -22.4020
   -22.3913 -22.3560 -22.2957 -22.2128 -22.1682 -22.1595 -22.1172 -22.0206
   -21.8332 -21.7635 -21.7595 -21.7378 -21.6895 -21.6366 -21.6150 -21.5767
   -21.5152 -21.4901 -20.8243 -20.7795 -20.7463 -20.7371 -20.7352 -20.7088
   -20.7063 -20.6542 -20.6504 -20.5450 -20.5432 -20.3474 -20.2640 -20.2571
   -20.1966 -20.0117 -19.9181 -19.9158 -19.9137 -19.9012 -19.8965 -19.8957
   -19.8918 -19.8659 -19.8576 -19.8502 -19.7859 -19.0783 -18.7065 -17.8575
   -17.1015 -16.3043 -15.5335 -15.3934 -15.3314 -15.2605 -15.1516 -15.0717
   -15.0364 -14.9682 -14.9330 -14.8894 -14.8396 -14.7719 -14.7633 -14.7132
   -14.6879 -14.6019 -14.5239 -14.4671 -14.3935 -14.3645 -14.3117 -14.2808
   -14.2123 -14.1920 -14.1887 -14.1397 -14.1023 -14.0858 -14.0603 -13.9971
   -13.9773 -13.9324 -13.9265 -13.8702 -13.8417 -13.7870 -13.7188 -13.7047
   -13.6740 -13.6275 -13.6224 -13.6043 -13.5555 -13.5043 -13.4798 -13.4690
   -13.4251 -13.3999 -13.3935 -13.3345 -13.3116 -13.2706 -13.2630 -13.2342
   -13.1906 -13.1735 -13.1448 -13.1091 -13.0881 -13.0660 -13.0315 -13.0084
   -12.9836 -12.9557 -12.9168 -12.9060 -12.8501 -12.8309 -12.8090 -12.7316
   -12.7206 -12.7007 -12.6641 -12.6230 -12.5961 -12.5567 -12.5421 -12.5088
   -12.4990 -12.4809 -12.4717 -12.4108 -12.3926 -12.3478 -12.3279 -12.3077
   -12.2668 -12.2231 -12.2035 -12.1810 -12.1594 -12.1298 -12.0978 -12.0692
   -12.0478 -12.0344 -12.0086 -11.9898 -11.9663 -11.9307 -11.9231 -11.8882
   -11.8833 -11.8742 -11.8278 -11.8162 -11.7839 -11.7794 -11.7639 -11.7483
   -11.7264 -11.7172 -11.6991 -11.6762 -11.6631 -11.6454 -11.6412 -11.6250
   -11.6054 -11.5942 -11.5667 -11.5559 -11.5522 -11.5137 -11.4922 -11.4764
   -11.4553 -11.4465 -11.4300 -11.3967 -11.3779 -11.3561 -11.3540 -11.3469
   -11.3246 -11.3201 -11.3012 -11.2800 -11.2652 -11.2508 -11.2473 -11.2221
   -11.1723 -11.1683 -11.1433 -11.1316 -11.1087 -11.0821 -11.0756 -11.0618
   -11.0580 -11.0576 -11.0374 -11.0330 -11.0120 -11.0041 -10.9925 -10.9616
   -10.9590 -10.9212 -10.9004 -10.8907 -10.8743 -10.8709 -10.8427 -10.8344
   -10.7957 -10.7695 -10.7642 -10.7450 -10.7287 -10.7213 -10.6996 -10.6711
   -10.6562 -10.6428 -10.6121 -10.5716 -10.5601 -10.5144 -10.4924 -10.4773
   -10.4639 -10.4148 -10.3932 -10.3878 -10.3629 -10.3453 -10.2922 -10.2568
   -10.2537 -10.2289 -10.2118 -10.1715 -10.1529 -10.0930 -10.0793 -10.0559
   -10.0414 -10.0166  -9.9965  -9.9806  -9.9664  -9.9448  -9.9201  -9.9034
    -9.8485  -9.8295  -9.7728  -9.7682  -9.7504  -9.7196  -9.7107  -9.6940
    -9.6769  -9.6658  -9.6470  -9.6389  -9.6011  -9.5799  -9.5544  -9.5456
    -9.5440  -9.5197  -9.5170  -9.5062  -9.5032  -9.4931  -9.4850  -9.4718
    -9.4291  -9.4130  -9.4051  -9.3717  -9.3599  -9.3517  -9.3288  -9.3234
    -9.3035  -9.2898  -9.2598  -9.2407  -9.2243  -9.2006  -9.1974  -9.1581
    -9.1504  -9.1244  -9.0946  -9.0917  -9.0631  -9.0467  -9.0384  -9.0297
    -9.0201  -9.0050  -8.9868  -8.9650  -8.9533  -8.9445  -8.9197  -8.9172
    -8.9049  -8.8907  -8.8817  -8.8667  -8.8468  -8.8423  -8.8370  -8.8241
    -8.8206  -8.8039  -8.7751  -8.7684  -8.7545  -8.7531  -8.7522  -8.7519
    -8.7335  -8.7215  -8.7148  -8.6956  -8.6923  -8.6819  -8.6715  -8.6549
    -8.6449  -8.6390  -8.6251  -8.6140  -8.5993  -8.5772  -8.5726  -8.5675
    -8.5551  -8.5484  -8.5425  -8.5285  -8.5151  -8.5091  -8.4934  -8.4855
    -8.4790  -8.4669  -8.4508  -8.4457  -8.4448  -8.4305  -8.4186  -8.4040
    -8.3977  -8.3854  -8.3750  -8.3588  -8.3534  -8.3452  -8.3277  -8.3232
    -8.3219  -8.3103  -8.2905  -8.2721  -8.2649  -8.2532  -8.2459  -8.2308
    -8.2197  -8.2170  -8.2101  -8.2015  -8.1940  -8.1872  -8.1781  -8.1699
    -8.1624  -8.1407  -8.1315  -8.1254  -8.1216  -8.0987  -8.0940  -8.0901
    -8.0672  -8.0635  -8.0508  -8.0398  -8.0328  -8.0209  -8.0166  -8.0045
    -8.0035  -7.9880  -7.9822  -7.9733  -7.9595  -7.9553  -7.9451  -7.9314
    -7.9278  -7.9215  -7.9152  -7.8997  -7.8978  -7.8841  -7.8757  -7.8618
    -7.8548  -7.8542  -7.8349  -7.8280  -7.8227  -7.8083  -7.8036  -7.7954
    -7.7804  -7.7780  -7.7663  -7.7553  -7.7535  -7.7353  -7.7328  -7.7197
    -7.7176  -7.6942  -7.6869  -7.6824  -7.6751  -7.6637  -7.6497  -7.6482
    -7.6322  -7.6277  -7.6225  -7.6073  -7.6005  -7.5934  -7.5890  -7.5824
    -7.5667  -7.5599  -7.5537  -7.5452  -7.5395  -7.5098  -7.4959  -7.4812
    -7.4745  -7.4722  -7.4675  -7.4564  -7.4441  -7.4372  -7.4287  -7.4135
    -7.4058  -7.3926  -7.3852  -7.3692  -7.3661  -7.3640  -7.3553  -7.3447
    -7.3342  -7.3216  -7.3115  -7.3012  -7.2946  -7.2758  -7.2660  -7.2577
    -7.2455  -7.2415  -7.2298  -7.2204  -7.2093  -7.2023  -7.1899  -7.1862
    -7.1755  -7.1710  -7.1630  -7.1471  -7.1392  -7.1340  -7.1188  -7.1050
    -7.0879  -7.0799  -7.0691  -7.0567  -7.0457  -7.0355  -7.0266  -7.0227
    -7.0111  -7.0078  -6.9901  -6.9728  -6.9654  -6.9587  -6.9470  -6.9366
    -6.9252  -6.9165  -6.9048  -6.8982  -6.8869  -6.8776  -6.8681  -6.8628
    -6.8556  -6.8413  -6.8337  -6.8189  -6.8081  -6.8035  -6.7950  -6.7891
    -6.7792  -6.7720  -6.7715  -6.7649  -6.7364  -6.7349  -6.7142  -6.6959
    -6.6884  -6.6740  -6.6706  -6.6676  -6.6623  -6.6513  -6.6499  -6.6350
    -6.6305  -6.6174  -6.6136  -6.6020  -6.5881  -6.5834  -6.5699  -6.5612
    -6.5554  -6.5387  -6.5322  -6.5287  -6.5104  -6.5018  -6.4875  -6.4794
    -6.4642  -6.4615  -6.4478  -6.4352  -6.4286  -6.4205  -6.4057  -6.4013
    -6.3936  -6.3752  -6.3624  -6.3589  -6.3476  -6.3267  -6.3237  -6.2894
    -6.2787  -6.2648  -6.2581  -6.2441  -6.2387  -6.2178  -6.2143  -6.1928
    -6.1747  -6.1693  -6.1547  -6.1381  -6.1323  -6.1217  -6.1182  -6.1065
    -6.0993  -6.0892  -6.0677  -6.0606  -6.0492  -6.0290  -6.0266  -6.0204
    -6.0101  -5.9924  -5.9793  -5.9635  -5.9577  -5.9492  -5.9287  -5.9133
    -5.9064  -5.9023  -5.8983  -5.8833  -5.8684  -5.8648  -5.8581  -5.8343
    -5.8303  -5.8119  -5.8025  -5.7905  -5.7825  -5.7681  -5.7556  -5.7484
    -5.7278  -5.6998  -5.6788  -5.6619  -5.6474  -5.6369  -5.6285  -5.6191
    -5.5956  -5.5838  -5.5704  -5.5590  -5.5249  -5.5217  -5.5169  -5.5150
    -5.5062  -5.4962  -5.4561  -5.4486  -5.4320  -5.4101  -5.4081  -5.3985
    -5.3533  -5.3366  -5.3193  -5.2927  -5.2459  -5.2410  -5.2353  -5.2117
    -5.1861  -5.1523  -5.0487  -5.0344  -5.0209  -5.0145  -5.0089  -4.9968
    -4.9453  -4.9432  -4.9046  -4.8957  -4.8663  -4.8459  -4.7917  -4.7870
    -4.7686  -4.6901  -4.6615  -4.6405  -4.6378  -4.6277  -4.6221  -4.6098
    -4.5271  -4.4339  -4.3887  -4.3868  -4.3301  -4.2935  -4.2261  -4.2215
    -4.2142  -4.2030  -4.1911  -4.1577  -4.1374  -4.1179  -4.1021  -4.0932
    -4.0838  -4.0795  -4.0668  -4.0334  -4.0301  -4.0242  -4.0184  -4.0156
    -4.0089  -3.9999  -3.9948  -3.9864  -3.9824  -3.9790  -3.9713  -3.9684
    -3.9645  -3.9597  -3.9446  -3.9299  -3.9253  -3.9169  -3.9072  -3.9032
    -3.8941  -3.8939  -3.8597  -3.8509  -3.8320  -3.8142  -3.8131  -3.8005
    -3.7184  -3.6351  -3.5697  -3.5218  -3.5034  -3.4634  -3.3627  -3.2919
    -2.9089  -2.8114  -2.4149  -2.1835  -1.7622  -0.8232  -0.8027  -0.6642
    -0.6059  -0.5879  -0.4566  -0.4258  -0.3491  -0.2942  -0.2141  -0.1943
    -0.1410  -0.0355   0.0672   0.1365   0.2089   0.2817   0.3446   0.4415
     0.4948   0.5291   0.5543   0.5871   0.6375   0.6962   0.7324   0.7564
     0.7950   0.8371   0.8716   0.8825   0.9178   0.9562   0.9649   1.0253
     1.0316   1.0562   1.0828   1.1055   1.1572   1.1778   1.1863   1.2144
     1.2282   1.2522   1.2684   1.2983   1.3240   1.3358   1.3395   1.3721
     1.3975   1.4434   1.4570   1.4707   1.4906   1.5073   1.5533   1.5679
     1.5881   1.6051   1.6210   1.6270   1.6592   1.6767   1.6925   1.7173
     1.7285   1.7420   1.7755   1.7846   1.8100   1.8167   1.8386   1.8645
     1.8701   1.8835   1.9121   1.9188   1.9391   1.9563   1.9712   1.9891
     1.9974   2.0120   2.0231   2.0304   2.0381   2.0506   2.0688   2.0778
     2.0952   2.1033   2.1260   2.1399   2.1436   2.1544   2.1723   2.1828
     2.2046   2.2158   2.2340   2.2427   2.2613   2.2714   2.2883   2.3015
     2.3140   2.3312   2.3391   2.3593   2.3731   2.3802   2.3831   2.3968
     2.4006   2.4164   2.4321   2.4447   2.4592   2.4635   2.4705   2.4833
     2.4882   2.5091   2.5181   2.5225   2.5313   2.5425   2.5537   2.5643
     2.5756   2.5814   2.5827   2.5921   2.6030   2.6073   2.6190   2.6243
     2.6301   2.6423   2.6543   2.6608   2.6747   2.6853   2.6888   2.6980
     2.7093   2.7141   2.7308   2.7325   2.7416   2.7439   2.7610   2.7818
     2.7863   2.7900   2.7983   2.8064   2.8169   2.8285   2.8293   2.8383
     2.8489   2.8517   2.8788

     the Fermi energy is    -3.8685 ev

!    total energy              =  -11682.10443734 Ry
     estimated scf accuracy    <          8.8E-09 Ry
     smearing contrib. (-TS)   =      -0.11102256 Ry
     internal energy E=F+TS    =  -11681.99341478 Ry

     The total energy is F=E-TS. E is the sum of the following terms:
     one-electron contribution = -367200.47158163 Ry
     hartree contribution      =  184050.72638401 Ry
     xc contribution           =   -2470.89518871 Ry
     ewald contribution        =  176298.35201793 Ry
     one-center paw contrib.   =   -2359.70504638 Ry

     convergence has been achieved in 271 iterations

     negative rho (up, down):  5.889E-02 0.000E+00

     Forces acting on atoms (cartesian axes, Ry/au):

     atom    1 type  1   force =     0.01199688    0.01350752    0.05506398
     atom    2 type  1   force =     0.02829001    0.02473238   -0.00009689
     atom    3 type  1   force =     0.00759725    0.00107955   -0.00347671
     atom    4 type  1   force =    -0.01245626   -0.01523017   -0.01030748
     atom    5 type  1   force =     0.01480058   -0.02245293   -0.02701739
     atom    6 type  1   force =     0.00347558   -0.00151961    0.00482728
     atom    7 type  1   force =    -0.00850778    0.01189081    0.01215306
     atom    8 type  1   force =    -0.01215424   -0.03113807    0.00347648
     atom    9 type  1   force =    -0.00149406    0.00641233    0.01349168
     atom   10 type  1   force =     0.01822276   -0.00181169    0.01770505
     atom   11 type  1   force =    -0.01120069   -0.00522105   -0.01231108
     atom   12 type  2   force =     0.00696198    0.12283423   -0.04037213
     atom   13 type  2   force =     0.13680611    0.10054502   -0.00110350
     atom   14 type  2   force =     0.08062821    0.03193030   -0.06288628
     atom   15 type  2   force =     0.14703813   -0.03951608   -0.15272947
     atom   16 type  2   force =     0.02147740    0.03841685    0.04012157
     atom   17 type  2   force =     0.15427153    0.01512623    0.25448950
     atom   18 type  2   force =    -0.01248371   -0.04663686   -0.04945096
     atom   19 type  2   force =    -0.01070224    0.03864074   -0.10068347
     atom   20 type  2   force =    -0.02585900   -0.01329139   -0.04178082
     atom   21 type  2   force =    -0.05465531    0.13496435   -0.03938423
     atom   22 type  2   force =     0.03550732   -0.13284715    0.09229161
     atom   23 type  2   force =    -0.03933838   -0.06824534   -0.05870744
     atom   24 type  2   force =     0.03247597    0.02647364    0.01013266
     atom   25 type  2   force =     0.06552631    0.00682139    0.07212858
     atom   26 type  2   force =    -0.01637104   -0.00955372   -0.01102012
     atom   27 type  2   force =     0.04184033    0.11793531   -0.07342963
     atom   28 type  2   force =    -0.00193164   -0.05841055   -0.01135376
     atom   29 type  2   force =    -0.03140343   -0.05047681    0.08153552
     atom   30 type  2   force =     0.03232629   -0.03167425   -0.03952633
     atom   31 type  2   force =     0.03576528    0.02199663    0.00225223
     atom   32 type  2   force =    -0.00990651   -0.06580934    0.08801836
     atom   33 type  2   force =    -0.05573710    0.01800917   -0.05538430
     atom   34 type  2   force =     0.06103518   -0.02693008   -0.02230405
     atom   35 type  3   force =    -0.01331534   -0.07802086    0.00317011
     atom   36 type  3   force =    -0.16446821    0.08800252   -0.04859984
     atom   37 type  3   force =    -0.06763459    0.03587078   -0.01401257
     atom   38 type  3   force =    -0.05433188   -0.00011372   -0.00932503
     atom   39 type  3   force =     0.07404224    0.00716224    0.01037180
     atom   40 type  3   force =     0.08667649    0.02283500   -0.04332252
     atom   41 type  3   force =    -0.10902459   -0.09027914   -0.13255621
     atom   42 type  3   force =     0.01177464   -0.06038686    0.06468614
     atom   43 type  3   force =     0.01844490   -0.02227218   -0.04846719
     atom   44 type  3   force =     0.06108728    0.10576658    0.04124003
     atom   45 type  3   force =    -0.03242007   -0.00090646   -0.03152968
     atom   46 type  3   force =    -0.03635612    0.12451785    0.05980565
     atom   47 type  3   force =    -0.05594611    0.00756482   -0.14730500
     atom   48 type  3   force =    -0.02875688   -0.12205973   -0.13757932
     atom   49 type  3   force =     0.06188689    0.18235036    0.05228434
     atom   50 type  3   force =     0.04380698   -0.02199389   -0.09764057
     atom   51 type  3   force =    -0.01913860    0.04787973    0.07064681
     atom   52 type  3   force =    -0.12113926   -0.10572441    0.11942663
     atom   53 type  3   force =    -0.12317207   -0.10993456   -0.05462883
     atom   54 type  3   force =    -0.03652732   -0.02308091    0.10028669
     atom   55 type  3   force =    -0.14978143    0.03085051    0.03099033
     atom   56 type  3   force =    -0.02263204    0.01122324    0.12157205
     atom   57 type  3   force =     0.00705999   -0.09506563   -0.04893528
     atom   58 type  3   force =     0.06104886   -0.00845477    0.04777165
     atom   59 type  3   force =    -0.03557541   -0.01076404    0.03899651
     atom   60 type  3   force =     0.07904001   -0.07455200   -0.00354891
     atom   61 type  3   force =     0.01543849    0.19122547    0.03558500
     atom   62 type  3   force =    -0.01925772   -0.01656556   -0.00613755
     atom   63 type  3   force =     0.01625112    0.01188758   -0.00635174
     atom   64 type  3   force =     0.00300265    0.05905415    0.08280144
     atom   65 type  3   force =    -0.00781474    0.02313357    0.02014853
     atom   66 type  3   force =    -0.01591068    0.00338566   -0.01871781
     atom   67 type  3   force =     0.03171807    0.00066184    0.10179989
     atom   68 type  3   force =    -0.06481913   -0.03465727    0.07982035
     atom   69 type  3   force =     0.04496025    0.03724614    0.03187337
     atom   70 type  3   force =    -0.05035556   -0.06711448   -0.05576977
     atom   71 type  3   force =     0.04846106   -0.03742002    0.05251949
     atom   72 type  3   force =     0.01423805    0.11139484    0.19924176
     atom   73 type  3   force =    -0.07868724    0.05105001   -0.07639499
     atom   74 type  3   force =     0.00535696   -0.06455390   -0.04794870
     atom   75 type  3   force =    -0.06311300    0.00863344   -0.00229153
     atom   76 type  3   force =     0.04453627   -0.10614837   -0.06057567
     atom   77 type  3   force =    -0.03079738    0.07741905    0.03349253
     atom   78 type  3   force =    -0.09862735   -0.02063240   -0.06888101
     atom   79 type  3   force =    -0.00397995   -0.04278829    0.03498449
     atom   80 type  3   force =    -0.03152370    0.03987872   -0.00623139
     atom   81 type  3   force =     0.03053532    0.01863744   -0.03976432
     atom   82 type  3   force =    -0.04202325    0.01745713   -0.05412205
     atom   83 type  3   force =    -0.05122482    0.09450165    0.02439376
     atom   84 type  3   force =    -0.02490126    0.04023062   -0.04040970
     atom   85 type  3   force =    -0.01126357   -0.09864583    0.07704559
     atom   86 type  3   force =    -0.02856327   -0.07921623   -0.10455028
     atom   87 type  3   force =     0.02219256   -0.00710368   -0.06811277
     atom   88 type  3   force =    -0.00062697    0.05375002   -0.11882025
     atom   89 type  3   force =    -0.04878095   -0.02047927    0.06484774
     atom   90 type  3   force =     0.05369527   -0.04774057   -0.04652308
     atom   91 type  3   force =     0.06645927    0.04065639   -0.01539087
     atom   92 type  3   force =    -0.00908804   -0.00583218   -0.02088538
     atom   93 type  3   force =    -0.08709363   -0.10490504   -0.00534730
     atom   94 type  3   force =     0.07176743    0.08987848    0.05023379
     atom   95 type  3   force =    -0.01085710   -0.01076011   -0.06888661
     atom   96 type  3   force =    -0.09370331   -0.01180651    0.15326014
     atom   97 type  3   force =    -0.02819030   -0.04657568   -0.00175027
     atom   98 type  3   force =     0.10436021    0.01082024    0.09550391
     atom   99 type  3   force =    -0.05541118   -0.00677649    0.03651547
     atom  100 type  3   force =     0.02258062   -0.07806562    0.07965614
     atom  101 type  3   force =    -0.06015030    0.02732269   -0.01091295
     atom  102 type  3   force =     0.03018936    0.01706666    0.03127417
     atom  103 type  3   force =     0.04697160    0.03112457    0.09745413
     atom  104 type  3   force =    -0.08244279   -0.07743138   -0.00516432
     atom  105 type  3   force =     0.02909648    0.05417214   -0.00657608
     atom  106 type  3   force =     0.03831938    0.11431979   -0.01542299
     atom  107 type  3   force =    -0.02839191   -0.00300387    0.02823743
     atom  108 type  3   force =     0.04672524   -0.01045751    0.04567459
     atom  109 type  3   force =     0.10903922    0.02063971   -0.03997053
     atom  110 type  3   force =     0.13934699    0.00801702   -0.06093011
     atom  111 type  3   force =    -0.02036380   -0.01789663    0.01780511
     atom  112 type  3   force =    -0.06696532    0.09518270   -0.01067641
     atom  113 type  3   force =     0.02128691   -0.01983025   -0.05615715
     atom  114 type  3   force =    -0.03898237    0.02175378    0.08108138
     atom  115 type  3   force =     0.01333377   -0.02840767    0.07660526
     atom  116 type  3   force =     0.08474070    0.00791234   -0.04834971
     atom  117 type  3   force =    -0.06883690    0.00328115    0.03778845
     atom  118 type  3   force =    -0.11804267    0.11155644    0.02569023
     atom  119 type  3   force =     0.07045903   -0.00672587    0.03245425
     atom  120 type  3   force =     0.00918732    0.02808792    0.10531735
     atom  121 type  3   force =     0.12996151    0.07611087    0.01656946
     atom  122 type  4   force =     0.03928942    0.01291924    0.02858002
     atom  123 type  4   force =    -0.06150453   -0.04009750   -0.00947455
     atom  124 type  4   force =     0.00360360    0.02432432   -0.04631966
     atom  125 type  4   force =     0.01812958   -0.00579641   -0.00430801
     atom  126 type  4   force =    -0.13137782   -0.14924304   -0.01141217
     atom  127 type  4   force =    -0.09950888   -0.12885894   -0.07374478
     atom  128 type  4   force =     0.01054734   -0.04946007    0.05951597
     atom  129 type  4   force =     0.00878335   -0.06140711   -0.01159123
     atom  130 type  4   force =     0.00890570   -0.02173039    0.00936162
     atom  131 type  4   force =     0.00673189   -0.01826292   -0.01305575
     atom  132 type  4   force =     0.04931706   -0.03836746   -0.01677664
     atom  133 type  4   force =    -0.03659148   -0.05918414    0.03629714
     atom  134 type  4   force =    -0.09349544    0.00757416   -0.04010595
     atom  135 type  4   force =     0.02241029   -0.02688700    0.12452052
     atom  136 type  4   force =     0.01795124   -0.01015487   -0.01840061
     atom  137 type  4   force =     0.05383567    0.04126786   -0.03420934
     atom  138 type  4   force =     0.01575139    0.00198995   -0.01532858
     atom  139 type  4   force =    -0.00674408    0.02803766   -0.02079443
     atom  140 type  4   force =     0.02154484   -0.06866838    0.02200494
     atom  141 type  4   force =     0.05845430   -0.01196204    0.00210945
     atom  142 type  4   force =    -0.10497530   -0.05309637    0.04674519
     atom  143 type  4   force =    -0.15054028   -0.03716987   -0.09755841
     atom  144 type  4   force =    -0.00562817   -0.01755211    0.02992447
     atom  145 type  4   force =    -0.04010744    0.03666992    0.01598929
     atom  146 type  4   force =    -0.02192041    0.01688211   -0.02250786
     atom  147 type  4   force =    -0.13171834   -0.04974787    0.03207300
     atom  148 type  4   force =     0.01369040   -0.02071308   -0.01297279
     atom  149 type  4   force =     0.06869552    0.03542970    0.01729002
     atom  150 type  4   force =    -0.06353880   -0.05298495   -0.02004305
     atom  151 type  4   force =     0.05092428    0.03695145    0.02446322
     atom  152 type  4   force =    -0.05808018    0.02464712    0.01510518
     atom  153 type  4   force =     0.07627840    0.01869526    0.07641190
     atom  154 type  4   force =    -0.09645892    0.00590913    0.00665297
     atom  155 type  4   force =    -0.01242737   -0.01457892   -0.00928400
     atom  156 type  4   force =    -0.05024439    0.04124165   -0.02249184
     atom  157 type  4   force =     0.04245076   -0.01054865   -0.00374335
     atom  158 type  4   force =     0.01334634    0.01209221   -0.02431351
     atom  159 type  4   force =     0.06700876    0.00748042   -0.05884124
     atom  160 type  4   force =     0.03929514   -0.08922457    0.01382004
     atom  161 type  4   force =     0.00300892   -0.02877269    0.07140304
     atom  162 type  4   force =     0.05271678    0.09513229    0.01489566
     atom  163 type  4   force =    -0.01543607    0.05816320   -0.01561612
     atom  164 type  4   force =     0.02450837    0.02902547    0.06695946
     atom  165 type  4   force =    -0.07481739    0.00934220    0.04935304
     atom  166 type  4   force =    -0.00155466   -0.10196913    0.00500904
     atom  167 type  4   force =    -0.03919426   -0.04010361   -0.01524633
     atom  168 type  4   force =     0.01687711   -0.18428584    0.05836337
     atom  169 type  4   force =     0.05231414    0.04495442   -0.09520439
     atom  170 type  4   force =     0.02789601   -0.04776822   -0.03584449
     atom  171 type  4   force =     0.01258302   -0.01692206    0.00344356
     atom  172 type  4   force =    -0.07006277    0.01225769   -0.04399796
     atom  173 type  4   force =    -0.03890665    0.00708306   -0.02553677
     atom  174 type  4   force =     0.05690255    0.08618191    0.01853196
     atom  175 type  4   force =     0.01310917    0.04179675    0.00303511
     atom  176 type  4   force =     0.03804717   -0.00537534    0.02577405
     atom  177 type  4   force =     0.06440976   -0.00478497   -0.00868673
     atom  178 type  4   force =    -0.00355224    0.03682180    0.04530236
     atom  179 type  4   force =    -0.01187869    0.02841619    0.00296642
     atom  180 type  4   force =    -0.05734305    0.00564019   -0.00722227
     atom  181 type  4   force =    -0.00000130   -0.00052970    0.09591934
     atom  182 type  4   force =    -0.02453000   -0.06135640    0.05014154
     atom  183 type  4   force =    -0.03304209    0.10657110   -0.05855322
     atom  184 type  4   force =     0.01826678   -0.01127227    0.05175582
     atom  185 type  4   force =     0.04935476   -0.03494094   -0.01726586
     atom  186 type  4   force =    -0.01141239   -0.01735249    0.00163793
     atom  187 type  4   force =    -0.02755869   -0.01186146    0.05024058
     atom  188 type  4   force =    -0.02038508   -0.01787369   -0.04716018
     atom  189 type  4   force =    -0.01989724    0.03545624   -0.00029329
     atom  190 type  4   force =     0.05860679   -0.03610883    0.00663443
     atom  191 type  4   force =    -0.01850736   -0.00335597   -0.00672734
     atom  192 type  4   force =    -0.03514602    0.02414488   -0.03100150
     atom  193 type  4   force =     0.03626253   -0.06461562    0.02160533
     atom  194 type  4   force =    -0.04963170    0.00127203   -0.00629048
     atom  195 type  4   force =    -0.01021617   -0.00656421    0.01843795
     atom  196 type  4   force =     0.00243083   -0.02551965   -0.06111551
     atom  197 type  4   force =     0.00927914    0.01571269   -0.00014765
     atom  198 type  4   force =    -0.03842967    0.04138342   -0.01355468
     atom  199 type  4   force =     0.00814035   -0.02588331    0.00624960
     atom  200 type  4   force =    -0.00959025   -0.03603782    0.05783230
     atom  201 type  4   force =    -0.01078774   -0.04759893   -0.02854761
     atom  202 type  4   force =     0.01620340    0.01501570    0.04152659
     atom  203 type  4   force =    -0.05688812   -0.05915405   -0.10309816
     atom  204 type  4   force =    -0.00238474    0.01815827    0.06243712
     atom  205 type  4   force =     0.01019279    0.07388715   -0.01371579
     atom  206 type  4   force =    -0.04069686   -0.03139784   -0.04467984
     atom  207 type  4   force =    -0.00466327   -0.03032932    0.03531111
     atom  208 type  4   force =    -0.00081990    0.01180828   -0.01005889
     atom  209 type  4   force =    -0.04446930    0.03169415   -0.05088956
     atom  210 type  4   force =    -0.01136820    0.01308169   -0.05118808
     atom  211 type  4   force =    -0.00047951   -0.03480188   -0.05646431
     atom  212 type  4   force =     0.04241519   -0.03952188   -0.03326527
     atom  213 type  4   force =     0.04284459   -0.14884115   -0.08361920
     atom  214 type  4   force =     0.05165368    0.06498223   -0.05761652
     atom  215 type  4   force =    -0.02678780   -0.02904965    0.00518682
     atom  216 type  4   force =    -0.02211553    0.07576000    0.04091166
     atom  217 type  4   force =    -0.02413593    0.03766266   -0.04189426
     atom  218 type  4   force =     0.01496991    0.02512497   -0.00789947
     atom  219 type  4   force =    -0.04401528   -0.04014519   -0.00919989
     atom  220 type  4   force =     0.01251955   -0.04161006    0.02308425
     atom  221 type  4   force =    -0.00426905    0.03038294    0.06498264
     atom  222 type  4   force =     0.10391176   -0.01656332    0.00584948
     atom  223 type  4   force =     0.02184285    0.08579441   -0.05094795
     atom  224 type  4   force =     0.03971289    0.02492802   -0.01339322
     atom  225 type  4   force =     0.06108107    0.04951380   -0.00339077
     atom  226 type  4   force =     0.02005132   -0.02508637    0.02079271
     atom  227 type  4   force =    -0.02257528    0.05200582    0.04175669
     atom  228 type  4   force =     0.00322538   -0.01709302   -0.02723019
     atom  229 type  4   force =     0.01371079    0.00002574    0.05414471
     atom  230 type  4   force =     0.05285868    0.04915695   -0.00145671
     atom  231 type  4   force =     0.04239105   -0.02102645    0.07130789
     atom  232 type  4   force =     0.04274618   -0.06426156   -0.00879823
     atom  233 type  4   force =     0.03888197    0.05820076    0.02902293
     atom  234 type  4   force =    -0.03304712   -0.05984068   -0.11439693
     atom  235 type  4   force =    -0.01907485    0.15898271   -0.01451992
     atom  236 type  4   force =     0.08808719   -0.01639348   -0.04575555
     atom  237 type  4   force =     0.00620005    0.00678518    0.01213993
     atom  238 type  4   force =    -0.01093748   -0.01289548    0.04261832
     atom  239 type  4   force =     0.01908090   -0.03603648    0.00736276
     atom  240 type  4   force =     0.07765303    0.03085717    0.02820672
     atom  241 type  4   force =     0.03141119   -0.01975169   -0.00500279
     atom  242 type  4   force =    -0.20435303   -0.02978956    0.07890792
     atom  243 type  4   force =     0.02974223    0.00104663    0.02041957
     atom  244 type  4   force =    -0.05117789   -0.00159088   -0.04532068
     atom  245 type  4   force =    -0.01912426   -0.02914525   -0.09481453
     atom  246 type  4   force =     0.02449584   -0.00895934   -0.03126832
     atom  247 type  4   force =    -0.00635520   -0.01715907   -0.06720641
     atom  248 type  4   force =    -0.01646012    0.03018460    0.05872939
     atom  249 type  4   force =     0.03808823    0.02614293   -0.06222419
     atom  250 type  4   force =    -0.08194865   -0.01671993    0.00421182
     atom  251 type  4   force =    -0.00777497   -0.00391729   -0.01948859
     atom  252 type  4   force =    -0.07081800    0.01898603   -0.05202594
     atom  253 type  4   force =     0.00125907   -0.04522629   -0.11037997
     atom  254 type  4   force =    -0.09103370    0.01338485   -0.01477828
     atom  255 type  4   force =     0.01623169   -0.01882233    0.02038340
     atom  256 type  4   force =     0.03194837   -0.00800313    0.03524982
     atom  257 type  4   force =     0.02693068   -0.02500819    0.03378825
     atom  258 type  4   force =     0.00067387    0.01270220   -0.02909666
     atom  259 type  4   force =     0.04802518    0.01503112   -0.00891277
     atom  260 type  4   force =    -0.04570256   -0.01159552   -0.06094137
     atom  261 type  4   force =     0.04154947    0.02785087   -0.03932422
     atom  262 type  4   force =    -0.05476105   -0.01075894    0.04593379
     atom  263 type  4   force =     0.09631545   -0.02622370    0.01764480
     atom  264 type  4   force =    -0.04573410    0.04262997   -0.02251139
     atom  265 type  4   force =     0.02501581    0.01568095   -0.03987609
     atom  266 type  4   force =     0.02701110    0.02036691   -0.04800173
     atom  267 type  4   force =     0.07736788   -0.00410807   -0.04248386
     atom  268 type  4   force =     0.02719055   -0.04396451   -0.03136784
     atom  269 type  4   force =    -0.01663290   -0.06671933    0.00511033
     atom  270 type  4   force =    -0.07175317   -0.01327134   -0.02964402
     atom  271 type  4   force =     0.06961029    0.01180950    0.00867345
     atom  272 type  4   force =     0.02760892    0.05490506   -0.01276811
     atom  273 type  4   force =     0.00244092   -0.00628447    0.04765981
     atom  274 type  4   force =    -0.02440397    0.00275986    0.02711089
     atom  275 type  4   force =    -0.01179221   -0.02053912    0.01816283
     atom  276 type  4   force =     0.04365464    0.07911821    0.06965371
     atom  277 type  4   force =     0.02660950   -0.01173237   -0.07657781
     atom  278 type  4   force =    -0.02163868    0.06298869    0.04431316
     atom  279 type  4   force =    -0.01201301   -0.02155955    0.00405762
     atom  280 type  4   force =    -0.02689449    0.05668060    0.00937512
     atom  281 type  4   force =     0.04153548    0.03160908    0.04327260
     atom  282 type  4   force =     0.03679050   -0.05141316    0.01537102
     atom  283 type  4   force =     0.00388457   -0.06518767   -0.03214563
     atom  284 type  4   force =     0.07176794   -0.05364761   -0.03052892
     atom  285 type  4   force =     0.01850510   -0.01659382    0.01459127
     atom  286 type  4   force =    -0.11830644   -0.02981743   -0.06917598
     atom  287 type  4   force =    -0.01599227   -0.00143245    0.04440651
     atom  288 type  4   force =     0.06702174   -0.00412008   -0.05575753
     atom  289 type  4   force =     0.02102416    0.09115159   -0.02695104
     atom  290 type  4   force =     0.10200709   -0.05838713   -0.11032373
     atom  291 type  4   force =    -0.03028719    0.01406424   -0.01559768
     atom  292 type  4   force =    -0.01967439   -0.01141335    0.01443795
     atom  293 type  4   force =    -0.00648840   -0.02628521   -0.04963322
     atom  294 type  4   force =     0.08007076   -0.02996238    0.16773615
     atom  295 type  4   force =    -0.05387552    0.06400983    0.06796214
     atom  296 type  4   force =    -0.05990365    0.01921147    0.03731220
     atom  297 type  4   force =    -0.01794153    0.01394065   -0.02441415
     atom  298 type  4   force =     0.01299026    0.01345629    0.01806002
     atom  299 type  4   force =    -0.06668020   -0.14464708   -0.02720392
     atom  300 type  4   force =    -0.01170355   -0.05289335   -0.03413451
     atom  301 type  4   force =    -0.07375441    0.03965730    0.02584718
     atom  302 type  4   force =     0.00579419    0.12645932    0.11048381
     atom  303 type  4   force =    -0.01421536   -0.02296567   -0.03987524
     atom  304 type  4   force =    -0.03900180   -0.00164549    0.01126468
     atom  305 type  4   force =    -0.03630112   -0.01653125    0.00696522
     atom  306 type  4   force =     0.00812342    0.01577272   -0.05869893
     atom  307 type  4   force =     0.02342250    0.02015849    0.04235262
     atom  308 type  4   force =     0.00975523    0.00088567   -0.05118981
     atom  309 type  4   force =     0.00197123   -0.02056687    0.01389222
     atom  310 type  4   force =     0.09237814   -0.00427355    0.11083011
     atom  311 type  4   force =    -0.03282624   -0.01347611    0.01136104
     atom  312 type  4   force =    -0.02337891    0.02160338    0.01457785
     atom  313 type  4   force =     0.01447613   -0.08754146    0.01934890
     atom  314 type  4   force =    -0.04556907    0.01302925   -0.02397203
     atom  315 type  4   force =    -0.01720858   -0.00381383   -0.02792325
     atom  316 type  4   force =    -0.00560144   -0.00391308    0.01815244
     atom  317 type  4   force =    -0.00155921    0.06904699    0.04018367
     atom  318 type  4   force =     0.04039818    0.00254306   -0.01762800
     atom  319 type  4   force =    -0.02971029   -0.01473336   -0.06109102
     atom  320 type  4   force =     0.04269097   -0.01855929   -0.02679708
     atom  321 type  4   force =    -0.02612491    0.12890259    0.03820012
     atom  322 type  4   force =     0.02391153    0.01095997   -0.06530760
     atom  323 type  4   force =     0.03519660   -0.03550529    0.04973714
     atom  324 type  4   force =     0.05182487    0.00480247   -0.02339844
     atom  325 type  4   force =     0.03439601   -0.02324720   -0.02835382
     atom  326 type  4   force =    -0.00824029    0.11665823    0.05597956
     atom  327 type  4   force =     0.04740701    0.04959744   -0.03982082
     atom  328 type  4   force =     0.02044240    0.00101268   -0.01990024
     atom  329 type  4   force =     0.10557938    0.01068998    0.01855062
     atom  330 type  4   force =     0.02362910   -0.03637947   -0.05433396
     atom  331 type  4   force =     0.03238805    0.04217025   -0.00806522
     atom  332 type  4   force =     0.02199960    0.05079364   -0.01242234
     atom  333 type  4   force =    -0.05390375   -0.05586072    0.02738215
     atom  334 type  4   force =     0.02370540    0.04555665   -0.02802393
     atom  335 type  4   force =     0.06795094    0.02173294   -0.02188345
     atom  336 type  4   force =    -0.03963686   -0.03104291   -0.04419428
     atom  337 type  4   force =    -0.00514244   -0.00460757   -0.02304448
     atom  338 type  4   force =    -0.05723925    0.04313270   -0.01902397
     atom  339 type  5   force =    -0.02048119    0.02371985    0.03467644
     atom  340 type  5   force =     0.00634354   -0.02890097    0.02856805
     atom  341 type  6   force =     0.02476253    0.00383818    0.00437345
     atom  342 type  6   force =    -0.02475167   -0.00363333   -0.00414313
     atom  343 type  6   force =     0.00270706   -0.04235754    0.00345033
     atom  344 type  6   force =     0.00784247   -0.04176600    0.00454503
     atom  345 type  6   force =    -0.00736732    0.04178535   -0.00406457
     atom  346 type  6   force =    -0.00349796    0.04229174   -0.00357970
     atom  347 type  6   force =     0.02932101    0.02276610    0.00387387
     atom  348 type  6   force =    -0.03408091    0.01388037   -0.00733476
     atom  349 type  6   force =     0.03400059   -0.01361957    0.00718908
     atom  350 type  6   force =    -0.02920707   -0.02310525   -0.00392004
     atom  351 type  7   force =     0.00303045    0.00582415   -0.00001289
     atom  352 type  7   force =    -0.00419297    0.00475116   -0.00127588
     atom  353 type  7   force =     0.00413777   -0.00456487    0.00105260
     atom  354 type  7   force =    -0.00273882   -0.00575250   -0.00022443
     atom  355 type  7   force =     0.00379496   -0.00343534    0.00087703
     atom  356 type  7   force =    -0.00273244   -0.00425445   -0.00029112
     atom  357 type  7   force =     0.00294781    0.00417153    0.00036638
     atom  358 type  7   force =    -0.00375142    0.00324317   -0.00098247

     Total force =     1.686545     Total SCF correction =     0.000171


     Computing stress (Cartesian axis) and pressure


     negative rho (up, down):  5.889E-02 0.000E+00
          total   stress  (Ry/bohr**3)                   (kbar)     P=        7.98
   0.00005256   0.00000157  -0.00000260            7.73        0.23       -0.38
   0.00000157   0.00006097   0.00000341            0.23        8.97        0.50
  -0.00000260   0.00000341   0.00004926           -0.38        0.50        7.25


     Writing all to output data dir ./outputs/pwscf.save/ :
     XML data file, charge density, pseudopotentials, collected wavefunctions
 
     init_run     :    145.75s CPU    148.88s WALL (       1 calls)
     electrons    :  77467.57s CPU  78788.11s WALL (       1 calls)
     forces       :     93.91s CPU     96.78s WALL (       1 calls)
     stress       :    351.28s CPU    356.29s WALL (       1 calls)

     Called by init_run:
     wfcinit      :    129.73s CPU    131.57s WALL (       1 calls)
     potinit      :      1.19s CPU      1.29s WALL (       1 calls)
     hinit0       :      1.46s CPU      1.51s WALL (       1 calls)

     Called by electrons:
     c_bands      :  64884.51s CPU  65638.05s WALL (     271 calls)
     sum_band     :  11306.86s CPU  11622.25s WALL (     271 calls)
     v_of_rho     :    121.84s CPU    128.26s WALL (     272 calls)
     newd         :    916.41s CPU   1155.77s WALL (     272 calls)
     PAW_pot      :    154.12s CPU    155.12s WALL (     272 calls)
     mix_rho      :     67.86s CPU     70.99s WALL (     271 calls)

     Called by c_bands:
     init_us_2    :    593.15s CPU    601.44s WALL (     544 calls)
     cegterg      :  64015.51s CPU  64753.60s WALL (     271 calls)

     Called by *egterg:
     cdiaghg      :    903.13s CPU    911.01s WALL (     585 calls)
     h_psi        :  35333.92s CPU  35679.63s WALL (     586 calls)
     s_psi        :  10474.52s CPU  10564.24s WALL (     586 calls)
     g_psi        :     41.39s CPU     41.93s WALL (     314 calls)

     Called by h_psi:
     h_psi:calbec :  10528.79s CPU  10594.65s WALL (     586 calls)
     vloc_psi     :  14280.60s CPU  14418.78s WALL (     586 calls)
                                        0.00s GPU  (     586 calls)
     add_vuspsi   :  10457.73s CPU  10535.82s WALL (     586 calls)

     General routines
     calbec       :  16068.01s CPU  16168.45s WALL (     874 calls)
     fft          :    114.51s CPU    122.75s WALL (    3559 calls)
     ffts         :     11.56s CPU     12.37s WALL (     543 calls)
     fftw         :  13975.41s CPU  14099.51s WALL ( 1529417 calls)
     interpolate  :     14.99s CPU     15.97s WALL (     272 calls)
 
     Parallel routines
 
     PWSCF        :     21h41m CPU     22h 4m WALL

 
   This run was terminated on:   7:21:47   6Mar2026            

=------------------------------------------------------------------------------=
   JOB DONE.
=------------------------------------------------------------------------------=
