
     Program PWSCF v.7.5 starts on  3Mar2026 at 13:24:19 

     This program is part of the open-source Quantum ESPRESSO suite
     for quantum simulation of materials; please cite
         "P. Giannozzi et al., J. Phys.:Condens. Matter 21 395502 (2009);
         "P. Giannozzi et al., J. Phys.:Condens. Matter 29 465901 (2017);
         "P. Giannozzi et al., J. Chem. Phys. 152 154105 (2020);
          URL http://www.quantum-espresso.org", 
     in publications or presentations arising from this work. More details at
     http://www.quantum-espresso.org/quote

     Parallel version (MPI), running on    80 processors

     MPI processes distributed on     4 nodes
     101891 MiB available memory on the printing compute node when the environment starts
 
     Reading input from NaphthaleneOnGlassSite2Snapshot5.in
Warning: card &CELL ignored
Warning: card &FCP ignored
Warning: card &RISM ignored

     Current dimensions of program PWSCF are:
     Max number of different atomic species (ntypx) = 10
     Max number of k-points (npk) =  40000
     Max angular momentum in pseudopotentials (lmaxx) =  4
     file Na.paw.z_9.ld1.psl.v1.0.0-low.upf: wavefunction(s)  2P renormalized
     file O.pbe-n-kjpaw_psl.0.1.UPF: wavefunction(s)  2P renormalized
     file Al.pbe-n-kjpaw_psl.1.0.0.UPF: wavefunction(s)  3S 3P renormalized
     file C.pbe-n-kjpaw_psl.1.0.0.UPF: wavefunction(s)  2S 2P renormalized
 
     R & G space division:  proc/nbgrp/npool/nimage =      80
     Subspace diagonalization in iterative solution of the eigenvalue problem:
     one sub-group per band group will be used
     custom distributed-memory algorithm (size of sub-group:  8*  8 procs)

 
     Parallelization info
     --------------------
     sticks:   dense  smooth     PW     G-vecs:    dense   smooth      PW
     Min         450     400    100               199276   167008   20874
     Max         451     401    101               199303   167021   20885
     Sum       36073   32057   8021             15943719 13361281 1670237
 
     Using Slab Decomposition
 


     bravais-lattice index     =            0
     lattice parameter (alat)  =      35.4885  a.u.
     unit-cell volume          =  138228.4306 (a.u.)^3
     number of atoms/cell      =          358
     number of atomic types    =            7
     number of electrons       =      1872.00
     number of Kohn-Sham states=         1123
     kinetic-energy cutoff     =      80.0000  Ry
     charge density cutoff     =     360.0000  Ry
     scf convergence threshold =      1.0E-08
     mixing beta               =       0.1000
     number of iterations used =            8  plain     mixing
     Exchange-correlation= PBE
                           (   1   4   3   4   0   0   0)

     celldm(1)=  35.488539  celldm(2)=   0.000000  celldm(3)=   0.000000
     celldm(4)=   0.000000  celldm(5)=   0.000000  celldm(6)=   0.000000

     crystal axes: (cart. coord. in units of alat)
               a(1) = (   1.000000   0.000000   0.000000 )  
               a(2) = (   0.000000   1.000000   0.000000 )  
               a(3) = (   0.000000   0.000000   3.092666 )  

     reciprocal axes: (cart. coord. in units 2 pi/alat)
               b(1) = (  1.000000  0.000000  0.000000 )  
               b(2) = (  0.000000  1.000000  0.000000 )  
               b(3) = (  0.000000  0.000000  0.323346 )  


     PseudoPot. # 1 for Na read from file:
     /home/sabeel/VOCC_Simulation/pseudopotentials/SSSP_Precision/Na.paw.z_9.ld1.psl.v1.0.0-low.upf
     MD5 check sum: 32bccecb13d7399e6c7dae6fe6685ff0
     Pseudo is Projector augmented-wave + core cor, Zval =  9.0
     Generated using &quot;atomic&quot; code by A. Dal Corso  v.6.3MaX
     Shape of augmentation charge: PSQ
     Using radial grid of 1121 points,  4 beta functions with: 
                l(1) =   0
                l(2) =   0
                l(3) =   1
                l(4) =   1
     Q(r) pseudized with 0 coefficients 


     PseudoPot. # 2 for B  read from file:
     /home/sabeel/VOCC_Simulation/pseudopotentials/SSSP_Precision/B_pbe_v1.01.uspp.F.UPF
     MD5 check sum: d081ebb89d0c768e112975f650467a00
     Pseudo is Ultrasoft + core correction, Zval =  3.0
     Generated by new atomic code, or converted to UPF format
     Using radial grid of  781 points,  4 beta functions with: 
                l(1) =   0
                l(2) =   0
                l(3) =   1
                l(4) =   1
     Q(r) pseudized with  8 coefficients,  rinner =    1.100   1.100   1.100


     PseudoPot. # 3 for Si read from file:
     /home/sabeel/VOCC_Simulation/pseudopotentials/SSSP_Precision/Si.pbe-n-rrkjus_psl.1.0.0.UPF
     MD5 check sum: 0b0bb1205258b0d07b9f9672cf965d36
     Pseudo is Ultrasoft + core correction, Zval =  4.0
     Generated using "atomic" code by A. Dal Corso  v.5.1
     Using radial grid of 1141 points,  6 beta functions with: 
                l(1) =   0
                l(2) =   0
                l(3) =   1
                l(4) =   1
                l(5) =   2
                l(6) =   2
     Q(r) pseudized with 0 coefficients 


     PseudoPot. # 4 for O  read from file:
     /home/sabeel/VOCC_Simulation/pseudopotentials/SSSP_Precision/O.pbe-n-kjpaw_psl.0.1.UPF
     MD5 check sum: 0234752ac141de4415c5fc33072bef88
     Pseudo is Projector augmented-wave + core cor, Zval =  6.0
     Generated using "atomic" code by A. Dal Corso  v.5.0.99 svn rev. 10869
     Shape of augmentation charge: BESSEL
     Using radial grid of 1095 points,  4 beta functions with: 
                l(1) =   0
                l(2) =   0
                l(3) =   1
                l(4) =   1
     Q(r) pseudized with 0 coefficients 


     PseudoPot. # 5 for Al read from file:
     /home/sabeel/VOCC_Simulation/pseudopotentials/SSSP_Precision/Al.pbe-n-kjpaw_psl.1.0.0.UPF
     MD5 check sum: cfc449ca30b5f3223ec38ddd88ac046d
     Pseudo is Projector augmented-wave + core cor, Zval =  3.0
     Generated using "atomic" code by A. Dal Corso  v.5.1
     Shape of augmentation charge: PSQ
     Using radial grid of 1135 points,  6 beta functions with: 
                l(1) =   0
                l(2) =   0
                l(3) =   1
                l(4) =   1
                l(5) =   2
                l(6) =   2
     Q(r) pseudized with 0 coefficients 


     PseudoPot. # 6 for C  read from file:
     /home/sabeel/VOCC_Simulation/pseudopotentials/SSSP_Precision/C.pbe-n-kjpaw_psl.1.0.0.UPF
     MD5 check sum: 5d2aebdfa2cae82b50a7e79e9516da0f
     Pseudo is Projector augmented-wave + core cor, Zval =  4.0
     Generated using "atomic" code by A. Dal Corso  v.5.1
     Shape of augmentation charge: PSQ
     Using radial grid of 1073 points,  4 beta functions with: 
                l(1) =   0
                l(2) =   0
                l(3) =   1
                l(4) =   1
     Q(r) pseudized with 0 coefficients 


     PseudoPot. # 7 for H  read from file:
     /home/sabeel/VOCC_Simulation/pseudopotentials/SSSP_Precision/H_ONCV_PBE-1.0.oncvpsp.upf
     MD5 check sum: 1790becc920ee074925cf490c71280fe
     Pseudo is Norm-conserving, Zval =  1.0
     Generated using ONCVPSP code by D. R. Hamann
     Using radial grid of 1166 points,  2 beta functions with: 
                l(1) =   0
                l(2) =   0

     atomic species   valence    mass     pseudopotential
     Na                9.00    22.98977     Na( 1.00)
     B                 3.00    10.81000     B ( 1.00)
     Si                4.00    28.08500     Si( 1.00)
     O                 6.00    15.99900     O ( 1.00)
     Al                3.00    26.98154     Al( 1.00)
     C                 4.00    12.01100     C ( 1.00)
     H                 1.00     1.00800     H ( 1.00)

     No symmetry found



   Cartesian axes

     site n.     atom                  positions (alat units)
         1        Na     tau(   1) = (   0.2476327   0.1287261   1.4401902  )
         2        Na     tau(   2) = (   0.2347070   0.3964799   1.8357059  )
         3        Na     tau(   3) = (   0.2580766   0.4457236   1.6551511  )
         4        Na     tau(   4) = (   0.0484944   0.0277893   1.6277847  )
         5        Na     tau(   5) = (   0.2352313   0.0813062   1.2863150  )
         6        Na     tau(   6) = (   0.0747243   0.2371463   1.1982473  )
         7        Na     tau(   7) = (   0.1133306   0.7698962   1.8611434  )
         8        Na     tau(   8) = (   0.9037110   0.1954209   1.2700780  )
         9        Na     tau(   9) = (   0.5181841   0.1014052   1.4940734  )
        10        Na     tau(  10) = (   0.3803624   0.0140251   1.8302637  )
        11        Na     tau(  11) = (   0.3545179   0.4989222   1.3772145  )
        12        B      tau(  12) = (   0.9565860   0.6559989   1.4661680  )
        13        B      tau(  13) = (   0.3779039   0.3190213   1.8506233  )
        14        B      tau(  14) = (   0.6357433   0.7757670   1.3375748  )
        15        B      tau(  15) = (   0.9958362   0.0827877   1.8476266  )
        16        B      tau(  16) = (   0.6987179   0.5586979   1.3943070  )
        17        B      tau(  17) = (   0.0903279   0.5997535   1.2200041  )
        18        B      tau(  18) = (   0.9460845   0.5017876   1.4754679  )
        19        B      tau(  19) = (   0.0032347   0.0527127   1.2839437  )
        20        B      tau(  20) = (   0.1241012   0.5940167   1.6016841  )
        21        B      tau(  21) = (   0.4174729   0.9198072   1.5541475  )
        22        B      tau(  22) = (   0.4638227   0.9107282   1.2322731  )
        23        B      tau(  23) = (   0.5096053   0.7092947   1.5000083  )
        24        B      tau(  24) = (   0.4035376   0.9367665   1.6900270  )
        25        B      tau(  25) = (   0.7132674   0.8560217   1.2558196  )
        26        B      tau(  26) = (   0.2579773   0.4217781   1.2874388  )
        27        B      tau(  27) = (   0.1862793   0.2338812   1.3576537  )
        28        B      tau(  28) = (   0.2134919   0.3664862   1.5073156  )
        29        B      tau(  29) = (   0.3546252   0.0462610   1.5293894  )
        30        B      tau(  30) = (   0.8082206   0.9504483   1.6218439  )
        31        B      tau(  31) = (   0.4915043   0.5408159   1.2913026  )
        32        B      tau(  32) = (   0.2471486   0.9450605   1.4099193  )
        33        B      tau(  33) = (   0.7089246   0.1566090   1.6669558  )
        34        B      tau(  34) = (   0.4858908   0.1745693   1.3498737  )
        35        Si     tau(  35) = (   0.5740761   0.3686341   1.4981594  )
        36        Si     tau(  36) = (   0.9600416   0.6521543   1.2713743  )
        37        Si     tau(  37) = (   0.8029666   0.9237355   1.4090604  )
        38        Si     tau(  38) = (   0.6589027   0.0111466   1.4303706  )
        39        Si     tau(  39) = (   0.7148031   0.8518694   1.6658713  )
        40        Si     tau(  40) = (   0.4062844   0.4370669   1.7000479  )
        41        Si     tau(  41) = (   0.8652299   0.0194200   1.2866760  )
        42        Si     tau(  42) = (   0.8792462   0.4724358   1.3313926  )
        43        Si     tau(  43) = (   0.9761010   0.8191325   1.3004490  )
        44        Si     tau(  44) = (   0.0927580   0.6000365   1.4532062  )
        45        Si     tau(  45) = (   0.8492038   0.6801733   1.8429896  )
        46        Si     tau(  46) = (   0.7648638   0.9759642   1.8781504  )
        47        Si     tau(  47) = (   0.8282769   0.9005504   1.7531841  )
        48        Si     tau(  48) = (   0.2400871   0.2615564   1.6009290  )
        49        Si     tau(  49) = (   0.0782160   0.8578516   1.7113893  )
        50        Si     tau(  50) = (   0.1793983   0.5421597   1.3229395  )
        51        Si     tau(  51) = (   0.3045589   0.3154693   1.3856788  )
        52        Si     tau(  52) = (   0.1868342   0.9496617   1.8144358  )
        53        Si     tau(  53) = (   0.5597482   0.9942014   1.8563540  )
        54        Si     tau(  54) = (   0.3283405   0.8654915   1.7979255  )
        55        Si     tau(  55) = (   0.3944303   0.1342286   1.2558232  )
        56        Si     tau(  56) = (   0.5556116   0.4029995   1.7688172  )
        57        Si     tau(  57) = (   0.8886951   0.0519111   1.5515978  )
        58        Si     tau(  58) = (   0.9177874   0.8266438   1.8602018  )
        59        Si     tau(  59) = (   0.5141592   0.7513592   1.7304853  )
        60        Si     tau(  60) = (   0.6200680   0.7296116   1.5975635  )
        61        Si     tau(  61) = (   0.4531771   0.2653855   1.4551164  )
        62        Si     tau(  62) = (   0.9530092   0.1910999   1.6203079  )
        63        Si     tau(  63) = (   0.9806318   0.2594417   1.4695044  )
        64        Si     tau(  64) = (   0.1810221   0.5658568   1.7318917  )
        65        Si     tau(  65) = (   0.2276537   0.6624309   1.2309086  )
        66        Si     tau(  66) = (   0.7086066   0.3068958   1.4624957  )
        67        Si     tau(  67) = (   0.7573617   0.5008676   1.2102682  )
        68        Si     tau(  68) = (   0.0630774   0.5052222   1.8068999  )
        69        Si     tau(  69) = (   0.9531780   0.4208941   1.7332624  )
        70        Si     tau(  70) = (   0.8429520   0.6341042   1.3864806  )
        71        Si     tau(  71) = (   0.8255070   0.2513717   1.7092992  )
        72        Si     tau(  72) = (   0.4660404   0.3166643   1.5999861  )
        73        Si     tau(  73) = (   0.3218087   0.1696541   1.7095271  )
        74        Si     tau(  74) = (   0.6054871   0.0864265   1.2929813  )
        75        Si     tau(  75) = (   0.4402609   0.0821865   1.6559030  )
        76        Si     tau(  76) = (   0.3770531   0.0317907   1.3941734  )
        77        Si     tau(  77) = (   0.5059912   0.8072476   1.3243503  )
        78        Si     tau(  78) = (   0.6069382   0.5044701   1.6609957  )
        79        Si     tau(  79) = (   0.6370349   0.4244534   1.3741369  )
        80        Si     tau(  80) = (   0.6855674   0.7078304   1.8645318  )
        81        Si     tau(  81) = (   0.0765130   0.9298841   1.2314627  )
        82        Si     tau(  82) = (   0.9863684   0.4054382   1.2235204  )
        83        Si     tau(  83) = (   0.4950631   0.2585395   1.7548401  )
        84        Si     tau(  84) = (   0.5719431   0.1160579   1.7357262  )
        85        Si     tau(  85) = (   0.3566442   0.7389475   1.7027041  )
        86        Si     tau(  86) = (   0.5887626   0.6478135   1.7482870  )
        87        Si     tau(  87) = (   0.3778403   0.4701707   1.1981005  )
        88        Si     tau(  88) = (   0.7705746   0.7745811   1.3546535  )
        89        Si     tau(  89) = (   0.6353056   0.3899359   1.2194797  )
        90        Si     tau(  90) = (   0.3199297   0.6027545   1.8036004  )
        91        Si     tau(  91) = (   0.6901246   0.5787282   1.5496775  )
        92        Si     tau(  92) = (   0.1108815   0.9857043   1.4484254  )
        93        Si     tau(  93) = (   0.0087222   0.8101075   1.4596435  )
        94        Si     tau(  94) = (   0.4662737   0.5842118   1.4387730  )
        95        Si     tau(  95) = (   0.1497603   0.1150345   1.8191784  )
        96        Si     tau(  96) = (   0.9119816   0.9073773   1.5284091  )
        97        Si     tau(  97) = (   0.5081777   0.9347421   1.4393654  )
        98        Si     tau(  98) = (   0.9733658   0.9480751   1.7929925  )
        99        Si     tau(  99) = (   0.2449909   0.7736475   1.5958723  )
       100        Si     tau( 100) = (   0.2568298   0.7840856   1.3334763  )
       101        Si     tau( 101) = (   0.1600543   0.7576293   1.4557816  )
       102        Si     tau( 102) = (   0.9190690   0.2974838   1.8287833  )
       103        Si     tau( 103) = (   0.8499270   0.3745654   1.6104514  )
       104        Si     tau( 104) = (   0.8444491   0.5369054   1.7673517  )
       105        Si     tau( 105) = (   0.1203187   0.1732756   1.6597012  )
       106        Si     tau( 106) = (   0.6321686   0.6005607   1.2681838  )
       107        Si     tau( 107) = (   0.6235724   0.8470731   1.8048529  )
       108        Si     tau( 108) = (   0.7501132   0.1202716   1.2309056  )
       109        Si     tau( 109) = (   0.2746484   0.2046900   1.8670863  )
       110        Si     tau( 110) = (   0.2273259   0.0646953   1.6216725  )
       111        Si     tau( 111) = (   0.0729274   0.4042159   1.4579120  )
       112        Si     tau( 112) = (   0.6640697   0.1601480   1.5162335  )
       113        Si     tau( 113) = (   0.1226817   0.7031938   1.6887692  )
       114        Si     tau( 114) = (   0.8406300   0.5276586   1.5875131  )
       115        Si     tau( 115) = (   0.8389500   0.3149315   1.3901795  )
       116        Si     tau( 116) = (   0.1722727   0.9211130   1.5953570  )
       117        Si     tau( 117) = (   0.0763504   0.1375521   1.3930086  )
       118        Si     tau( 118) = (   0.3256209   0.9115638   1.2548481  )
       119        Si     tau( 119) = (   0.3955849   0.7224945   1.4035300  )
       120        Si     tau( 120) = (   0.4652418   0.5499611   1.5942954  )
       121        Si     tau( 121) = (   0.1212618   0.3651412   1.3045003  )
       122        O      tau( 122) = (   0.0295168   0.4481121   1.8630498  )
       123        O      tau( 123) = (   0.8632305   0.7660730   1.8351295  )
       124        O      tau( 124) = (   0.7865379   0.5198677   1.8292109  )
       125        O      tau( 125) = (   0.7687039   0.8065522   1.2712216  )
       126        O      tau( 126) = (   0.2613316   0.2462125   1.3627201  )
       127        O      tau( 127) = (   0.4383841   0.2721051   1.5384261  )
       128        O      tau( 128) = (   0.4075804   0.9041606   1.6244717  )
       129        O      tau( 129) = (   0.2891632   0.9821156   1.2266374  )
       130        O      tau( 130) = (   0.3003666   0.1796727   1.7902854  )
       131        O      tau( 131) = (   0.5973279   0.4225163   1.2949590  )
       132        O      tau( 132) = (   0.5334428   0.5020140   1.6146071  )
       133        O      tau( 133) = (   0.2755656   0.1058719   1.6786020  )
       134        O      tau( 134) = (   0.1545595   0.1075181   1.6150265  )
       135        O      tau( 135) = (   0.1198242   0.5723265   1.5291309  )
       136        O      tau( 136) = (   0.5826608   0.7211316   1.6806210  )
       137        O      tau( 137) = (   0.4384820   0.7620469   1.6969890  )
       138        O      tau( 138) = (   0.3813441   0.2977472   1.4178316  )
       139        O      tau( 139) = (   0.9518571   0.2429557   1.5505285  )
       140        O      tau( 140) = (   0.6668767   0.5177678   1.6031137  )
       141        O      tau( 141) = (   0.1520770   0.1695411   1.3620472  )
       142        O      tau( 142) = (   0.6925009   0.7509516   1.3753791  )
       143        O      tau( 143) = (   0.1434568   0.6580895   1.2139172  )
       144        O      tau( 144) = (   0.4761486   0.9028411   1.5138988  )
       145        O      tau( 145) = (   0.0631356   0.5782061   1.8492954  )
       146        O      tau( 146) = (   0.5876332   0.4146284   1.8503125  )
       147        O      tau( 147) = (   0.1071621   0.8902567   1.6361869  )
       148        O      tau( 148) = (   0.0331486   0.1967754   1.4407710  )
       149        O      tau( 149) = (   0.9443941   0.9810288   1.5588672  )
       150        O      tau( 150) = (   0.5485694   0.5774714   1.2625723  )
       151        O      tau( 151) = (   0.6090489   0.9225244   1.8421140  )
       152        O      tau( 152) = (   0.3184350   0.7927686   1.7545505  )
       153        O      tau( 153) = (   0.2965868   0.2359092   1.6579206  )
       154        O      tau( 154) = (   0.3399948   0.4149078   1.7451441  )
       155        O      tau( 155) = (   0.6583099   0.3076783   1.2358723  )
       156        O      tau( 156) = (   0.5620926   0.7442927   1.5385442  )
       157        O      tau( 157) = (   0.5556976   0.3175372   1.7688381  )
       158        O      tau( 158) = (   0.3525972   0.6632019   1.7471104  )
       159        O      tau( 159) = (   0.9620412   0.3446718   1.7697440  )
       160        O      tau( 160) = (   0.5313272   0.1848172   1.7709556  )
       161        O      tau( 161) = (   0.9429693   0.0183272   1.3239474  )
       162        O      tau( 162) = (   0.4858005   0.9533180   1.8755890  )
       163        O      tau( 163) = (   0.3657073   0.5328581   1.8345358  )
       164        O      tau( 164) = (   0.4406081   0.5066782   1.2484323  )
       165        O      tau( 165) = (   0.3135028   0.2834622   1.8690668  )
       166        O      tau( 166) = (   0.7907911   0.8360261   1.7119523  )
       167        O      tau( 167) = (   0.7289290   0.9234833   1.2340123  )
       168        O      tau( 168) = (   0.1454692   0.2885690   1.3267456  )
       169        O      tau( 169) = (   0.3914991   0.9066251   1.7575926  )
       170        O      tau( 170) = (   0.7079875   0.2222935   1.4707635  )
       171        O      tau( 171) = (   0.9743698   0.8515159   1.5269402  )
       172        O      tau( 172) = (   0.1330105   0.5361140   1.2470617  )
       173        O      tau( 173) = (   0.5827735   0.0420994   1.2254729  )
       174        O      tau( 174) = (   0.8602910   0.6220068   1.7811976  )
       175        O      tau( 175) = (   0.5252483   0.6418342   1.4684534  )
       176        O      tau( 176) = (   0.6556139   0.6691234   1.7930720  )
       177        O      tau( 177) = (   0.9478947   0.4555202   1.2814895  )
       178        O      tau( 178) = (   0.9699578   0.0766966   1.2188133  )
       179        O      tau( 179) = (   0.5480526   0.8088247   1.7836236  )
       180        O      tau( 180) = (   0.3152477   0.7447790   1.3880620  )
       181        O      tau( 181) = (   0.1477991   0.6460434   1.7450578  )
       182        O      tau( 182) = (   0.4226375   0.0083615   1.6949577  )
       183        O      tau( 183) = (   0.5004654   0.8461638   1.2447985  )
       184        O      tau( 184) = (   0.7864920   0.8423242   1.4036977  )
       185        O      tau( 185) = (   0.9046070   0.6136339   1.3286598  )
       186        O      tau( 186) = (   0.1308852   0.5564651   1.3912596  )
       187        O      tau( 187) = (   0.0181193   0.9388870   1.8632981  )
       188        O      tau( 188) = (   0.5236768   0.3172741   1.4469420  )
       189        O      tau( 189) = (   0.6771903   0.1363695   1.2729556  )
       190        O      tau( 190) = (   0.5668565   0.7520726   1.3411952  )
       191        O      tau( 191) = (   0.4390184   0.1054952   1.8920128  )
       192        O      tau( 192) = (   0.2801127   0.0556319   1.5537880  )
       193        O      tau( 193) = (   0.9517833   0.2240015   1.8530263  )
       194        O      tau( 194) = (   0.4078786   0.5134087   1.6517908  )
       195        O      tau( 195) = (   0.6735166   0.7941076   1.8547702  )
       196        O      tau( 196) = (   0.7896414   0.2674110   1.3392843  )
       197        O      tau( 197) = (   0.9136500   0.5214282   1.5392122  )
       198        O      tau( 198) = (   0.5881526   0.4350093   1.4460280  )
       199        O      tau( 199) = (   0.7745755   0.5842257   1.3844862  )
       200        O      tau( 200) = (   0.2034896   0.9862494   1.6415920  )
       201        O      tau( 201) = (   0.1233221   0.6813655   1.4530684  )
       202        O      tau( 202) = (   0.7937827   0.3272627   1.4639956  )
       203        O      tau( 203) = (   0.4473563   0.5396589   1.5104804  )
       204        O      tau( 204) = (   0.6542799   0.3403998   1.5182787  )
       205        O      tau( 205) = (   0.8234572   0.7113307   1.3622509  )
       206        O      tau( 206) = (   0.8127487   0.4431771   1.5824090  )
       207        O      tau( 207) = (   0.5134106   0.6764784   1.7758121  )
       208        O      tau( 208) = (   0.1836556   0.7783442   1.3761575  )
       209        O      tau( 209) = (   0.8104766   0.3105590   1.6473803  )
       210        O      tau( 210) = (   0.3044033   0.9850075   1.3843284  )
       211        O      tau( 211) = (   0.1301504   0.8965179   1.7717389  )
       212        O      tau( 212) = (   0.3197141   0.1653364   1.2298596  )
       213        O      tau( 213) = (   0.4699233   0.1934200   1.4196372  )
       214        O      tau( 214) = (   0.2809558   0.8612246   1.3097159  )
       215        O      tau( 215) = (   0.4264163   0.2824703   1.8051299  )
       216        O      tau( 216) = (   0.6599679   0.6539216   1.5790006  )
       217        O      tau( 217) = (   0.7349642   0.9291111   1.6364595  )
       218        O      tau( 218) = (   0.0099961   0.4612132   1.4800917  )
       219        O      tau( 219) = (   0.5892025   0.1978638   1.5290320  )
       220        O      tau( 220) = (   0.0485841   0.8646896   1.2765110  )
       221        O      tau( 221) = (   0.9732948   0.8322736   1.3845405  )
       222        O      tau( 222) = (   0.4005127   0.1467648   1.7001924  )
       223        O      tau( 223) = (   0.8561165   0.3880932   1.3551362  )
       224        O      tau( 224) = (   0.1908703   0.7320545   1.6493092  )
       225        O      tau( 225) = (   0.5316561   0.3624401   1.5720686  )
       226        O      tau( 226) = (   0.6407674   0.0341441   1.3503554  )
       227        O      tau( 227) = (   0.2507360   0.3493753   1.4464087  )
       228        O      tau( 228) = (   0.5138994   0.8709061   1.3834646  )
       229        O      tau( 229) = (   0.9079300   0.5013233   1.4088368  )
       230        O      tau( 230) = (   0.4395504   0.1937154   1.2966161  )
       231        O      tau( 231) = (   0.2308999   0.6103161   1.2990312  )
       232        O      tau( 232) = (   0.3685013   0.9700313   1.5258447  )
       233        O      tau( 233) = (   0.8514985   0.9494698   1.6877232  )
       234        O      tau( 234) = (   0.0187499   0.4824011   1.7364241  )
       235        O      tau( 235) = (   0.2414021   0.3421124   1.5740169  )
       236        O      tau( 236) = (   0.6097970   0.4413714   1.7163163  )
       237        O      tau( 237) = (   0.4788214   0.4352721   1.7472383  )
       238        O      tau( 238) = (   0.1395403   0.9630524   1.5257738  )
       239        O      tau( 239) = (   0.3787358   0.0784353   1.3203646  )
       240        O      tau( 240) = (   0.5839692   0.9685892   1.4551464  )
       241        O      tau( 241) = (   0.9110607   0.6557788   1.2003494  )
       242        O      tau( 242) = (   0.0686474   0.1043740   1.8437037  )
       243        O      tau( 243) = (   0.1460976   0.3999842   1.5060950  )
       244        O      tau( 244) = (   0.4166165   0.3782170   1.6358330  )
       245        O      tau( 245) = (   0.0075933   0.9084354   1.7265037  )
       246        O      tau( 246) = (   0.8482460   0.9888286   1.2074661  )
       247        O      tau( 247) = (   0.6787187   0.3475581   1.3906861  )
       248        O      tau( 248) = (   0.2793975   0.6318760   1.8700688  )
       249        O      tau( 249) = (   0.1753735   0.9662414   1.3957977  )
       250        O      tau( 250) = (   0.0079684   0.6039592   1.4520956  )
       251        O      tau( 251) = (   0.6799702   0.7916690   1.6137563  )
       252        O      tau( 252) = (   0.8228944   0.4963375   1.2716413  )
       253        O      tau( 253) = (   0.1652982   0.5553089   1.6491463  )
       254        O      tau( 254) = (   0.6527640   0.8346788   1.2935381  )
       255        O      tau( 255) = (   0.0358116   0.1810737   1.6422342  )
       256        O      tau( 256) = (   0.5638762   0.0484964   1.7892635  )
       257        O      tau( 257) = (   0.7314789   0.9670683   1.4359075  )
       258        O      tau( 258) = (   0.2559548   0.8899428   1.4535926  )
       259        O      tau( 259) = (   0.7774448   0.5773609   1.5598674  )
       260        O      tau( 260) = (   0.0868638   0.6515873   1.6288983  )
       261        O      tau( 261) = (   0.2614827   0.9212168   1.7891965  )
       262        O      tau( 262) = (   0.1954831   0.1735609   1.8664394  )
       263        O      tau( 263) = (   0.9906684   0.7948073   1.8435173  )
       264        O      tau( 264) = (   0.4575167   0.9955248   1.4051103  )
       265        O      tau( 265) = (   0.7735858   0.2011661   1.2118609  )
       266        O      tau( 266) = (   0.8814090   0.9281431   1.4499689  )
       267        O      tau( 267) = (   0.4072071   0.9256292   1.2771435  )
       268        O      tau( 268) = (   0.8399764   0.8937974   1.5751596  )
       269        O      tau( 269) = (   0.9802476   0.7272430   1.4739436  )
       270        O      tau( 270) = (   0.4029974   0.6353892   1.4077172  )
       271        O      tau( 271) = (   0.5236271   0.0940762   1.6637713  )
       272        O      tau( 272) = (   0.2291142   0.8566340   1.6031926  )
       273        O      tau( 273) = (   0.1369597   0.1529802   1.7410824  )
       274        O      tau( 274) = (   0.8956842   0.4684356   1.7728116  )
       275        O      tau( 275) = (   0.0304714   0.3296381   1.4668483  )
       276        O      tau( 276) = (   0.9261533   0.1126670   1.5937994  )
       277        O      tau( 277) = (   0.3196110   0.7473434   1.6269653  )
       278        O      tau( 278) = (   0.2346612   0.4755155   1.3381933  )
       279        O      tau( 279) = (   0.0309321   0.9618656   1.4299785  )
       280        O      tau( 280) = (   0.1026240   0.4047238   1.3770124  )
       281        O      tau( 281) = (   0.0996948   0.0720356   1.4419196  )
       282        O      tau( 282) = (   0.9796419   0.7336502   1.2951357  )
       283        O      tau( 283) = (   0.4798587   0.2721799   1.6719849  )
       284        O      tau( 284) = (   0.1447462   0.5042309   1.7791641  )
       285        O      tau( 285) = (   0.6584207   0.0850578   1.4744274  )
       286        O      tau( 286) = (   0.8447302   0.2856675   1.7867899  )
       287        O      tau( 287) = (   0.9236456   0.3532967   1.8933803  )
       288        O      tau( 288) = (   0.7131244   0.4260542   1.2089447  )
       289        O      tau( 289) = (   0.1815374   0.0351118   1.8104616  )
       290        O      tau( 290) = (   0.0329975   0.6097415   1.2681351  )
       291        O      tau( 291) = (   0.8998275   0.8951096   1.8045433  )
       292        O      tau( 292) = (   0.3016404   0.4593341   1.2337882  )
       293        O      tau( 293) = (   0.2631331   0.5633327   1.7490475  )
       294        O      tau( 294) = (   0.7023044   0.1539457   1.5910141  )
       295        O      tau( 295) = (   0.5450848   0.1349270   1.3303906  )
       296        O      tau( 296) = (   0.1632620   0.2443342   1.6379519  )
       297        O      tau( 297) = (   0.1916640   0.3894955   1.2601897  )
       298        O      tau( 298) = (   0.0615898   0.0043928   1.2718305  )
       299        O      tau( 299) = (   0.3967139   0.3875856   1.8762703  )
       300        O      tau( 300) = (   0.4846187   0.5410669   1.3666698  )
       301        O      tau( 301) = (   0.8186424   0.0168112   1.5820830  )
       302        O      tau( 302) = (   0.5974300   0.5762403   1.7036424  )
       303        O      tau( 303) = (   0.4323575   0.7667648   1.3386386  )
       304        O      tau( 304) = (   0.7719883   0.9374236   1.8028857  )
       305        O      tau( 305) = (   0.7672182   0.1900179   1.6976508  )
       306        O      tau( 306) = (   0.8994379   0.0650389   1.4672678  )
       307        O      tau( 307) = (   0.4462121   0.7426137   1.4731770  )
       308        O      tau( 308) = (   0.9211726   0.3961581   1.6533343  )
       309        O      tau( 309) = (   0.2420202   0.2200105   1.5251544  )
       310        O      tau( 310) = (   0.8842963   0.6436934   1.4589679  )
       311        O      tau( 311) = (   0.6482991   0.6785877   1.2330670  )
       312        O      tau( 312) = (   0.4832983   0.6325017   1.6039613  )
       313        O      tau( 313) = (   0.7361349   0.0571749   1.8732737  )
       314        O      tau( 314) = (   0.6649925   0.8590630   1.7336776  )
       315        O      tau( 315) = (   0.9130296   0.2721061   1.4159943  )
       316        O      tau( 316) = (   0.6511009   0.5989696   1.3506902  )
       317        O      tau( 317) = (   0.8131240   0.0898692   1.2825970  )
       318        O      tau( 318) = (   0.6524595   0.1336951   1.7108949  )
       319        O      tau( 319) = (   0.6784211   0.5695802   1.4690337  )
       320        O      tau( 320) = (   0.9018920   0.2183548   1.6834522  )
       321        O      tau( 321) = (   0.9678130   0.0358255   1.7940055  )
       322        O      tau( 322) = (   0.8368182   0.5391156   1.6776043  )
       323        O      tau( 323) = (   0.7668768   0.6856661   1.8697035  )
       324        O      tau( 324) = (   0.1531671   0.9301796   1.8945654  )
       325        O      tau( 325) = (   0.2178402   0.7542098   1.5177838  )
       326        O      tau( 326) = (   0.3614324   0.0782581   1.4600024  )
       327        O      tau( 327) = (   0.4053368   0.0766386   1.5793453  )
       328        O      tau( 328) = (   0.3320739   0.8564650   1.8828345  )
       329        O      tau( 329) = (   0.0914304   0.8126101   1.4681485  )
       330        O      tau( 330) = (   0.2416337   0.7445048   1.2588964  )
       331        O      tau( 331) = (   0.8232583   0.9617889   1.3373563  )
       332        O      tau( 332) = (   0.0224173   0.1103921   1.3331986  )
       333        O      tau( 333) = (   0.0827261   0.7743688   1.7158336  )
       334        O      tau( 334) = (   0.3058372   0.3697607   1.3216954  )
       335        O      tau( 335) = (   0.6940744   0.4843818   1.3763524  )
       336        O      tau( 336) = (   0.0505520   0.3569640   1.2588409  )
       337        O      tau( 337) = (   0.6956442   0.5556100   1.2255199  )
       338        O      tau( 338) = (   0.9205918   0.8444316   1.2442634  )
       339        Al     tau( 339) = (   0.9474166   0.9984982   1.4171699  )
       340        Al     tau( 340) = (   0.7317137   0.2651324   1.2660316  )
       341        C      tau( 341) = (   0.5214378   0.4015461   0.9811602  )
       342        C      tau( 342) = (   0.4479569   0.3909766   0.9682123  )
       343        C      tau( 343) = (   0.5653175   0.3422400   0.9933978  )
       344        C      tau( 344) = (   0.4205128   0.3214128   0.9678981  )
       345        C      tau( 345) = (   0.5488767   0.4711092   0.9814734  )
       346        C      tau( 346) = (   0.4040833   0.4502831   0.9559704  )
       347        C      tau( 347) = (   0.5371518   0.2734980   0.9928820  )
       348        C      tau( 348) = (   0.4648892   0.2631047   0.9801594  )
       349        C      tau( 349) = (   0.5045065   0.5294176   0.9692078  )
       350        C      tau( 350) = (   0.4322510   0.5190244   0.9564758  )
       351        H      tau( 351) = (   0.6219558   0.3491057   1.0034564  )
       352        H      tau( 352) = (   0.3641909   0.3120316   0.9580660  )
       353        H      tau( 353) = (   0.6051969   0.4804959   0.9913103  )
       354        H      tau( 354) = (   0.3474366   0.4434151   0.9458995  )
       355        H      tau( 355) = (   0.5716658   0.2280845   1.0024269  )
       356        H      tau( 356) = (   0.4429953   0.2095720   0.9797640  )
       357        H      tau( 357) = (   0.5264020   0.5829447   0.9695985  )
       358        H      tau( 358) = (   0.3977363   0.5644431   0.9469303  )

     number of k points=     1  Gaussian smearing, width (Ry)=  0.0100
                       cart. coord. in units 2pi/alat
        k(    1) = (   0.0000000   0.0000000   0.0000000), wk =   2.0000000

     Dense  grid: 15943719 G-vectors     FFT dimensions: ( 216, 216, 675)

     Smooth grid: 13361281 G-vectors     FFT dimensions: ( 216, 216, 625)

     Estimated max dynamical RAM per process >       4.14 GB

     Estimated total dynamical RAM >     331.13 GB

     Check: negative core charge=   -0.000001

     Initial potential from superposition of free atoms

     starting charge    1871.8703, renormalised to    1872.0000

     negative rho (up, down):  4.223E-02 0.000E+00
     Starting wfcs are 1419 randomized atomic wfcs
     Checking if some PAW data can be deallocated... 

     total cpu time spent up to now is      149.0 secs

     per-process dynamical memory:  1754.1 Mb

     Self-consistent Calculation

     iteration #  1     ecut=    80.00 Ry     beta= 0.10
     Davidson diagonalization with overlap
     ethr =  1.00E-02,  avg # of iterations =  3.0

     negative rho (up, down):  4.422E-02 0.000E+00

     total cpu time spent up to now is      629.2 secs

     total energy              =  -11693.38606743 Ry
     estimated scf accuracy    <     115.53955837 Ry

     iteration #  2     ecut=    80.00 Ry     beta= 0.10
     Davidson diagonalization with overlap
     ethr =  6.17E-03,  avg # of iterations =  1.0

     negative rho (up, down):  4.590E-02 0.000E+00

     total cpu time spent up to now is      912.1 secs

     total energy              =  -11688.11798652 Ry
     estimated scf accuracy    <      85.21562409 Ry

     iteration #  3     ecut=    80.00 Ry     beta= 0.10
     Davidson diagonalization with overlap
     ethr =  4.55E-03,  avg # of iterations =  1.0

     negative rho (up, down):  4.766E-02 0.000E+00

     total cpu time spent up to now is     1195.0 secs

     total energy              =  -11681.49724030 Ry
     estimated scf accuracy    <      59.19263082 Ry

     iteration #  4     ecut=    80.00 Ry     beta= 0.10
     Davidson diagonalization with overlap
     ethr =  3.16E-03,  avg # of iterations =  2.0

     negative rho (up, down):  4.871E-02 0.000E+00

     total cpu time spent up to now is     1511.2 secs

     total energy              =  -11682.80826314 Ry
     estimated scf accuracy    <      59.54073428 Ry

     iteration #  5     ecut=    80.00 Ry     beta= 0.10
     Davidson diagonalization with overlap
     ethr =  3.16E-03,  avg # of iterations =  1.0

     negative rho (up, down):  4.979E-02 0.000E+00

     total cpu time spent up to now is     1793.6 secs

     total energy              =  -11682.21891176 Ry
     estimated scf accuracy    <      38.89063112 Ry

     iteration #  6     ecut=    80.00 Ry     beta= 0.10
     Davidson diagonalization with overlap
     ethr =  2.08E-03,  avg # of iterations =  1.0

     negative rho (up, down):  5.063E-02 0.000E+00

     total cpu time spent up to now is     2077.7 secs

     total energy              =  -11682.36039783 Ry
     estimated scf accuracy    <      22.95347348 Ry

     iteration #  7     ecut=    80.00 Ry     beta= 0.10
     Davidson diagonalization with overlap
     ethr =  1.23E-03,  avg # of iterations =  2.0

     negative rho (up, down):  5.138E-02 0.000E+00

     total cpu time spent up to now is     2395.9 secs

     total energy              =  -11682.18354524 Ry
     estimated scf accuracy    <      38.51764089 Ry

     iteration #  8     ecut=    80.00 Ry     beta= 0.10
     Davidson diagonalization with overlap
     ethr =  1.23E-03,  avg # of iterations =  1.0

     negative rho (up, down):  5.196E-02 0.000E+00

     total cpu time spent up to now is     2681.2 secs

     total energy              =  -11682.25846999 Ry
     estimated scf accuracy    <      16.35766773 Ry

     iteration #  9     ecut=    80.00 Ry     beta= 0.10
     Davidson diagonalization with overlap
     ethr =  8.74E-04,  avg # of iterations =  2.0

     negative rho (up, down):  5.247E-02 0.000E+00

     total cpu time spent up to now is     2998.9 secs

     total energy              =  -11682.24718100 Ry
     estimated scf accuracy    <      10.47606643 Ry

     iteration # 10     ecut=    80.00 Ry     beta= 0.10
     Davidson diagonalization with overlap
     ethr =  5.60E-04,  avg # of iterations = 11.0

     negative rho (up, down):  5.301E-02 0.000E+00

     total cpu time spent up to now is     3343.1 secs

     total energy              =  -11682.18614483 Ry
     estimated scf accuracy    <       5.60874355 Ry

     iteration # 11     ecut=    80.00 Ry     beta= 0.10
     Davidson diagonalization with overlap
     ethr =  3.00E-04,  avg # of iterations =  9.0

     negative rho (up, down):  5.331E-02 0.000E+00

     total cpu time spent up to now is     3691.7 secs

     total energy              =  -11682.12278721 Ry
     estimated scf accuracy    <      13.74191325 Ry

     iteration # 12     ecut=    80.00 Ry     beta= 0.10
     Davidson diagonalization with overlap
     ethr =  3.00E-04,  avg # of iterations =  2.0

     negative rho (up, down):  5.361E-02 0.000E+00

     total cpu time spent up to now is     4010.0 secs

     total energy              =  -11682.25251281 Ry
     estimated scf accuracy    <       4.86655814 Ry

     iteration # 13     ecut=    80.00 Ry     beta= 0.10
     Davidson diagonalization with overlap
     ethr =  2.60E-04,  avg # of iterations =  1.0

     negative rho (up, down):  5.406E-02 0.000E+00

     total cpu time spent up to now is     4293.7 secs

     total energy              =  -11682.12373393 Ry
     estimated scf accuracy    <       7.59065954 Ry

     iteration # 14     ecut=    80.00 Ry     beta= 0.10
     Davidson diagonalization with overlap
     ethr =  2.60E-04,  avg # of iterations =  1.0

     negative rho (up, down):  5.453E-02 0.000E+00

     total cpu time spent up to now is     4576.3 secs

     total energy              =  -11682.08019688 Ry
     estimated scf accuracy    <       7.06681806 Ry

     iteration # 15     ecut=    80.00 Ry     beta= 0.10
     Davidson diagonalization with overlap
     ethr =  2.60E-04,  avg # of iterations =  1.0

     negative rho (up, down):  5.453E-02 0.000E+00

     total cpu time spent up to now is     4859.6 secs

     total energy              =  -11681.90553049 Ry
     estimated scf accuracy    <      17.26213867 Ry

     iteration # 16     ecut=    80.00 Ry     beta= 0.10
     Davidson diagonalization with overlap
     ethr =  2.60E-04,  avg # of iterations =  2.0

     negative rho (up, down):  5.484E-02 0.000E+00

     total cpu time spent up to now is     5177.2 secs

     total energy              =  -11682.13973292 Ry
     estimated scf accuracy    <       4.63627161 Ry

     iteration # 17     ecut=    80.00 Ry     beta= 0.10
     Davidson diagonalization with overlap
     ethr =  2.48E-04,  avg # of iterations =  1.0

     negative rho (up, down):  5.524E-02 0.000E+00

     total cpu time spent up to now is     5460.3 secs

     total energy              =  -11682.07994287 Ry
     estimated scf accuracy    <       5.76617065 Ry

     iteration # 18     ecut=    80.00 Ry     beta= 0.10
     Davidson diagonalization with overlap
     ethr =  2.48E-04,  avg # of iterations =  1.0

     negative rho (up, down):  5.555E-02 0.000E+00

     total cpu time spent up to now is     5744.0 secs

     total energy              =  -11682.07414023 Ry
     estimated scf accuracy    <       3.32678965 Ry

     iteration # 19     ecut=    80.00 Ry     beta= 0.10
     Davidson diagonalization with overlap
     ethr =  1.78E-04,  avg # of iterations =  1.0

     negative rho (up, down):  5.580E-02 0.000E+00

     total cpu time spent up to now is     6027.0 secs

     total energy              =  -11682.07995492 Ry
     estimated scf accuracy    <       2.44287720 Ry

     iteration # 20     ecut=    80.00 Ry     beta= 0.10
     Davidson diagonalization with overlap
     ethr =  1.30E-04,  avg # of iterations =  2.0

     negative rho (up, down):  5.613E-02 0.000E+00

     total cpu time spent up to now is     6345.3 secs

     total energy              =  -11682.02169917 Ry
     estimated scf accuracy    <       6.96251868 Ry

     iteration # 21     ecut=    80.00 Ry     beta= 0.10
     Davidson diagonalization with overlap
     ethr =  1.30E-04,  avg # of iterations =  1.0

     negative rho (up, down):  5.611E-02 0.000E+00

     total cpu time spent up to now is     6629.6 secs

     total energy              =  -11682.06640205 Ry
     estimated scf accuracy    <       3.15215079 Ry

     iteration # 22     ecut=    80.00 Ry     beta= 0.10
     Davidson diagonalization with overlap
     ethr =  1.30E-04,  avg # of iterations =  1.0

     negative rho (up, down):  5.650E-02 0.000E+00

     total cpu time spent up to now is     6912.7 secs

     total energy              =  -11682.05972867 Ry
     estimated scf accuracy    <       5.41547203 Ry

     iteration # 23     ecut=    80.00 Ry     beta= 0.10
     Davidson diagonalization with overlap
     ethr =  1.30E-04,  avg # of iterations =  1.0

     negative rho (up, down):  5.648E-02 0.000E+00

     total cpu time spent up to now is     7196.0 secs

     total energy              =  -11682.07918942 Ry
     estimated scf accuracy    <       1.63793198 Ry

     iteration # 24     ecut=    80.00 Ry     beta= 0.10
     Davidson diagonalization with overlap
     ethr =  8.75E-05,  avg # of iterations =  2.0

     negative rho (up, down):  5.707E-02 0.000E+00

     total cpu time spent up to now is     7513.5 secs

     total energy              =  -11682.05615186 Ry
     estimated scf accuracy    <       3.75269902 Ry

     iteration # 25     ecut=    80.00 Ry     beta= 0.10
     Davidson diagonalization with overlap
     ethr =  8.75E-05,  avg # of iterations =  2.0

     negative rho (up, down):  5.706E-02 0.000E+00

     total cpu time spent up to now is     7830.6 secs

     total energy              =  -11682.06274086 Ry
     estimated scf accuracy    <       2.99386535 Ry

     iteration # 26     ecut=    80.00 Ry     beta= 0.10
     Davidson diagonalization with overlap
     ethr =  8.75E-05,  avg # of iterations =  2.0

     negative rho (up, down):  5.733E-02 0.000E+00

     total cpu time spent up to now is     8148.4 secs

     total energy              =  -11682.04058842 Ry
     estimated scf accuracy    <       4.96756995 Ry

     iteration # 27     ecut=    80.00 Ry     beta= 0.10
     Davidson diagonalization with overlap
     ethr =  8.75E-05,  avg # of iterations =  1.0

     negative rho (up, down):  5.725E-02 0.000E+00

     total cpu time spent up to now is     8431.3 secs

     total energy              =  -11682.07793483 Ry
     estimated scf accuracy    <       1.16188520 Ry

     iteration # 28     ecut=    80.00 Ry     beta= 0.10
     Davidson diagonalization with overlap
     ethr =  6.21E-05,  avg # of iterations = 20.0

     negative rho (up, down):  5.741E-02 0.000E+00

     total cpu time spent up to now is     8878.2 secs

     total energy              =  -11682.08562486 Ry
     estimated scf accuracy    <       1.38539005 Ry

     iteration # 29     ecut=    80.00 Ry     beta= 0.10
     Davidson diagonalization with overlap
     ethr =  6.21E-05,  avg # of iterations =  1.0

     negative rho (up, down):  5.761E-02 0.000E+00

     total cpu time spent up to now is     9162.0 secs

     total energy              =  -11682.08294857 Ry
     estimated scf accuracy    <       1.32142706 Ry

     iteration # 30     ecut=    80.00 Ry     beta= 0.10
     Davidson diagonalization with overlap
     ethr =  6.21E-05,  avg # of iterations =  1.0

     negative rho (up, down):  5.772E-02 0.000E+00

     total cpu time spent up to now is     9444.1 secs

     total energy              =  -11682.09152579 Ry
     estimated scf accuracy    <       1.12972364 Ry

     iteration # 31     ecut=    80.00 Ry     beta= 0.10
     Davidson diagonalization with overlap
     ethr =  6.03E-05,  avg # of iterations =  1.0

     negative rho (up, down):  5.789E-02 0.000E+00

     total cpu time spent up to now is     9726.5 secs

     total energy              =  -11682.09398022 Ry
     estimated scf accuracy    <       0.79055455 Ry

     iteration # 32     ecut=    80.00 Ry     beta= 0.10
     Davidson diagonalization with overlap
     ethr =  4.22E-05,  avg # of iterations =  1.0

     negative rho (up, down):  5.780E-02 0.000E+00

     total cpu time spent up to now is    10008.7 secs

     total energy              =  -11682.08815013 Ry
     estimated scf accuracy    <       0.84447021 Ry

     iteration # 33     ecut=    80.00 Ry     beta= 0.10
     Davidson diagonalization with overlap
     ethr =  4.22E-05,  avg # of iterations =  1.0

     negative rho (up, down):  5.784E-02 0.000E+00

     total cpu time spent up to now is    10290.9 secs

     total energy              =  -11682.09002876 Ry
     estimated scf accuracy    <       1.28051008 Ry

     iteration # 34     ecut=    80.00 Ry     beta= 0.10
     Davidson diagonalization with overlap
     ethr =  4.22E-05,  avg # of iterations =  1.0

     negative rho (up, down):  5.814E-02 0.000E+00

     total cpu time spent up to now is    10574.0 secs

     total energy              =  -11682.09486555 Ry
     estimated scf accuracy    <       0.63037922 Ry

     iteration # 35     ecut=    80.00 Ry     beta= 0.10
     Davidson diagonalization with overlap
     ethr =  3.37E-05,  avg # of iterations =  1.0

     negative rho (up, down):  5.807E-02 0.000E+00

     total cpu time spent up to now is    10855.9 secs

     total energy              =  -11682.09144070 Ry
     estimated scf accuracy    <       0.73577522 Ry

     iteration # 36     ecut=    80.00 Ry     beta= 0.10
     Davidson diagonalization with overlap
     ethr =  3.37E-05,  avg # of iterations =  1.0

     negative rho (up, down):  5.813E-02 0.000E+00

     total cpu time spent up to now is    11138.2 secs

     total energy              =  -11682.09745578 Ry
     estimated scf accuracy    <       0.45927821 Ry

     iteration # 37     ecut=    80.00 Ry     beta= 0.10
     Davidson diagonalization with overlap
     ethr =  2.45E-05,  avg # of iterations =  1.0

     negative rho (up, down):  5.823E-02 0.000E+00

     total cpu time spent up to now is    11420.0 secs

     total energy              =  -11682.09863367 Ry
     estimated scf accuracy    <       0.19811610 Ry

     iteration # 38     ecut=    80.00 Ry     beta= 0.10
     Davidson diagonalization with overlap
     ethr =  1.06E-05,  avg # of iterations =  1.0

     negative rho (up, down):  5.825E-02 0.000E+00

     total cpu time spent up to now is    11702.1 secs

     total energy              =  -11682.09290490 Ry
     estimated scf accuracy    <       1.01346665 Ry

     iteration # 39     ecut=    80.00 Ry     beta= 0.10
     Davidson diagonalization with overlap
     ethr =  1.06E-05,  avg # of iterations =  1.0

     negative rho (up, down):  5.830E-02 0.000E+00

     total cpu time spent up to now is    11985.2 secs

     total energy              =  -11682.09901582 Ry
     estimated scf accuracy    <       0.28376869 Ry

     iteration # 40     ecut=    80.00 Ry     beta= 0.10
     Davidson diagonalization with overlap
     ethr =  1.06E-05,  avg # of iterations =  1.0

     negative rho (up, down):  5.835E-02 0.000E+00

     total cpu time spent up to now is    12267.7 secs

     total energy              =  -11682.09908413 Ry
     estimated scf accuracy    <       0.30755336 Ry

     iteration # 41     ecut=    80.00 Ry     beta= 0.10
     Davidson diagonalization with overlap
     ethr =  1.06E-05,  avg # of iterations =  1.0

     negative rho (up, down):  5.845E-02 0.000E+00

     total cpu time spent up to now is    12550.9 secs

     total energy              =  -11682.09999154 Ry
     estimated scf accuracy    <       0.40838353 Ry

     iteration # 42     ecut=    80.00 Ry     beta= 0.10
     Davidson diagonalization with overlap
     ethr =  1.06E-05,  avg # of iterations =  1.0

     negative rho (up, down):  5.843E-02 0.000E+00

     total cpu time spent up to now is    12833.6 secs

     total energy              =  -11682.09941011 Ry
     estimated scf accuracy    <       0.23557613 Ry

     iteration # 43     ecut=    80.00 Ry     beta= 0.10
     Davidson diagonalization with overlap
     ethr =  1.06E-05,  avg # of iterations =  1.0

     negative rho (up, down):  5.842E-02 0.000E+00

     total cpu time spent up to now is    13116.4 secs

     total energy              =  -11682.09872363 Ry
     estimated scf accuracy    <       0.39114022 Ry

     iteration # 44     ecut=    80.00 Ry     beta= 0.10
     Davidson diagonalization with overlap
     ethr =  1.06E-05,  avg # of iterations =  1.0

     negative rho (up, down):  5.883E-02 0.000E+00

     total cpu time spent up to now is    13399.3 secs

     total energy              =  -11682.10197348 Ry
     estimated scf accuracy    <       0.28717701 Ry

     iteration # 45     ecut=    80.00 Ry     beta= 0.10
     Davidson diagonalization with overlap
     ethr =  1.06E-05,  avg # of iterations =  1.0

     negative rho (up, down):  5.858E-02 0.000E+00

     total cpu time spent up to now is    13681.8 secs

     total energy              =  -11682.09913388 Ry
     estimated scf accuracy    <       0.11226911 Ry

     iteration # 46     ecut=    80.00 Ry     beta= 0.10
     Davidson diagonalization with overlap
     ethr =  6.00E-06,  avg # of iterations =  1.0

     negative rho (up, down):  5.864E-02 0.000E+00

     total cpu time spent up to now is    13963.4 secs

     total energy              =  -11682.09819238 Ry
     estimated scf accuracy    <       0.51624264 Ry

     iteration # 47     ecut=    80.00 Ry     beta= 0.10
     Davidson diagonalization with overlap
     ethr =  6.00E-06,  avg # of iterations =  1.0

     negative rho (up, down):  5.882E-02 0.000E+00

     total cpu time spent up to now is    14245.3 secs

     total energy              =  -11682.10068339 Ry
     estimated scf accuracy    <       0.34840967 Ry

     iteration # 48     ecut=    80.00 Ry     beta= 0.10
     Davidson diagonalization with overlap
     ethr =  6.00E-06,  avg # of iterations =  1.0

     negative rho (up, down):  5.881E-02 0.000E+00

     total cpu time spent up to now is    14527.2 secs

     total energy              =  -11682.10209260 Ry
     estimated scf accuracy    <       0.10398024 Ry

     iteration # 49     ecut=    80.00 Ry     beta= 0.10
     Davidson diagonalization with overlap
     ethr =  5.55E-06,  avg # of iterations =  1.0

     negative rho (up, down):  5.893E-02 0.000E+00

     total cpu time spent up to now is    14809.5 secs

     total energy              =  -11682.10139887 Ry
     estimated scf accuracy    <       0.34355149 Ry

     iteration # 50     ecut=    80.00 Ry     beta= 0.10
     Davidson diagonalization with overlap
     ethr =  5.55E-06,  avg # of iterations =  1.0

     negative rho (up, down):  5.892E-02 0.000E+00

     total cpu time spent up to now is    15091.9 secs

     total energy              =  -11682.10150936 Ry
     estimated scf accuracy    <       0.41071129 Ry

     iteration # 51     ecut=    80.00 Ry     beta= 0.10
     Davidson diagonalization with overlap
     ethr =  5.55E-06,  avg # of iterations =  1.0

     negative rho (up, down):  5.896E-02 0.000E+00

     total cpu time spent up to now is    15373.7 secs

     total energy              =  -11682.10273688 Ry
     estimated scf accuracy    <       0.22877942 Ry

     iteration # 52     ecut=    80.00 Ry     beta= 0.10
     Davidson diagonalization with overlap
     ethr =  5.55E-06,  avg # of iterations =  1.0

     negative rho (up, down):  5.892E-02 0.000E+00

     total cpu time spent up to now is    15655.7 secs

     total energy              =  -11682.10326925 Ry
     estimated scf accuracy    <       0.10179565 Ry

     iteration # 53     ecut=    80.00 Ry     beta= 0.10
     Davidson diagonalization with overlap
     ethr =  5.44E-06,  avg # of iterations =  1.0

     negative rho (up, down):  5.890E-02 0.000E+00

     total cpu time spent up to now is    15937.3 secs

     total energy              =  -11682.10268253 Ry
     estimated scf accuracy    <       0.20199495 Ry

     iteration # 54     ecut=    80.00 Ry     beta= 0.10
     Davidson diagonalization with overlap
     ethr =  5.44E-06,  avg # of iterations =  1.0

     negative rho (up, down):  5.903E-02 0.000E+00

     total cpu time spent up to now is    16220.4 secs

     total energy              =  -11682.10430145 Ry
     estimated scf accuracy    <       0.06844906 Ry

     iteration # 55     ecut=    80.00 Ry     beta= 0.10
     Davidson diagonalization with overlap
     ethr =  3.66E-06,  avg # of iterations =  1.0

     negative rho (up, down):  5.901E-02 0.000E+00

     total cpu time spent up to now is    16503.5 secs

     total energy              =  -11682.10390564 Ry
     estimated scf accuracy    <       0.05003069 Ry

     iteration # 56     ecut=    80.00 Ry     beta= 0.10
     Davidson diagonalization with overlap
     ethr =  2.67E-06,  avg # of iterations =  1.0

     negative rho (up, down):  5.901E-02 0.000E+00

     total cpu time spent up to now is    16786.1 secs

     total energy              =  -11682.10354996 Ry
     estimated scf accuracy    <       0.12317258 Ry

     iteration # 57     ecut=    80.00 Ry     beta= 0.10
     Davidson diagonalization with overlap
     c_bands:  4 eigenvalues not converged
     ethr =  2.67E-06,  avg # of iterations = 20.0

     negative rho (up, down):  5.903E-02 0.000E+00

     total cpu time spent up to now is    17150.4 secs

     total energy              =  -11682.10438111 Ry
     estimated scf accuracy    <       0.05115257 Ry

     iteration # 58     ecut=    80.00 Ry     beta= 0.10
     Davidson diagonalization with overlap
     ethr =  2.67E-06,  avg # of iterations = 11.0

     negative rho (up, down):  5.908E-02 0.000E+00

     total cpu time spent up to now is    17484.1 secs

     total energy              =  -11682.10483768 Ry
     estimated scf accuracy    <       0.01099421 Ry

     iteration # 59     ecut=    80.00 Ry     beta= 0.10
     Davidson diagonalization with overlap
     ethr =  5.87E-07,  avg # of iterations =  1.0

     negative rho (up, down):  5.911E-02 0.000E+00

     total cpu time spent up to now is    17766.5 secs

     total energy              =  -11682.10466999 Ry
     estimated scf accuracy    <       0.03751764 Ry

     iteration # 60     ecut=    80.00 Ry     beta= 0.10
     Davidson diagonalization with overlap
     ethr =  5.87E-07,  avg # of iterations =  1.0

     negative rho (up, down):  5.912E-02 0.000E+00

     total cpu time spent up to now is    18049.3 secs

     total energy              =  -11682.10468134 Ry
     estimated scf accuracy    <       0.05765777 Ry

     iteration # 61     ecut=    80.00 Ry     beta= 0.10
     Davidson diagonalization with overlap
     ethr =  5.87E-07,  avg # of iterations =  1.0

     negative rho (up, down):  5.914E-02 0.000E+00

     total cpu time spent up to now is    18332.6 secs

     total energy              =  -11682.10476009 Ry
     estimated scf accuracy    <       0.04895027 Ry

     iteration # 62     ecut=    80.00 Ry     beta= 0.10
     Davidson diagonalization with overlap
     ethr =  5.87E-07,  avg # of iterations =  1.0

     negative rho (up, down):  5.914E-02 0.000E+00

     total cpu time spent up to now is    18614.1 secs

     total energy              =  -11682.10479914 Ry
     estimated scf accuracy    <       0.03589506 Ry

     iteration # 63     ecut=    80.00 Ry     beta= 0.10
     Davidson diagonalization with overlap
     ethr =  5.87E-07,  avg # of iterations =  1.0

     negative rho (up, down):  5.911E-02 0.000E+00

     total cpu time spent up to now is    18896.3 secs

     total energy              =  -11682.10444176 Ry
     estimated scf accuracy    <       0.05927670 Ry

     iteration # 64     ecut=    80.00 Ry     beta= 0.10
     Davidson diagonalization with overlap
     ethr =  5.87E-07,  avg # of iterations =  1.0

     negative rho (up, down):  5.920E-02 0.000E+00

     total cpu time spent up to now is    19178.7 secs

     total energy              =  -11682.10471592 Ry
     estimated scf accuracy    <       0.07577196 Ry

     iteration # 65     ecut=    80.00 Ry     beta= 0.10
     Davidson diagonalization with overlap
     ethr =  5.87E-07,  avg # of iterations =  1.0

     negative rho (up, down):  5.923E-02 0.000E+00

     total cpu time spent up to now is    19461.1 secs

     total energy              =  -11682.10504855 Ry
     estimated scf accuracy    <       0.03386427 Ry

     iteration # 66     ecut=    80.00 Ry     beta= 0.10
     Davidson diagonalization with overlap
     ethr =  5.87E-07,  avg # of iterations =  1.0

     negative rho (up, down):  5.921E-02 0.000E+00

     total cpu time spent up to now is    19743.0 secs

     total energy              =  -11682.10497178 Ry
     estimated scf accuracy    <       0.02605683 Ry

     iteration # 67     ecut=    80.00 Ry     beta= 0.10
     Davidson diagonalization with overlap
     ethr =  5.87E-07,  avg # of iterations =  1.0

     negative rho (up, down):  5.919E-02 0.000E+00

     total cpu time spent up to now is    20025.4 secs

     total energy              =  -11682.10490562 Ry
     estimated scf accuracy    <       0.04652363 Ry

     iteration # 68     ecut=    80.00 Ry     beta= 0.10
     Davidson diagonalization with overlap
     ethr =  5.87E-07,  avg # of iterations =  1.0

     negative rho (up, down):  5.923E-02 0.000E+00

     total cpu time spent up to now is    20308.0 secs

     total energy              =  -11682.10527013 Ry
     estimated scf accuracy    <       0.01056262 Ry

     iteration # 69     ecut=    80.00 Ry     beta= 0.10
     Davidson diagonalization with overlap
     ethr =  5.64E-07,  avg # of iterations =  1.0

     negative rho (up, down):  5.926E-02 0.000E+00

     total cpu time spent up to now is    20591.1 secs

     total energy              =  -11682.10536480 Ry
     estimated scf accuracy    <       0.00896190 Ry

     iteration # 70     ecut=    80.00 Ry     beta= 0.10
     Davidson diagonalization with overlap
     ethr =  4.79E-07,  avg # of iterations =  1.0

     negative rho (up, down):  5.927E-02 0.000E+00

     total cpu time spent up to now is    20873.4 secs

     total energy              =  -11682.10536110 Ry
     estimated scf accuracy    <       0.01289307 Ry

     iteration # 71     ecut=    80.00 Ry     beta= 0.10
     Davidson diagonalization with overlap
     ethr =  4.79E-07,  avg # of iterations =  1.0

     negative rho (up, down):  5.928E-02 0.000E+00

     total cpu time spent up to now is    21155.9 secs

     total energy              =  -11682.10536075 Ry
     estimated scf accuracy    <       0.01615090 Ry

     iteration # 72     ecut=    80.00 Ry     beta= 0.10
     Davidson diagonalization with overlap
     ethr =  4.79E-07,  avg # of iterations =  1.0

     negative rho (up, down):  5.928E-02 0.000E+00

     total cpu time spent up to now is    21438.1 secs

     total energy              =  -11682.10539537 Ry
     estimated scf accuracy    <       0.00991355 Ry

     iteration # 73     ecut=    80.00 Ry     beta= 0.10
     Davidson diagonalization with overlap
     ethr =  4.79E-07,  avg # of iterations =  1.0

     negative rho (up, down):  5.929E-02 0.000E+00

     total cpu time spent up to now is    21720.4 secs

     total energy              =  -11682.10530906 Ry
     estimated scf accuracy    <       0.02150689 Ry

     iteration # 74     ecut=    80.00 Ry     beta= 0.10
     Davidson diagonalization with overlap
     ethr =  4.79E-07,  avg # of iterations =  1.0

     negative rho (up, down):  5.932E-02 0.000E+00

     total cpu time spent up to now is    22002.2 secs

     total energy              =  -11682.10524298 Ry
     estimated scf accuracy    <       0.04436436 Ry

     iteration # 75     ecut=    80.00 Ry     beta= 0.10
     Davidson diagonalization with overlap
     ethr =  4.79E-07,  avg # of iterations =  1.0

     negative rho (up, down):  5.934E-02 0.000E+00

     total cpu time spent up to now is    22294.8 secs

     total energy              =  -11682.10552566 Ry
     estimated scf accuracy    <       0.01243732 Ry

     iteration # 76     ecut=    80.00 Ry     beta= 0.10
     Davidson diagonalization with overlap
     ethr =  4.79E-07,  avg # of iterations =  1.0

     negative rho (up, down):  5.935E-02 0.000E+00

     total cpu time spent up to now is    22576.7 secs

     total energy              =  -11682.10553655 Ry
     estimated scf accuracy    <       0.00658848 Ry

     iteration # 77     ecut=    80.00 Ry     beta= 0.10
     Davidson diagonalization with overlap
     ethr =  3.52E-07,  avg # of iterations =  1.0

     negative rho (up, down):  5.932E-02 0.000E+00

     total cpu time spent up to now is    22858.4 secs

     total energy              =  -11682.10533894 Ry
     estimated scf accuracy    <       0.03157720 Ry

     iteration # 78     ecut=    80.00 Ry     beta= 0.10
     Davidson diagonalization with overlap
     ethr =  3.52E-07,  avg # of iterations =  1.0

     negative rho (up, down):  5.935E-02 0.000E+00

     total cpu time spent up to now is    23141.2 secs

     total energy              =  -11682.10552958 Ry
     estimated scf accuracy    <       0.00946459 Ry

     iteration # 79     ecut=    80.00 Ry     beta= 0.10
     Davidson diagonalization with overlap
     ethr =  3.52E-07,  avg # of iterations =  1.0

     negative rho (up, down):  5.937E-02 0.000E+00

     total cpu time spent up to now is    23423.6 secs

     total energy              =  -11682.10562137 Ry
     estimated scf accuracy    <       0.00528170 Ry

     iteration # 80     ecut=    80.00 Ry     beta= 0.10
     Davidson diagonalization with overlap
     ethr =  2.82E-07,  avg # of iterations =  1.0

     negative rho (up, down):  5.937E-02 0.000E+00

     total cpu time spent up to now is    23705.5 secs

     total energy              =  -11682.10562975 Ry
     estimated scf accuracy    <       0.00607317 Ry

     iteration # 81     ecut=    80.00 Ry     beta= 0.10
     Davidson diagonalization with overlap
     ethr =  2.82E-07,  avg # of iterations =  1.0

     negative rho (up, down):  5.937E-02 0.000E+00

     total cpu time spent up to now is    23988.2 secs

     total energy              =  -11682.10562586 Ry
     estimated scf accuracy    <       0.00739632 Ry

     iteration # 82     ecut=    80.00 Ry     beta= 0.10
     Davidson diagonalization with overlap
     ethr =  2.82E-07,  avg # of iterations =  1.0

     negative rho (up, down):  5.938E-02 0.000E+00

     total cpu time spent up to now is    24270.9 secs

     total energy              =  -11682.10566602 Ry
     estimated scf accuracy    <       0.00357736 Ry

     iteration # 83     ecut=    80.00 Ry     beta= 0.10
     Davidson diagonalization with overlap
     ethr =  1.91E-07,  avg # of iterations =  1.0

     negative rho (up, down):  5.940E-02 0.000E+00

     total cpu time spent up to now is    24553.8 secs

     total energy              =  -11682.10567882 Ry
     estimated scf accuracy    <       0.00605459 Ry

     iteration # 84     ecut=    80.00 Ry     beta= 0.10
     Davidson diagonalization with overlap
     ethr =  1.91E-07,  avg # of iterations =  1.0

     negative rho (up, down):  5.941E-02 0.000E+00

     total cpu time spent up to now is    24835.7 secs

     total energy              =  -11682.10564822 Ry
     estimated scf accuracy    <       0.01122699 Ry

     iteration # 85     ecut=    80.00 Ry     beta= 0.10
     Davidson diagonalization with overlap
     ethr =  1.91E-07,  avg # of iterations =  1.0

     negative rho (up, down):  5.942E-02 0.000E+00

     total cpu time spent up to now is    25117.6 secs

     total energy              =  -11682.10571725 Ry
     estimated scf accuracy    <       0.00427418 Ry

     iteration # 86     ecut=    80.00 Ry     beta= 0.10
     Davidson diagonalization with overlap
     ethr =  1.91E-07,  avg # of iterations =  1.0

     negative rho (up, down):  5.943E-02 0.000E+00

     total cpu time spent up to now is    25399.9 secs

     total energy              =  -11682.10574753 Ry
     estimated scf accuracy    <       0.00224141 Ry

     iteration # 87     ecut=    80.00 Ry     beta= 0.10
     Davidson diagonalization with overlap
     ethr =  1.20E-07,  avg # of iterations =  1.0

     negative rho (up, down):  5.942E-02 0.000E+00

     total cpu time spent up to now is    25682.1 secs

     total energy              =  -11682.10566821 Ry
     estimated scf accuracy    <       0.01133897 Ry

     iteration # 88     ecut=    80.00 Ry     beta= 0.10
     Davidson diagonalization with overlap
     ethr =  1.20E-07,  avg # of iterations =  1.0

     negative rho (up, down):  5.944E-02 0.000E+00

     total cpu time spent up to now is    25964.0 secs

     total energy              =  -11682.10570212 Ry
     estimated scf accuracy    <       0.00678653 Ry

     iteration # 89     ecut=    80.00 Ry     beta= 0.10
     Davidson diagonalization with overlap
     ethr =  1.20E-07,  avg # of iterations =  1.0

     negative rho (up, down):  5.945E-02 0.000E+00

     total cpu time spent up to now is    26245.9 secs

     total energy              =  -11682.10576488 Ry
     estimated scf accuracy    <       0.00332519 Ry

     iteration # 90     ecut=    80.00 Ry     beta= 0.10
     Davidson diagonalization with overlap
     ethr =  1.20E-07,  avg # of iterations =  1.0

     negative rho (up, down):  5.946E-02 0.000E+00

     total cpu time spent up to now is    26534.6 secs

     total energy              =  -11682.10576750 Ry
     estimated scf accuracy    <       0.00366380 Ry

     iteration # 91     ecut=    80.00 Ry     beta= 0.10
     Davidson diagonalization with overlap
     ethr =  1.20E-07,  avg # of iterations =  1.0

     negative rho (up, down):  5.945E-02 0.000E+00

     total cpu time spent up to now is    26816.4 secs

     total energy              =  -11682.10575320 Ry
     estimated scf accuracy    <       0.00480478 Ry

     iteration # 92     ecut=    80.00 Ry     beta= 0.10
     Davidson diagonalization with overlap
     ethr =  1.20E-07,  avg # of iterations =  1.0

     negative rho (up, down):  5.946E-02 0.000E+00

     total cpu time spent up to now is    27099.0 secs

     total energy              =  -11682.10578155 Ry
     estimated scf accuracy    <       0.00262936 Ry

     iteration # 93     ecut=    80.00 Ry     beta= 0.10
     Davidson diagonalization with overlap
     ethr =  1.20E-07,  avg # of iterations =  1.0

     negative rho (up, down):  5.948E-02 0.000E+00

     total cpu time spent up to now is    27381.4 secs

     total energy              =  -11682.10580667 Ry
     estimated scf accuracy    <       0.00294918 Ry

     iteration # 94     ecut=    80.00 Ry     beta= 0.10
     Davidson diagonalization with overlap
     ethr =  1.20E-07,  avg # of iterations =  1.0

     negative rho (up, down):  5.947E-02 0.000E+00

     total cpu time spent up to now is    27664.9 secs

     total energy              =  -11682.10578956 Ry
     estimated scf accuracy    <       0.00379127 Ry

     iteration # 95     ecut=    80.00 Ry     beta= 0.10
     Davidson diagonalization with overlap
     ethr =  1.20E-07,  avg # of iterations =  1.0

     negative rho (up, down):  5.948E-02 0.000E+00

     total cpu time spent up to now is    27947.7 secs

     total energy              =  -11682.10581252 Ry
     estimated scf accuracy    <       0.00215771 Ry

     iteration # 96     ecut=    80.00 Ry     beta= 0.10
     Davidson diagonalization with overlap
     ethr =  1.15E-07,  avg # of iterations =  1.0

     negative rho (up, down):  5.949E-02 0.000E+00

     total cpu time spent up to now is    28229.6 secs

     total energy              =  -11682.10583633 Ry
     estimated scf accuracy    <       0.00085080 Ry

     iteration # 97     ecut=    80.00 Ry     beta= 0.10
     Davidson diagonalization with overlap
     ethr =  4.54E-08,  avg # of iterations =  1.0

     negative rho (up, down):  5.950E-02 0.000E+00

     total cpu time spent up to now is    28511.4 secs

     total energy              =  -11682.10582615 Ry
     estimated scf accuracy    <       0.00262775 Ry

     iteration # 98     ecut=    80.00 Ry     beta= 0.10
     Davidson diagonalization with overlap
     ethr =  4.54E-08,  avg # of iterations =  1.0

     negative rho (up, down):  5.950E-02 0.000E+00

     total cpu time spent up to now is    28794.3 secs

     total energy              =  -11682.10581672 Ry
     estimated scf accuracy    <       0.00388027 Ry

     iteration # 99     ecut=    80.00 Ry     beta= 0.10
     Davidson diagonalization with overlap
     ethr =  4.54E-08,  avg # of iterations =  1.0

     negative rho (up, down):  5.951E-02 0.000E+00

     total cpu time spent up to now is    29076.5 secs

     total energy              =  -11682.10584185 Ry
     estimated scf accuracy    <       0.00186204 Ry

     iteration #100     ecut=    80.00 Ry     beta= 0.10
     Davidson diagonalization with overlap
     ethr =  4.54E-08,  avg # of iterations =  1.0

     negative rho (up, down):  5.951E-02 0.000E+00

     total cpu time spent up to now is    29358.3 secs

     total energy              =  -11682.10584890 Ry
     estimated scf accuracy    <       0.00188672 Ry

     iteration #101     ecut=    80.00 Ry     beta= 0.10
     Davidson diagonalization with overlap
     ethr =  4.54E-08,  avg # of iterations =  1.0

     negative rho (up, down):  5.951E-02 0.000E+00

     total cpu time spent up to now is    29640.4 secs

     total energy              =  -11682.10583318 Ry
     estimated scf accuracy    <       0.00267007 Ry

     iteration #102     ecut=    80.00 Ry     beta= 0.10
     Davidson diagonalization with overlap
     ethr =  4.54E-08,  avg # of iterations =  1.0

     negative rho (up, down):  5.951E-02 0.000E+00

     total cpu time spent up to now is    29922.6 secs

     total energy              =  -11682.10584505 Ry
     estimated scf accuracy    <       0.00241194 Ry

     iteration #103     ecut=    80.00 Ry     beta= 0.10
     Davidson diagonalization with overlap
     ethr =  4.54E-08,  avg # of iterations =  1.0

     negative rho (up, down):  5.953E-02 0.000E+00

     total cpu time spent up to now is    30204.4 secs

     total energy              =  -11682.10586791 Ry
     estimated scf accuracy    <       0.00237314 Ry

     iteration #104     ecut=    80.00 Ry     beta= 0.10
     Davidson diagonalization with overlap
     ethr =  4.54E-08,  avg # of iterations =  1.0

     negative rho (up, down):  5.953E-02 0.000E+00

     total cpu time spent up to now is    30487.2 secs

     total energy              =  -11682.10585619 Ry
     estimated scf accuracy    <       0.00173542 Ry

     iteration #105     ecut=    80.00 Ry     beta= 0.10
     Davidson diagonalization with overlap
     ethr =  4.54E-08,  avg # of iterations =  1.0

     negative rho (up, down):  5.953E-02 0.000E+00

     total cpu time spent up to now is    30769.1 secs

     total energy              =  -11682.10586378 Ry
     estimated scf accuracy    <       0.00183242 Ry

     iteration #106     ecut=    80.00 Ry     beta= 0.10
     Davidson diagonalization with overlap
     ethr =  4.54E-08,  avg # of iterations =  1.0

     negative rho (up, down):  5.954E-02 0.000E+00

     total cpu time spent up to now is    31051.5 secs

     total energy              =  -11682.10588190 Ry
     estimated scf accuracy    <       0.00050706 Ry

     iteration #107     ecut=    80.00 Ry     beta= 0.10
     Davidson diagonalization with overlap
     ethr =  2.71E-08,  avg # of iterations =  1.0

     negative rho (up, down):  5.955E-02 0.000E+00

     total cpu time spent up to now is    31332.9 secs

     total energy              =  -11682.10588755 Ry
     estimated scf accuracy    <       0.00064691 Ry

     iteration #108     ecut=    80.00 Ry     beta= 0.10
     Davidson diagonalization with overlap
     ethr =  2.71E-08,  avg # of iterations =  1.0

     negative rho (up, down):  5.955E-02 0.000E+00

     total cpu time spent up to now is    31614.9 secs

     total energy              =  -11682.10587973 Ry
     estimated scf accuracy    <       0.00176824 Ry

     iteration #109     ecut=    80.00 Ry     beta= 0.10
     Davidson diagonalization with overlap
     ethr =  2.71E-08,  avg # of iterations =  1.0

     negative rho (up, down):  5.955E-02 0.000E+00

     total cpu time spent up to now is    31897.0 secs

     total energy              =  -11682.10588736 Ry
     estimated scf accuracy    <       0.00081379 Ry

     iteration #110     ecut=    80.00 Ry     beta= 0.10
     Davidson diagonalization with overlap
     ethr =  2.71E-08,  avg # of iterations =  1.0

     negative rho (up, down):  5.956E-02 0.000E+00

     total cpu time spent up to now is    32180.0 secs

     total energy              =  -11682.10589388 Ry
     estimated scf accuracy    <       0.00099994 Ry

     iteration #111     ecut=    80.00 Ry     beta= 0.10
     Davidson diagonalization with overlap
     ethr =  2.71E-08,  avg # of iterations =  1.0

     negative rho (up, down):  5.956E-02 0.000E+00

     total cpu time spent up to now is    32461.5 secs

     total energy              =  -11682.10588541 Ry
     estimated scf accuracy    <       0.00119782 Ry

     iteration #112     ecut=    80.00 Ry     beta= 0.10
     Davidson diagonalization with overlap
     ethr =  2.71E-08,  avg # of iterations =  1.0

     negative rho (up, down):  5.956E-02 0.000E+00

     total cpu time spent up to now is    32743.4 secs

     total energy              =  -11682.10588702 Ry
     estimated scf accuracy    <       0.00182721 Ry

     iteration #113     ecut=    80.00 Ry     beta= 0.10
     Davidson diagonalization with overlap
     ethr =  2.71E-08,  avg # of iterations =  1.0

     negative rho (up, down):  5.958E-02 0.000E+00

     total cpu time spent up to now is    33025.9 secs

     total energy              =  -11682.10590054 Ry
     estimated scf accuracy    <       0.00190137 Ry

     iteration #114     ecut=    80.00 Ry     beta= 0.10
     Davidson diagonalization with overlap
     ethr =  2.71E-08,  avg # of iterations =  1.0

     negative rho (up, down):  5.957E-02 0.000E+00

     total cpu time spent up to now is    33315.5 secs

     total energy              =  -11682.10589747 Ry
     estimated scf accuracy    <       0.00079891 Ry

     iteration #115     ecut=    80.00 Ry     beta= 0.10
     Davidson diagonalization with overlap
     ethr =  2.71E-08,  avg # of iterations =  1.0

     negative rho (up, down):  5.957E-02 0.000E+00

     total cpu time spent up to now is    33597.2 secs

     total energy              =  -11682.10589527 Ry
     estimated scf accuracy    <       0.00147915 Ry

     iteration #116     ecut=    80.00 Ry     beta= 0.10
     Davidson diagonalization with overlap
     ethr =  2.71E-08,  avg # of iterations =  1.0

     negative rho (up, down):  5.958E-02 0.000E+00

     total cpu time spent up to now is    33879.8 secs

     total energy              =  -11682.10590767 Ry
     estimated scf accuracy    <       0.00039704 Ry

     iteration #117     ecut=    80.00 Ry     beta= 0.10
     Davidson diagonalization with overlap
     ethr =  2.12E-08,  avg # of iterations =  1.0

     negative rho (up, down):  5.959E-02 0.000E+00

     total cpu time spent up to now is    34162.2 secs

     total energy              =  -11682.10591332 Ry
     estimated scf accuracy    <       0.00034360 Ry

     iteration #118     ecut=    80.00 Ry     beta= 0.10
     Davidson diagonalization with overlap
     ethr =  1.84E-08,  avg # of iterations =  1.0

     negative rho (up, down):  5.959E-02 0.000E+00

     total cpu time spent up to now is    34445.2 secs

     total energy              =  -11682.10591140 Ry
     estimated scf accuracy    <       0.00064883 Ry

     iteration #119     ecut=    80.00 Ry     beta= 0.10
     Davidson diagonalization with overlap
     ethr =  1.84E-08,  avg # of iterations =  1.0

     negative rho (up, down):  5.959E-02 0.000E+00

     total cpu time spent up to now is    34727.6 secs

     total energy              =  -11682.10591230 Ry
     estimated scf accuracy    <       0.00040319 Ry

     iteration #120     ecut=    80.00 Ry     beta= 0.10
     Davidson diagonalization with overlap
     ethr =  1.84E-08,  avg # of iterations =  1.0

     negative rho (up, down):  5.959E-02 0.000E+00

     total cpu time spent up to now is    35010.0 secs

     total energy              =  -11682.10591667 Ry
     estimated scf accuracy    <       0.00046769 Ry

     iteration #121     ecut=    80.00 Ry     beta= 0.10
     Davidson diagonalization with overlap
     ethr =  1.84E-08,  avg # of iterations =  1.0

     negative rho (up, down):  5.959E-02 0.000E+00

     total cpu time spent up to now is    35292.5 secs

     total energy              =  -11682.10591606 Ry
     estimated scf accuracy    <       0.00040448 Ry

     iteration #122     ecut=    80.00 Ry     beta= 0.10
     Davidson diagonalization with overlap
     ethr =  1.84E-08,  avg # of iterations =  1.0

     negative rho (up, down):  5.960E-02 0.000E+00

     total cpu time spent up to now is    35575.1 secs

     total energy              =  -11682.10591521 Ry
     estimated scf accuracy    <       0.00090777 Ry

     iteration #123     ecut=    80.00 Ry     beta= 0.10
     Davidson diagonalization with overlap
     ethr =  1.84E-08,  avg # of iterations =  1.0

     negative rho (up, down):  5.961E-02 0.000E+00

     total cpu time spent up to now is    35856.6 secs

     total energy              =  -11682.10592031 Ry
     estimated scf accuracy    <       0.00090872 Ry

     iteration #124     ecut=    80.00 Ry     beta= 0.10
     Davidson diagonalization with overlap
     ethr =  1.84E-08,  avg # of iterations =  1.0

     negative rho (up, down):  5.960E-02 0.000E+00

     total cpu time spent up to now is    36138.9 secs

     total energy              =  -11682.10592027 Ry
     estimated scf accuracy    <       0.00029115 Ry

     iteration #125     ecut=    80.00 Ry     beta= 0.10
     Davidson diagonalization with overlap
     ethr =  1.56E-08,  avg # of iterations =  1.0

     negative rho (up, down):  5.960E-02 0.000E+00

     total cpu time spent up to now is    36420.5 secs

     total energy              =  -11682.10591580 Ry
     estimated scf accuracy    <       0.00104018 Ry

     iteration #126     ecut=    80.00 Ry     beta= 0.10
     Davidson diagonalization with overlap
     ethr =  1.56E-08,  avg # of iterations =  1.0

     negative rho (up, down):  5.961E-02 0.000E+00

     total cpu time spent up to now is    36702.5 secs

     total energy              =  -11682.10592258 Ry
     estimated scf accuracy    <       0.00034598 Ry

     iteration #127     ecut=    80.00 Ry     beta= 0.10
     Davidson diagonalization with overlap
     ethr =  1.56E-08,  avg # of iterations =  1.0

     negative rho (up, down):  5.961E-02 0.000E+00

     total cpu time spent up to now is    36984.4 secs

     total energy              =  -11682.10592731 Ry
     estimated scf accuracy    <       0.00022612 Ry

     iteration #128     ecut=    80.00 Ry     beta= 0.10
     Davidson diagonalization with overlap
     ethr =  1.21E-08,  avg # of iterations =  1.0

     negative rho (up, down):  5.961E-02 0.000E+00

     total cpu time spent up to now is    37265.8 secs

     total energy              =  -11682.10592661 Ry
     estimated scf accuracy    <       0.00031015 Ry

     iteration #129     ecut=    80.00 Ry     beta= 0.10
     Davidson diagonalization with overlap
     ethr =  1.21E-08,  avg # of iterations =  1.0

     negative rho (up, down):  5.961E-02 0.000E+00

     total cpu time spent up to now is    37547.4 secs

     total energy              =  -11682.10592597 Ry
     estimated scf accuracy    <       0.00021943 Ry

     iteration #130     ecut=    80.00 Ry     beta= 0.10
     Davidson diagonalization with overlap
     ethr =  1.17E-08,  avg # of iterations =  1.0

     negative rho (up, down):  5.962E-02 0.000E+00

     total cpu time spent up to now is    37837.6 secs

     total energy              =  -11682.10592844 Ry
     estimated scf accuracy    <       0.00028171 Ry

     iteration #131     ecut=    80.00 Ry     beta= 0.10
     Davidson diagonalization with overlap
     ethr =  1.17E-08,  avg # of iterations =  1.0

     negative rho (up, down):  5.962E-02 0.000E+00

     total cpu time spent up to now is    38120.0 secs

     total energy              =  -11682.10592996 Ry
     estimated scf accuracy    <       0.00013844 Ry

     iteration #132     ecut=    80.00 Ry     beta= 0.10
     Davidson diagonalization with overlap
     ethr =  7.40E-09,  avg # of iterations =  1.0

     negative rho (up, down):  5.962E-02 0.000E+00

     total cpu time spent up to now is    38401.8 secs

     total energy              =  -11682.10592968 Ry
     estimated scf accuracy    <       0.00032568 Ry

     iteration #133     ecut=    80.00 Ry     beta= 0.10
     Davidson diagonalization with overlap
     ethr =  7.40E-09,  avg # of iterations =  1.0

     negative rho (up, down):  5.963E-02 0.000E+00

     total cpu time spent up to now is    38683.4 secs

     total energy              =  -11682.10593095 Ry
     estimated scf accuracy    <       0.00033282 Ry

     iteration #134     ecut=    80.00 Ry     beta= 0.10
     Davidson diagonalization with overlap
     ethr =  7.40E-09,  avg # of iterations =  1.0

     negative rho (up, down):  5.963E-02 0.000E+00

     total cpu time spent up to now is    38965.3 secs

     total energy              =  -11682.10593197 Ry
     estimated scf accuracy    <       0.00010639 Ry

     iteration #135     ecut=    80.00 Ry     beta= 0.10
     Davidson diagonalization with overlap
     ethr =  5.68E-09,  avg # of iterations =  1.0

     negative rho (up, down):  5.963E-02 0.000E+00

     total cpu time spent up to now is    39246.9 secs

     total energy              =  -11682.10592953 Ry
     estimated scf accuracy    <       0.00050906 Ry

     iteration #136     ecut=    80.00 Ry     beta= 0.10
     Davidson diagonalization with overlap
     ethr =  5.68E-09,  avg # of iterations =  1.0

     negative rho (up, down):  5.963E-02 0.000E+00

     total cpu time spent up to now is    39529.3 secs

     total energy              =  -11682.10593166 Ry
     estimated scf accuracy    <       0.00021767 Ry

     iteration #137     ecut=    80.00 Ry     beta= 0.10
     Davidson diagonalization with overlap
     ethr =  5.68E-09,  avg # of iterations =  1.0

     negative rho (up, down):  5.963E-02 0.000E+00

     total cpu time spent up to now is    39812.1 secs

     total energy              =  -11682.10593449 Ry
     estimated scf accuracy    <       0.00013289 Ry

     iteration #138     ecut=    80.00 Ry     beta= 0.10
     Davidson diagonalization with overlap
     ethr =  5.68E-09,  avg # of iterations =  1.0

     negative rho (up, down):  5.963E-02 0.000E+00

     total cpu time spent up to now is    40094.4 secs

     total energy              =  -11682.10593460 Ry
     estimated scf accuracy    <       0.00014861 Ry

     iteration #139     ecut=    80.00 Ry     beta= 0.10
     Davidson diagonalization with overlap
     ethr =  5.68E-09,  avg # of iterations =  1.0

     negative rho (up, down):  5.963E-02 0.000E+00

     total cpu time spent up to now is    40377.1 secs

     total energy              =  -11682.10593367 Ry
     estimated scf accuracy    <       0.00011446 Ry

     iteration #140     ecut=    80.00 Ry     beta= 0.10
     Davidson diagonalization with overlap
     ethr =  5.68E-09,  avg # of iterations =  1.0

     negative rho (up, down):  5.963E-02 0.000E+00

     total cpu time spent up to now is    40658.0 secs

     total energy              =  -11682.10593467 Ry
     estimated scf accuracy    <       0.00018674 Ry

     iteration #141     ecut=    80.00 Ry     beta= 0.10
     Davidson diagonalization with overlap
     ethr =  5.68E-09,  avg # of iterations =  1.0

     negative rho (up, down):  5.964E-02 0.000E+00

     total cpu time spent up to now is    40939.4 secs

     total energy              =  -11682.10593626 Ry
     estimated scf accuracy    <       0.00006671 Ry

     iteration #142     ecut=    80.00 Ry     beta= 0.10
     Davidson diagonalization with overlap
     ethr =  3.56E-09,  avg # of iterations =  1.0

     negative rho (up, down):  5.964E-02 0.000E+00

     total cpu time spent up to now is    41221.2 secs

     total energy              =  -11682.10593624 Ry
     estimated scf accuracy    <       0.00013186 Ry

     iteration #143     ecut=    80.00 Ry     beta= 0.10
     Davidson diagonalization with overlap
     ethr =  3.56E-09,  avg # of iterations =  1.0

     negative rho (up, down):  5.964E-02 0.000E+00

     total cpu time spent up to now is    41503.4 secs

     total energy              =  -11682.10593626 Ry
     estimated scf accuracy    <       0.00013407 Ry

     iteration #144     ecut=    80.00 Ry     beta= 0.10
     Davidson diagonalization with overlap
     ethr =  3.56E-09,  avg # of iterations =  1.0

     negative rho (up, down):  5.964E-02 0.000E+00

     total cpu time spent up to now is    41785.4 secs

     total energy              =  -11682.10593727 Ry
     estimated scf accuracy    <       0.00004932 Ry

     iteration #145     ecut=    80.00 Ry     beta= 0.10
     Davidson diagonalization with overlap
     ethr =  2.63E-09,  avg # of iterations =  1.0

     negative rho (up, down):  5.964E-02 0.000E+00

     total cpu time spent up to now is    42067.9 secs

     total energy              =  -11682.10593668 Ry
     estimated scf accuracy    <       0.00020000 Ry

     iteration #146     ecut=    80.00 Ry     beta= 0.10
     Davidson diagonalization with overlap
     ethr =  2.63E-09,  avg # of iterations =  1.0

     negative rho (up, down):  5.964E-02 0.000E+00

     total cpu time spent up to now is    42350.0 secs

     total energy              =  -11682.10593715 Ry
     estimated scf accuracy    <       0.00009299 Ry

     iteration #147     ecut=    80.00 Ry     beta= 0.10
     Davidson diagonalization with overlap
     ethr =  2.63E-09,  avg # of iterations =  1.0

     negative rho (up, down):  5.965E-02 0.000E+00

     total cpu time spent up to now is    42633.3 secs

     total energy              =  -11682.10593832 Ry
     estimated scf accuracy    <       0.00007071 Ry

     iteration #148     ecut=    80.00 Ry     beta= 0.10
     Davidson diagonalization with overlap
     ethr =  2.63E-09,  avg # of iterations =  1.0

     negative rho (up, down):  5.965E-02 0.000E+00

     total cpu time spent up to now is    42915.2 secs

     total energy              =  -11682.10593861 Ry
     estimated scf accuracy    <       0.00006767 Ry

     iteration #149     ecut=    80.00 Ry     beta= 0.10
     Davidson diagonalization with overlap
     ethr =  2.63E-09,  avg # of iterations =  1.0

     negative rho (up, down):  5.965E-02 0.000E+00

     total cpu time spent up to now is    43197.4 secs

     total energy              =  -11682.10593804 Ry
     estimated scf accuracy    <       0.00005650 Ry

     iteration #150     ecut=    80.00 Ry     beta= 0.10
     Davidson diagonalization with overlap
     ethr =  2.63E-09,  avg # of iterations =  1.0

     negative rho (up, down):  5.965E-02 0.000E+00

     total cpu time spent up to now is    43478.7 secs

     total energy              =  -11682.10593814 Ry
     estimated scf accuracy    <       0.00013563 Ry

     iteration #151     ecut=    80.00 Ry     beta= 0.10
     Davidson diagonalization with overlap
     ethr =  2.63E-09,  avg # of iterations =  1.0

     negative rho (up, down):  5.965E-02 0.000E+00

     total cpu time spent up to now is    43760.4 secs

     total energy              =  -11682.10593938 Ry
     estimated scf accuracy    <       0.00004377 Ry

     iteration #152     ecut=    80.00 Ry     beta= 0.10
     Davidson diagonalization with overlap
     ethr =  2.34E-09,  avg # of iterations =  1.0

     negative rho (up, down):  5.965E-02 0.000E+00

     total cpu time spent up to now is    44042.7 secs

     total energy              =  -11682.10593942 Ry
     estimated scf accuracy    <       0.00007268 Ry

     iteration #153     ecut=    80.00 Ry     beta= 0.10
     Davidson diagonalization with overlap
     ethr =  2.34E-09,  avg # of iterations =  1.0

     negative rho (up, down):  5.965E-02 0.000E+00

     total cpu time spent up to now is    44325.0 secs

     total energy              =  -11682.10593913 Ry
     estimated scf accuracy    <       0.00006831 Ry

     iteration #154     ecut=    80.00 Ry     beta= 0.10
     Davidson diagonalization with overlap
     ethr =  2.34E-09,  avg # of iterations =  1.0

     negative rho (up, down):  5.965E-02 0.000E+00

     total cpu time spent up to now is    44607.2 secs

     total energy              =  -11682.10593993 Ry
     estimated scf accuracy    <       0.00002816 Ry

     iteration #155     ecut=    80.00 Ry     beta= 0.10
     Davidson diagonalization with overlap
     ethr =  1.50E-09,  avg # of iterations =  1.0

     negative rho (up, down):  5.965E-02 0.000E+00

     total cpu time spent up to now is    44890.3 secs

     total energy              =  -11682.10593989 Ry
     estimated scf accuracy    <       0.00007975 Ry

     iteration #156     ecut=    80.00 Ry     beta= 0.10
     Davidson diagonalization with overlap
     ethr =  1.50E-09,  avg # of iterations =  1.0

     negative rho (up, down):  5.965E-02 0.000E+00

     total cpu time spent up to now is    45173.6 secs

     total energy              =  -11682.10593996 Ry
     estimated scf accuracy    <       0.00003901 Ry

     iteration #157     ecut=    80.00 Ry     beta= 0.10
     Davidson diagonalization with overlap
     ethr =  1.50E-09,  avg # of iterations =  1.0

     negative rho (up, down):  5.966E-02 0.000E+00

     total cpu time spent up to now is    45455.6 secs

     total energy              =  -11682.10594037 Ry
     estimated scf accuracy    <       0.00003849 Ry

     iteration #158     ecut=    80.00 Ry     beta= 0.10
     Davidson diagonalization with overlap
     ethr =  1.50E-09,  avg # of iterations =  1.0

     negative rho (up, down):  5.966E-02 0.000E+00

     total cpu time spent up to now is    45737.0 secs

     total energy              =  -11682.10594066 Ry
     estimated scf accuracy    <       0.00003093 Ry

     iteration #159     ecut=    80.00 Ry     beta= 0.10
     Davidson diagonalization with overlap
     ethr =  1.50E-09,  avg # of iterations =  1.0

     negative rho (up, down):  5.966E-02 0.000E+00

     total cpu time spent up to now is    46019.8 secs

     total energy              =  -11682.10594051 Ry
     estimated scf accuracy    <       0.00002673 Ry

     iteration #160     ecut=    80.00 Ry     beta= 0.10
     Davidson diagonalization with overlap
     ethr =  1.43E-09,  avg # of iterations =  1.0

     negative rho (up, down):  5.966E-02 0.000E+00

     total cpu time spent up to now is    46302.6 secs

     total energy              =  -11682.10594026 Ry
     estimated scf accuracy    <       0.00008673 Ry

     iteration #161     ecut=    80.00 Ry     beta= 0.10
     Davidson diagonalization with overlap
     ethr =  1.43E-09,  avg # of iterations =  1.0

     negative rho (up, down):  5.966E-02 0.000E+00

     total cpu time spent up to now is    46585.4 secs

     total energy              =  -11682.10594106 Ry
     estimated scf accuracy    <       0.00003259 Ry

     iteration #162     ecut=    80.00 Ry     beta= 0.10
     Davidson diagonalization with overlap
     ethr =  1.43E-09,  avg # of iterations =  1.0

     negative rho (up, down):  5.966E-02 0.000E+00

     total cpu time spent up to now is    46866.8 secs

     total energy              =  -11682.10594114 Ry
     estimated scf accuracy    <       0.00004221 Ry

     iteration #163     ecut=    80.00 Ry     beta= 0.10
     Davidson diagonalization with overlap
     ethr =  1.43E-09,  avg # of iterations =  1.0

     negative rho (up, down):  5.966E-02 0.000E+00

     total cpu time spent up to now is    47148.9 secs

     total energy              =  -11682.10594078 Ry
     estimated scf accuracy    <       0.00003698 Ry

     iteration #164     ecut=    80.00 Ry     beta= 0.10
     Davidson diagonalization with overlap
     ethr =  1.43E-09,  avg # of iterations =  1.0

     negative rho (up, down):  5.966E-02 0.000E+00

     total cpu time spent up to now is    47430.8 secs

     total energy              =  -11682.10594130 Ry
     estimated scf accuracy    <       0.00002047 Ry

     iteration #165     ecut=    80.00 Ry     beta= 0.10
     Davidson diagonalization with overlap
     ethr =  1.09E-09,  avg # of iterations =  1.0

     negative rho (up, down):  5.966E-02 0.000E+00

     total cpu time spent up to now is    47713.0 secs

     total energy              =  -11682.10594139 Ry
     estimated scf accuracy    <       0.00003737 Ry

     iteration #166     ecut=    80.00 Ry     beta= 0.10
     Davidson diagonalization with overlap
     ethr =  1.09E-09,  avg # of iterations =  1.0

     negative rho (up, down):  5.966E-02 0.000E+00

     total cpu time spent up to now is    47995.6 secs

     total energy              =  -11682.10594142 Ry
     estimated scf accuracy    <       0.00001814 Ry

     iteration #167     ecut=    80.00 Ry     beta= 0.10
     Davidson diagonalization with overlap
     ethr =  9.69E-10,  avg # of iterations =  1.0

     negative rho (up, down):  5.966E-02 0.000E+00

     total cpu time spent up to now is    48277.5 secs

     total energy              =  -11682.10594152 Ry
     estimated scf accuracy    <       0.00002213 Ry

     iteration #168     ecut=    80.00 Ry     beta= 0.10
     Davidson diagonalization with overlap
     ethr =  9.69E-10,  avg # of iterations =  1.0

     negative rho (up, down):  5.966E-02 0.000E+00

     total cpu time spent up to now is    48559.5 secs

     total energy              =  -11682.10594173 Ry
     estimated scf accuracy    <       0.00001491 Ry

     iteration #169     ecut=    80.00 Ry     beta= 0.10
     Davidson diagonalization with overlap
     ethr =  7.96E-10,  avg # of iterations =  1.0

     negative rho (up, down):  5.967E-02 0.000E+00

     total cpu time spent up to now is    48841.5 secs

     total energy              =  -11682.10594182 Ry
     estimated scf accuracy    <       0.00001219 Ry

     iteration #170     ecut=    80.00 Ry     beta= 0.10
     Davidson diagonalization with overlap
     ethr =  6.51E-10,  avg # of iterations =  1.0

     negative rho (up, down):  5.967E-02 0.000E+00

     total cpu time spent up to now is    49123.6 secs

     total energy              =  -11682.10594159 Ry
     estimated scf accuracy    <       0.00004229 Ry

     iteration #171     ecut=    80.00 Ry     beta= 0.10
     Davidson diagonalization with overlap
     ethr =  6.51E-10,  avg # of iterations =  1.0

     negative rho (up, down):  5.967E-02 0.000E+00

     total cpu time spent up to now is    49406.0 secs

     total energy              =  -11682.10594195 Ry
     estimated scf accuracy    <       0.00002132 Ry

     iteration #172     ecut=    80.00 Ry     beta= 0.10
     Davidson diagonalization with overlap
     ethr =  6.51E-10,  avg # of iterations =  1.0

     negative rho (up, down):  5.967E-02 0.000E+00

     total cpu time spent up to now is    49688.1 secs

     total energy              =  -11682.10594203 Ry
     estimated scf accuracy    <       0.00002149 Ry

     iteration #173     ecut=    80.00 Ry     beta= 0.10
     Davidson diagonalization with overlap
     ethr =  6.51E-10,  avg # of iterations =  1.0

     negative rho (up, down):  5.967E-02 0.000E+00

     total cpu time spent up to now is    49970.4 secs

     total energy              =  -11682.10594176 Ry
     estimated scf accuracy    <       0.00001806 Ry

     iteration #174     ecut=    80.00 Ry     beta= 0.10
     Davidson diagonalization with overlap
     ethr =  6.51E-10,  avg # of iterations =  1.0

     negative rho (up, down):  5.967E-02 0.000E+00

     total cpu time spent up to now is    50253.1 secs

     total energy              =  -11682.10594205 Ry
     estimated scf accuracy    <       0.00001821 Ry

     iteration #175     ecut=    80.00 Ry     beta= 0.10
     Davidson diagonalization with overlap
     ethr =  6.51E-10,  avg # of iterations =  1.0

     negative rho (up, down):  5.967E-02 0.000E+00

     total cpu time spent up to now is    50535.2 secs

     total energy              =  -11682.10594215 Ry
     estimated scf accuracy    <       0.00002134 Ry

     iteration #176     ecut=    80.00 Ry     beta= 0.10
     Davidson diagonalization with overlap
     ethr =  6.51E-10,  avg # of iterations =  1.0

     negative rho (up, down):  5.967E-02 0.000E+00

     total cpu time spent up to now is    50818.3 secs

     total energy              =  -11682.10594219 Ry
     estimated scf accuracy    <       0.00000937 Ry

     iteration #177     ecut=    80.00 Ry     beta= 0.10
     Davidson diagonalization with overlap
     ethr =  5.00E-10,  avg # of iterations =  1.0

     negative rho (up, down):  5.967E-02 0.000E+00

     total cpu time spent up to now is    51100.9 secs

     total energy              =  -11682.10594217 Ry
     estimated scf accuracy    <       0.00001397 Ry

     iteration #178     ecut=    80.00 Ry     beta= 0.10
     Davidson diagonalization with overlap
     ethr =  5.00E-10,  avg # of iterations =  1.0

     negative rho (up, down):  5.967E-02 0.000E+00

     total cpu time spent up to now is    51383.0 secs

     total energy              =  -11682.10594231 Ry
     estimated scf accuracy    <       0.00000868 Ry

     iteration #179     ecut=    80.00 Ry     beta= 0.10
     Davidson diagonalization with overlap
     ethr =  4.64E-10,  avg # of iterations =  1.0

     negative rho (up, down):  5.967E-02 0.000E+00

     total cpu time spent up to now is    51665.0 secs

     total energy              =  -11682.10594243 Ry
     estimated scf accuracy    <       0.00000539 Ry

     iteration #180     ecut=    80.00 Ry     beta= 0.10
     Davidson diagonalization with overlap
     ethr =  2.88E-10,  avg # of iterations =  1.0

     negative rho (up, down):  5.967E-02 0.000E+00

     total cpu time spent up to now is    51948.4 secs

     total energy              =  -11682.10594232 Ry
     estimated scf accuracy    <       0.00001671 Ry

     iteration #181     ecut=    80.00 Ry     beta= 0.10
     Davidson diagonalization with overlap
     ethr =  2.88E-10,  avg # of iterations =  1.0

     negative rho (up, down):  5.967E-02 0.000E+00

     total cpu time spent up to now is    52230.2 secs

     total energy              =  -11682.10594244 Ry
     estimated scf accuracy    <       0.00001173 Ry

     iteration #182     ecut=    80.00 Ry     beta= 0.10
     Davidson diagonalization with overlap
     ethr =  2.88E-10,  avg # of iterations =  1.0

     negative rho (up, down):  5.967E-02 0.000E+00

     total cpu time spent up to now is    52512.2 secs

     total energy              =  -11682.10594250 Ry
     estimated scf accuracy    <       0.00000977 Ry

     iteration #183     ecut=    80.00 Ry     beta= 0.10
     Davidson diagonalization with overlap
     ethr =  2.88E-10,  avg # of iterations =  1.0

     negative rho (up, down):  5.967E-02 0.000E+00

     total cpu time spent up to now is    52794.3 secs

     total energy              =  -11682.10594234 Ry
     estimated scf accuracy    <       0.00000801 Ry

     iteration #184     ecut=    80.00 Ry     beta= 0.10
     Davidson diagonalization with overlap
     ethr =  2.88E-10,  avg # of iterations =  1.0

     negative rho (up, down):  5.967E-02 0.000E+00

     total cpu time spent up to now is    53076.3 secs

     total energy              =  -11682.10594246 Ry
     estimated scf accuracy    <       0.00001671 Ry

     iteration #185     ecut=    80.00 Ry     beta= 0.10
     Davidson diagonalization with overlap
     ethr =  2.88E-10,  avg # of iterations =  1.0

     negative rho (up, down):  5.967E-02 0.000E+00

     total cpu time spent up to now is    53358.4 secs

     total energy              =  -11682.10594255 Ry
     estimated scf accuracy    <       0.00001311 Ry

     iteration #186     ecut=    80.00 Ry     beta= 0.10
     Davidson diagonalization with overlap
     ethr =  2.88E-10,  avg # of iterations =  1.0

     negative rho (up, down):  5.967E-02 0.000E+00

     total cpu time spent up to now is    53641.0 secs

     total energy              =  -11682.10594260 Ry
     estimated scf accuracy    <       0.00000485 Ry

     iteration #187     ecut=    80.00 Ry     beta= 0.10
     Davidson diagonalization with overlap
     ethr =  2.59E-10,  avg # of iterations =  1.0

     negative rho (up, down):  5.967E-02 0.000E+00

     total cpu time spent up to now is    53923.7 secs

     total energy              =  -11682.10594255 Ry
     estimated scf accuracy    <       0.00000831 Ry

     iteration #188     ecut=    80.00 Ry     beta= 0.10
     Davidson diagonalization with overlap
     ethr =  2.59E-10,  avg # of iterations =  1.0

     negative rho (up, down):  5.967E-02 0.000E+00

     total cpu time spent up to now is    54206.5 secs

     total energy              =  -11682.10594261 Ry
     estimated scf accuracy    <       0.00000580 Ry

     iteration #189     ecut=    80.00 Ry     beta= 0.10
     Davidson diagonalization with overlap
     ethr =  2.59E-10,  avg # of iterations =  1.0

     negative rho (up, down):  5.968E-02 0.000E+00

     total cpu time spent up to now is    54488.0 secs

     total energy              =  -11682.10594270 Ry
     estimated scf accuracy    <       0.00000261 Ry

     iteration #190     ecut=    80.00 Ry     beta= 0.10
     Davidson diagonalization with overlap
     ethr =  1.39E-10,  avg # of iterations =  1.0

     negative rho (up, down):  5.968E-02 0.000E+00

     total cpu time spent up to now is    54770.9 secs

     total energy              =  -11682.10594267 Ry
     estimated scf accuracy    <       0.00000611 Ry

     iteration #191     ecut=    80.00 Ry     beta= 0.10
     Davidson diagonalization with overlap
     ethr =  1.39E-10,  avg # of iterations =  1.0

     negative rho (up, down):  5.968E-02 0.000E+00

     total cpu time spent up to now is    55052.3 secs

     total energy              =  -11682.10594269 Ry
     estimated scf accuracy    <       0.00000581 Ry

     iteration #192     ecut=    80.00 Ry     beta= 0.10
     Davidson diagonalization with overlap
     ethr =  1.39E-10,  avg # of iterations =  1.0

     negative rho (up, down):  5.968E-02 0.000E+00

     total cpu time spent up to now is    55334.5 secs

     total energy              =  -11682.10594272 Ry
     estimated scf accuracy    <       0.00000431 Ry

     iteration #193     ecut=    80.00 Ry     beta= 0.10
     Davidson diagonalization with overlap
     ethr =  1.39E-10,  avg # of iterations =  1.0

     negative rho (up, down):  5.968E-02 0.000E+00

     total cpu time spent up to now is    55616.9 secs

     total energy              =  -11682.10594268 Ry
     estimated scf accuracy    <       0.00000332 Ry

     iteration #194     ecut=    80.00 Ry     beta= 0.10
     Davidson diagonalization with overlap
     ethr =  1.39E-10,  avg # of iterations =  1.0

     negative rho (up, down):  5.968E-02 0.000E+00

     total cpu time spent up to now is    55899.7 secs

     total energy              =  -11682.10594270 Ry
     estimated scf accuracy    <       0.00001220 Ry

     iteration #195     ecut=    80.00 Ry     beta= 0.10
     Davidson diagonalization with overlap
     ethr =  1.39E-10,  avg # of iterations =  1.0

     negative rho (up, down):  5.968E-02 0.000E+00

     total cpu time spent up to now is    56181.6 secs

     total energy              =  -11682.10594275 Ry
     estimated scf accuracy    <       0.00000692 Ry

     iteration #196     ecut=    80.00 Ry     beta= 0.10
     Davidson diagonalization with overlap
     ethr =  1.39E-10,  avg # of iterations =  1.0

     negative rho (up, down):  5.968E-02 0.000E+00

     total cpu time spent up to now is    56464.0 secs

     total energy              =  -11682.10594280 Ry
     estimated scf accuracy    <       0.00000232 Ry

     iteration #197     ecut=    80.00 Ry     beta= 0.10
     Davidson diagonalization with overlap
     ethr =  1.24E-10,  avg # of iterations =  1.0

     negative rho (up, down):  5.968E-02 0.000E+00

     total cpu time spent up to now is    56746.5 secs

     total energy              =  -11682.10594275 Ry
     estimated scf accuracy    <       0.00000413 Ry

     iteration #198     ecut=    80.00 Ry     beta= 0.10
     Davidson diagonalization with overlap
     ethr =  1.24E-10,  avg # of iterations =  1.0

     negative rho (up, down):  5.968E-02 0.000E+00

     total cpu time spent up to now is    57028.5 secs

     total energy              =  -11682.10594278 Ry
     estimated scf accuracy    <       0.00000411 Ry

     iteration #199     ecut=    80.00 Ry     beta= 0.10
     Davidson diagonalization with overlap
     ethr =  1.24E-10,  avg # of iterations =  1.0

     negative rho (up, down):  5.968E-02 0.000E+00

     total cpu time spent up to now is    57311.1 secs

     total energy              =  -11682.10594283 Ry
     estimated scf accuracy    <       0.00000162 Ry

     iteration #200     ecut=    80.00 Ry     beta= 0.10
     Davidson diagonalization with overlap
     ethr =  8.67E-11,  avg # of iterations =  1.0

     negative rho (up, down):  5.968E-02 0.000E+00

     total cpu time spent up to now is    57593.2 secs

     total energy              =  -11682.10594283 Ry
     estimated scf accuracy    <       0.00000259 Ry

     iteration #201     ecut=    80.00 Ry     beta= 0.10
     Davidson diagonalization with overlap
     ethr =  8.67E-11,  avg # of iterations =  1.0

     negative rho (up, down):  5.968E-02 0.000E+00

     total cpu time spent up to now is    57875.0 secs

     total energy              =  -11682.10594282 Ry
     estimated scf accuracy    <       0.00000299 Ry

     iteration #202     ecut=    80.00 Ry     beta= 0.10
     Davidson diagonalization with overlap
     ethr =  8.67E-11,  avg # of iterations =  1.0

     negative rho (up, down):  5.968E-02 0.000E+00

     total cpu time spent up to now is    58156.9 secs

     total energy              =  -11682.10594284 Ry
     estimated scf accuracy    <       0.00000215 Ry

     iteration #203     ecut=    80.00 Ry     beta= 0.10
     Davidson diagonalization with overlap
     ethr =  8.67E-11,  avg # of iterations =  1.0

     negative rho (up, down):  5.968E-02 0.000E+00

     total cpu time spent up to now is    58438.7 secs

     total energy              =  -11682.10594284 Ry
     estimated scf accuracy    <       0.00000143 Ry

     iteration #204     ecut=    80.00 Ry     beta= 0.10
     Davidson diagonalization with overlap
     ethr =  7.65E-11,  avg # of iterations =  1.0

     negative rho (up, down):  5.968E-02 0.000E+00

     total cpu time spent up to now is    58721.2 secs

     total energy              =  -11682.10594283 Ry
     estimated scf accuracy    <       0.00000626 Ry

     iteration #205     ecut=    80.00 Ry     beta= 0.10
     Davidson diagonalization with overlap
     ethr =  7.65E-11,  avg # of iterations =  1.0

     negative rho (up, down):  5.968E-02 0.000E+00

     total cpu time spent up to now is    59003.4 secs

     total energy              =  -11682.10594286 Ry
     estimated scf accuracy    <       0.00000316 Ry

     iteration #206     ecut=    80.00 Ry     beta= 0.10
     Davidson diagonalization with overlap
     ethr =  7.65E-11,  avg # of iterations =  1.0

     negative rho (up, down):  5.968E-02 0.000E+00

     total cpu time spent up to now is    59285.8 secs

     total energy              =  -11682.10594288 Ry
     estimated scf accuracy    <       0.00000107 Ry

     iteration #207     ecut=    80.00 Ry     beta= 0.10
     Davidson diagonalization with overlap
     ethr =  5.73E-11,  avg # of iterations =  1.0

     negative rho (up, down):  5.968E-02 0.000E+00

     total cpu time spent up to now is    59567.2 secs

     total energy              =  -11682.10594286 Ry
     estimated scf accuracy    <       0.00000179 Ry

     iteration #208     ecut=    80.00 Ry     beta= 0.10
     Davidson diagonalization with overlap
     ethr =  5.73E-11,  avg # of iterations =  1.0

     negative rho (up, down):  5.968E-02 0.000E+00

     total cpu time spent up to now is    59849.2 secs

     total energy              =  -11682.10594286 Ry
     estimated scf accuracy    <       0.00000272 Ry

     iteration #209     ecut=    80.00 Ry     beta= 0.10
     Davidson diagonalization with overlap
     ethr =  5.73E-11,  avg # of iterations =  1.0

     negative rho (up, down):  5.968E-02 0.000E+00

     total cpu time spent up to now is    60130.8 secs

     total energy              =  -11682.10594289 Ry
     estimated scf accuracy    <       0.00000116 Ry

     iteration #210     ecut=    80.00 Ry     beta= 0.10
     Davidson diagonalization with overlap
     ethr =  5.73E-11,  avg # of iterations =  1.0

     negative rho (up, down):  5.968E-02 0.000E+00

     total cpu time spent up to now is    60412.8 secs

     total energy              =  -11682.10594290 Ry
     estimated scf accuracy    <       0.00000138 Ry

     iteration #211     ecut=    80.00 Ry     beta= 0.10
     Davidson diagonalization with overlap
     ethr =  5.73E-11,  avg # of iterations =  1.0

     negative rho (up, down):  5.968E-02 0.000E+00

     total cpu time spent up to now is    60695.3 secs

     total energy              =  -11682.10594289 Ry
     estimated scf accuracy    <       0.00000158 Ry

     iteration #212     ecut=    80.00 Ry     beta= 0.10
     Davidson diagonalization with overlap
     ethr =  5.73E-11,  avg # of iterations =  1.0

     negative rho (up, down):  5.968E-02 0.000E+00

     total cpu time spent up to now is    60977.5 secs

     total energy              =  -11682.10594289 Ry
     estimated scf accuracy    <       0.00000122 Ry

     iteration #213     ecut=    80.00 Ry     beta= 0.10
     Davidson diagonalization with overlap
     ethr =  5.73E-11,  avg # of iterations =  1.0

     negative rho (up, down):  5.968E-02 0.000E+00

     total cpu time spent up to now is    61259.5 secs

     total energy              =  -11682.10594291 Ry
     estimated scf accuracy    <       0.00000073 Ry

     iteration #214     ecut=    80.00 Ry     beta= 0.10
     Davidson diagonalization with overlap
     ethr =  3.89E-11,  avg # of iterations =  1.0

     negative rho (up, down):  5.968E-02 0.000E+00

     total cpu time spent up to now is    61542.0 secs

     total energy              =  -11682.10594290 Ry
     estimated scf accuracy    <       0.00000253 Ry

     iteration #215     ecut=    80.00 Ry     beta= 0.10
     Davidson diagonalization with overlap
     ethr =  3.89E-11,  avg # of iterations =  1.0

     negative rho (up, down):  5.968E-02 0.000E+00

     total cpu time spent up to now is    61824.3 secs

     total energy              =  -11682.10594291 Ry
     estimated scf accuracy    <       0.00000150 Ry

     iteration #216     ecut=    80.00 Ry     beta= 0.10
     Davidson diagonalization with overlap
     ethr =  3.89E-11,  avg # of iterations =  1.0

     negative rho (up, down):  5.968E-02 0.000E+00

     total cpu time spent up to now is    62107.9 secs

     total energy              =  -11682.10594292 Ry
     estimated scf accuracy    <       0.00000053 Ry

     iteration #217     ecut=    80.00 Ry     beta= 0.10
     Davidson diagonalization with overlap
     ethr =  2.85E-11,  avg # of iterations =  1.0

     negative rho (up, down):  5.968E-02 0.000E+00

     total cpu time spent up to now is    62389.9 secs

     total energy              =  -11682.10594291 Ry
     estimated scf accuracy    <       0.00000073 Ry

     iteration #218     ecut=    80.00 Ry     beta= 0.10
     Davidson diagonalization with overlap
     ethr =  2.85E-11,  avg # of iterations =  1.0

     negative rho (up, down):  5.968E-02 0.000E+00

     total cpu time spent up to now is    62672.4 secs

     total energy              =  -11682.10594291 Ry
     estimated scf accuracy    <       0.00000156 Ry

     iteration #219     ecut=    80.00 Ry     beta= 0.10
     Davidson diagonalization with overlap
     ethr =  2.85E-11,  avg # of iterations =  1.0

     negative rho (up, down):  5.968E-02 0.000E+00

     total cpu time spent up to now is    62956.1 secs

     total energy              =  -11682.10594292 Ry
     estimated scf accuracy    <       0.00000081 Ry

     iteration #220     ecut=    80.00 Ry     beta= 0.10
     Davidson diagonalization with overlap
     ethr =  2.85E-11,  avg # of iterations =  1.0

     negative rho (up, down):  5.968E-02 0.000E+00

     total cpu time spent up to now is    63238.3 secs

     total energy              =  -11682.10594292 Ry
     estimated scf accuracy    <       0.00000078 Ry

     iteration #221     ecut=    80.00 Ry     beta= 0.10
     Davidson diagonalization with overlap
     ethr =  2.85E-11,  avg # of iterations =  1.0

     negative rho (up, down):  5.968E-02 0.000E+00

     total cpu time spent up to now is    63520.6 secs

     total energy              =  -11682.10594292 Ry
     estimated scf accuracy    <       0.00000080 Ry

     iteration #222     ecut=    80.00 Ry     beta= 0.10
     Davidson diagonalization with overlap
     ethr =  2.85E-11,  avg # of iterations =  1.0

     negative rho (up, down):  5.968E-02 0.000E+00

     total cpu time spent up to now is    63802.4 secs

     total energy              =  -11682.10594292 Ry
     estimated scf accuracy    <       0.00000077 Ry

     iteration #223     ecut=    80.00 Ry     beta= 0.10
     Davidson diagonalization with overlap
     ethr =  2.85E-11,  avg # of iterations =  1.0

     negative rho (up, down):  5.968E-02 0.000E+00

     total cpu time spent up to now is    64085.0 secs

     total energy              =  -11682.10594293 Ry
     estimated scf accuracy    <       0.00000047 Ry

     iteration #224     ecut=    80.00 Ry     beta= 0.10
     Davidson diagonalization with overlap
     ethr =  2.49E-11,  avg # of iterations =  1.0

     negative rho (up, down):  5.968E-02 0.000E+00

     total cpu time spent up to now is    64367.6 secs

     total energy              =  -11682.10594293 Ry
     estimated scf accuracy    <       0.00000099 Ry

     iteration #225     ecut=    80.00 Ry     beta= 0.10
     Davidson diagonalization with overlap
     ethr =  2.49E-11,  avg # of iterations =  1.0

     negative rho (up, down):  5.968E-02 0.000E+00

     total cpu time spent up to now is    64649.2 secs

     total energy              =  -11682.10594293 Ry
     estimated scf accuracy    <       0.00000086 Ry

     iteration #226     ecut=    80.00 Ry     beta= 0.10
     Davidson diagonalization with overlap
     ethr =  2.49E-11,  avg # of iterations =  1.0

     negative rho (up, down):  5.968E-02 0.000E+00

     total cpu time spent up to now is    64931.6 secs

     total energy              =  -11682.10594293 Ry
     estimated scf accuracy    <       0.00000035 Ry

     iteration #227     ecut=    80.00 Ry     beta= 0.10
     Davidson diagonalization with overlap
     ethr =  1.84E-11,  avg # of iterations =  1.0

     negative rho (up, down):  5.968E-02 0.000E+00

     total cpu time spent up to now is    65214.1 secs

     total energy              =  -11682.10594293 Ry
     estimated scf accuracy    <       0.00000028 Ry

     iteration #228     ecut=    80.00 Ry     beta= 0.10
     Davidson diagonalization with overlap
     ethr =  1.51E-11,  avg # of iterations =  1.0

     negative rho (up, down):  5.968E-02 0.000E+00

     total cpu time spent up to now is    65496.6 secs

     total energy              =  -11682.10594293 Ry
     estimated scf accuracy    <       0.00000078 Ry

     iteration #229     ecut=    80.00 Ry     beta= 0.10
     Davidson diagonalization with overlap
     ethr =  1.51E-11,  avg # of iterations =  1.0

     negative rho (up, down):  5.968E-02 0.000E+00

     total cpu time spent up to now is    65778.9 secs

     total energy              =  -11682.10594293 Ry
     estimated scf accuracy    <       0.00000047 Ry

     iteration #230     ecut=    80.00 Ry     beta= 0.10
     Davidson diagonalization with overlap
     ethr =  1.51E-11,  avg # of iterations =  1.0

     negative rho (up, down):  5.968E-02 0.000E+00

     total cpu time spent up to now is    66061.7 secs

     total energy              =  -11682.10594293 Ry
     estimated scf accuracy    <       0.00000044 Ry

     iteration #231     ecut=    80.00 Ry     beta= 0.10
     Davidson diagonalization with overlap
     ethr =  1.51E-11,  avg # of iterations =  1.0

     negative rho (up, down):  5.968E-02 0.000E+00

     total cpu time spent up to now is    66344.5 secs

     total energy              =  -11682.10594293 Ry
     estimated scf accuracy    <       0.00000038 Ry

     iteration #232     ecut=    80.00 Ry     beta= 0.10
     Davidson diagonalization with overlap
     ethr =  1.51E-11,  avg # of iterations =  1.0

     negative rho (up, down):  5.968E-02 0.000E+00

     total cpu time spent up to now is    66626.9 secs

     total energy              =  -11682.10594293 Ry
     estimated scf accuracy    <       0.00000047 Ry

     iteration #233     ecut=    80.00 Ry     beta= 0.10
     Davidson diagonalization with overlap
     ethr =  1.51E-11,  avg # of iterations =  1.0

     negative rho (up, down):  5.968E-02 0.000E+00

     total cpu time spent up to now is    66909.1 secs

     total energy              =  -11682.10594294 Ry
     estimated scf accuracy    <       0.00000034 Ry

     iteration #234     ecut=    80.00 Ry     beta= 0.10
     Davidson diagonalization with overlap
     ethr =  1.51E-11,  avg # of iterations =  1.0

     negative rho (up, down):  5.968E-02 0.000E+00

     total cpu time spent up to now is    67192.1 secs

     total energy              =  -11682.10594293 Ry
     estimated scf accuracy    <       0.00000038 Ry

     iteration #235     ecut=    80.00 Ry     beta= 0.10
     Davidson diagonalization with overlap
     ethr =  1.51E-11,  avg # of iterations =  1.0

     negative rho (up, down):  5.968E-02 0.000E+00

     total cpu time spent up to now is    67474.8 secs

     total energy              =  -11682.10594293 Ry
     estimated scf accuracy    <       0.00000057 Ry

     iteration #236     ecut=    80.00 Ry     beta= 0.10
     Davidson diagonalization with overlap
     ethr =  1.51E-11,  avg # of iterations =  1.0

     negative rho (up, down):  5.968E-02 0.000E+00

     total cpu time spent up to now is    67757.2 secs

     total energy              =  -11682.10594294 Ry
     estimated scf accuracy    <       0.00000032 Ry

     iteration #237     ecut=    80.00 Ry     beta= 0.10
     Davidson diagonalization with overlap
     ethr =  1.51E-11,  avg # of iterations =  1.0

     negative rho (up, down):  5.968E-02 0.000E+00

     total cpu time spent up to now is    68040.4 secs

     total energy              =  -11682.10594294 Ry
     estimated scf accuracy    <       0.00000011 Ry

     iteration #238     ecut=    80.00 Ry     beta= 0.10
     Davidson diagonalization with overlap
     ethr =  5.83E-12,  avg # of iterations =  1.0

     negative rho (up, down):  5.968E-02 0.000E+00

     total cpu time spent up to now is    68323.4 secs

     total energy              =  -11682.10594294 Ry
     estimated scf accuracy    <       0.00000038 Ry

     iteration #239     ecut=    80.00 Ry     beta= 0.10
     Davidson diagonalization with overlap
     ethr =  5.83E-12,  avg # of iterations =  1.0

     negative rho (up, down):  5.968E-02 0.000E+00

     total cpu time spent up to now is    68606.6 secs

     total energy              =  -11682.10594294 Ry
     estimated scf accuracy    <       0.00000023 Ry

     iteration #240     ecut=    80.00 Ry     beta= 0.10
     Davidson diagonalization with overlap
     ethr =  5.83E-12,  avg # of iterations =  1.0

     negative rho (up, down):  5.968E-02 0.000E+00

     total cpu time spent up to now is    68888.3 secs

     total energy              =  -11682.10594294 Ry
     estimated scf accuracy    <       0.00000025 Ry

     iteration #241     ecut=    80.00 Ry     beta= 0.10
     Davidson diagonalization with overlap
     ethr =  5.83E-12,  avg # of iterations =  1.0

     negative rho (up, down):  5.968E-02 0.000E+00

     total cpu time spent up to now is    69169.9 secs

     total energy              =  -11682.10594294 Ry
     estimated scf accuracy    <       0.00000017 Ry

     iteration #242     ecut=    80.00 Ry     beta= 0.10
     Davidson diagonalization with overlap
     ethr =  5.83E-12,  avg # of iterations =  1.0

     negative rho (up, down):  5.968E-02 0.000E+00

     total cpu time spent up to now is    69452.2 secs

     total energy              =  -11682.10594294 Ry
     estimated scf accuracy    <       0.00000024 Ry

     iteration #243     ecut=    80.00 Ry     beta= 0.10
     Davidson diagonalization with overlap
     ethr =  5.83E-12,  avg # of iterations =  1.0

     negative rho (up, down):  5.968E-02 0.000E+00

     total cpu time spent up to now is    69733.7 secs

     total energy              =  -11682.10594294 Ry
     estimated scf accuracy    <       0.00000023 Ry

     iteration #244     ecut=    80.00 Ry     beta= 0.10
     Davidson diagonalization with overlap
     ethr =  5.83E-12,  avg # of iterations =  1.0

     negative rho (up, down):  5.968E-02 0.000E+00

     total cpu time spent up to now is    70017.0 secs

     total energy              =  -11682.10594294 Ry
     estimated scf accuracy    <       0.00000016 Ry

     iteration #245     ecut=    80.00 Ry     beta= 0.10
     Davidson diagonalization with overlap
     ethr =  5.83E-12,  avg # of iterations =  1.0

     negative rho (up, down):  5.968E-02 0.000E+00

     total cpu time spent up to now is    70299.0 secs

     total energy              =  -11682.10594294 Ry
     estimated scf accuracy    <       0.00000033 Ry

     iteration #246     ecut=    80.00 Ry     beta= 0.10
     Davidson diagonalization with overlap
     ethr =  5.83E-12,  avg # of iterations =  1.0

     negative rho (up, down):  5.968E-02 0.000E+00

     total cpu time spent up to now is    70580.7 secs

     total energy              =  -11682.10594294 Ry
     estimated scf accuracy    <       0.00000025 Ry

     iteration #247     ecut=    80.00 Ry     beta= 0.10
     Davidson diagonalization with overlap
     ethr =  5.83E-12,  avg # of iterations =  1.0

     negative rho (up, down):  5.968E-02 0.000E+00

     total cpu time spent up to now is    70863.0 secs

     total energy              =  -11682.10594294 Ry
     estimated scf accuracy    <       0.00000007 Ry

     iteration #248     ecut=    80.00 Ry     beta= 0.10
     Davidson diagonalization with overlap
     ethr =  3.56E-12,  avg # of iterations =  1.0

     negative rho (up, down):  5.968E-02 0.000E+00

     total cpu time spent up to now is    71145.0 secs

     total energy              =  -11682.10594294 Ry
     estimated scf accuracy    <       0.00000019 Ry

     iteration #249     ecut=    80.00 Ry     beta= 0.10
     Davidson diagonalization with overlap
     ethr =  3.56E-12,  avg # of iterations =  1.0

     negative rho (up, down):  5.968E-02 0.000E+00

     total cpu time spent up to now is    71427.2 secs

     total energy              =  -11682.10594294 Ry
     estimated scf accuracy    <       0.00000011 Ry

     iteration #250     ecut=    80.00 Ry     beta= 0.10
     Davidson diagonalization with overlap
     ethr =  3.56E-12,  avg # of iterations =  1.0

     negative rho (up, down):  5.968E-02 0.000E+00

     total cpu time spent up to now is    71709.0 secs

     total energy              =  -11682.10594294 Ry
     estimated scf accuracy    <       0.00000016 Ry

     iteration #251     ecut=    80.00 Ry     beta= 0.10
     Davidson diagonalization with overlap
     ethr =  3.56E-12,  avg # of iterations =  1.0

     negative rho (up, down):  5.968E-02 0.000E+00

     total cpu time spent up to now is    71991.5 secs

     total energy              =  -11682.10594294 Ry
     estimated scf accuracy    <       0.00000008 Ry

     iteration #252     ecut=    80.00 Ry     beta= 0.10
     Davidson diagonalization with overlap
     ethr =  3.56E-12,  avg # of iterations =  1.0

     negative rho (up, down):  5.968E-02 0.000E+00

     total cpu time spent up to now is    72273.4 secs

     total energy              =  -11682.10594294 Ry
     estimated scf accuracy    <       0.00000011 Ry

     iteration #253     ecut=    80.00 Ry     beta= 0.10
     Davidson diagonalization with overlap
     ethr =  3.56E-12,  avg # of iterations =  1.0

     negative rho (up, down):  5.968E-02 0.000E+00

     total cpu time spent up to now is    72555.3 secs

     total energy              =  -11682.10594293 Ry
     estimated scf accuracy    <       0.00000014 Ry

     iteration #254     ecut=    80.00 Ry     beta= 0.10
     Davidson diagonalization with overlap
     ethr =  3.56E-12,  avg # of iterations =  1.0

     negative rho (up, down):  5.968E-02 0.000E+00

     total cpu time spent up to now is    72836.7 secs

     total energy              =  -11682.10594294 Ry
     estimated scf accuracy    <       0.00000006 Ry

     iteration #255     ecut=    80.00 Ry     beta= 0.10
     Davidson diagonalization with overlap
     ethr =  3.30E-12,  avg # of iterations =  1.0

     negative rho (up, down):  5.968E-02 0.000E+00

     total cpu time spent up to now is    73119.6 secs

     total energy              =  -11682.10594294 Ry
     estimated scf accuracy    <       0.00000016 Ry

     iteration #256     ecut=    80.00 Ry     beta= 0.10
     Davidson diagonalization with overlap
     ethr =  3.30E-12,  avg # of iterations =  1.0

     negative rho (up, down):  5.968E-02 0.000E+00

     total cpu time spent up to now is    73401.3 secs

     total energy              =  -11682.10594294 Ry
     estimated scf accuracy    <       0.00000017 Ry

     iteration #257     ecut=    80.00 Ry     beta= 0.10
     Davidson diagonalization with overlap
     ethr =  3.30E-12,  avg # of iterations =  1.0

     negative rho (up, down):  5.968E-02 0.000E+00

     total cpu time spent up to now is    73684.0 secs

     total energy              =  -11682.10594293 Ry
     estimated scf accuracy    <       0.00000004 Ry

     iteration #258     ecut=    80.00 Ry     beta= 0.10
     Davidson diagonalization with overlap
     ethr =  2.18E-12,  avg # of iterations =  1.0

     negative rho (up, down):  5.968E-02 0.000E+00

     total cpu time spent up to now is    73965.2 secs

     total energy              =  -11682.10594293 Ry
     estimated scf accuracy    <       0.00000009 Ry

     iteration #259     ecut=    80.00 Ry     beta= 0.10
     Davidson diagonalization with overlap
     ethr =  2.18E-12,  avg # of iterations =  1.0

     negative rho (up, down):  5.968E-02 0.000E+00

     total cpu time spent up to now is    74247.1 secs

     total energy              =  -11682.10594293 Ry
     estimated scf accuracy    <       0.00000005 Ry

     iteration #260     ecut=    80.00 Ry     beta= 0.10
     Davidson diagonalization with overlap
     ethr =  2.18E-12,  avg # of iterations =  1.0

     negative rho (up, down):  5.968E-02 0.000E+00

     total cpu time spent up to now is    74529.5 secs

     total energy              =  -11682.10594294 Ry
     estimated scf accuracy    <       0.00000011 Ry

     iteration #261     ecut=    80.00 Ry     beta= 0.10
     Davidson diagonalization with overlap
     ethr =  2.18E-12,  avg # of iterations =  1.0

     negative rho (up, down):  5.968E-02 0.000E+00

     total cpu time spent up to now is    74811.7 secs

     total energy              =  -11682.10594293 Ry
     estimated scf accuracy    <       0.00000004 Ry

     iteration #262     ecut=    80.00 Ry     beta= 0.10
     Davidson diagonalization with overlap
     ethr =  2.18E-12,  avg # of iterations =  1.0

     negative rho (up, down):  5.968E-02 0.000E+00

     total cpu time spent up to now is    75093.3 secs

     total energy              =  -11682.10594293 Ry
     estimated scf accuracy    <       0.00000005 Ry

     iteration #263     ecut=    80.00 Ry     beta= 0.10
     Davidson diagonalization with overlap
     ethr =  2.18E-12,  avg # of iterations =  1.0

     negative rho (up, down):  5.968E-02 0.000E+00

     total cpu time spent up to now is    75375.4 secs

     total energy              =  -11682.10594293 Ry
     estimated scf accuracy    <       0.00000007 Ry

     iteration #264     ecut=    80.00 Ry     beta= 0.10
     Davidson diagonalization with overlap
     ethr =  2.18E-12,  avg # of iterations =  1.0

     negative rho (up, down):  5.968E-02 0.000E+00

     total cpu time spent up to now is    75659.9 secs

     total energy              =  -11682.10594293 Ry
     estimated scf accuracy    <       0.00000003 Ry

     iteration #265     ecut=    80.00 Ry     beta= 0.10
     Davidson diagonalization with overlap
     ethr =  1.41E-12,  avg # of iterations =  1.0

     negative rho (up, down):  5.968E-02 0.000E+00

     total cpu time spent up to now is    75941.9 secs

     total energy              =  -11682.10594293 Ry
     estimated scf accuracy    <       0.00000007 Ry

     iteration #266     ecut=    80.00 Ry     beta= 0.10
     Davidson diagonalization with overlap
     ethr =  1.41E-12,  avg # of iterations =  1.0

     negative rho (up, down):  5.968E-02 0.000E+00

     total cpu time spent up to now is    76224.0 secs

     total energy              =  -11682.10594293 Ry
     estimated scf accuracy    <       0.00000009 Ry

     iteration #267     ecut=    80.00 Ry     beta= 0.10
     Davidson diagonalization with overlap
     ethr =  1.41E-12,  avg # of iterations =  1.0

     negative rho (up, down):  5.968E-02 0.000E+00

     total cpu time spent up to now is    76506.2 secs

     total energy              =  -11682.10594293 Ry
     estimated scf accuracy    <       0.00000002 Ry

     iteration #268     ecut=    80.00 Ry     beta= 0.10
     Davidson diagonalization with overlap
     ethr =  1.31E-12,  avg # of iterations =  1.0

     negative rho (up, down):  5.968E-02 0.000E+00

     total cpu time spent up to now is    76788.9 secs

     total energy              =  -11682.10594293 Ry
     estimated scf accuracy    <       0.00000004 Ry

     iteration #269     ecut=    80.00 Ry     beta= 0.10
     Davidson diagonalization with overlap
     ethr =  1.31E-12,  avg # of iterations =  1.0

     negative rho (up, down):  5.968E-02 0.000E+00

     total cpu time spent up to now is    77071.0 secs

     total energy              =  -11682.10594293 Ry
     estimated scf accuracy    <       0.00000002 Ry

     iteration #270     ecut=    80.00 Ry     beta= 0.10
     Davidson diagonalization with overlap
     ethr =  1.13E-12,  avg # of iterations =  1.0

     negative rho (up, down):  5.968E-02 0.000E+00

     total cpu time spent up to now is    77352.7 secs

     total energy              =  -11682.10594293 Ry
     estimated scf accuracy    <       0.00000007 Ry

     iteration #271     ecut=    80.00 Ry     beta= 0.10
     Davidson diagonalization with overlap
     ethr =  1.13E-12,  avg # of iterations =  1.0

     negative rho (up, down):  5.968E-02 0.000E+00

     total cpu time spent up to now is    77634.2 secs

     total energy              =  -11682.10594293 Ry
     estimated scf accuracy    <       0.00000003 Ry

     iteration #272     ecut=    80.00 Ry     beta= 0.10
     Davidson diagonalization with overlap
     ethr =  1.13E-12,  avg # of iterations =  1.0

     negative rho (up, down):  5.968E-02 0.000E+00

     total cpu time spent up to now is    77917.0 secs

     total energy              =  -11682.10594293 Ry
     estimated scf accuracy    <       0.00000003 Ry

     iteration #273     ecut=    80.00 Ry     beta= 0.10
     Davidson diagonalization with overlap
     ethr =  1.13E-12,  avg # of iterations =  1.0

     negative rho (up, down):  5.968E-02 0.000E+00

     total cpu time spent up to now is    78199.0 secs

     total energy              =  -11682.10594293 Ry
     estimated scf accuracy    <       0.00000004 Ry

     iteration #274     ecut=    80.00 Ry     beta= 0.10
     Davidson diagonalization with overlap
     ethr =  1.13E-12,  avg # of iterations =  1.0

     negative rho (up, down):  5.968E-02 0.000E+00

     total cpu time spent up to now is    78481.2 secs

     total energy              =  -11682.10594293 Ry
     estimated scf accuracy    <       0.00000001 Ry

     iteration #275     ecut=    80.00 Ry     beta= 0.10
     Davidson diagonalization with overlap
     ethr =  7.28E-13,  avg # of iterations =  1.0

     negative rho (up, down):  5.968E-02 0.000E+00

     total cpu time spent up to now is    78763.2 secs

     total energy              =  -11682.10594293 Ry
     estimated scf accuracy    <       0.00000002 Ry

     iteration #276     ecut=    80.00 Ry     beta= 0.10
     Davidson diagonalization with overlap
     ethr =  7.28E-13,  avg # of iterations =  1.0

     negative rho (up, down):  5.968E-02 0.000E+00

     total cpu time spent up to now is    79051.4 secs

     total energy              =  -11682.10594293 Ry
     estimated scf accuracy    <       0.00000004 Ry

     iteration #277     ecut=    80.00 Ry     beta= 0.10
     Davidson diagonalization with overlap
     ethr =  7.28E-13,  avg # of iterations =  1.0

     negative rho (up, down):  5.968E-02 0.000E+00

     total cpu time spent up to now is    79334.6 secs

     total energy              =  -11682.10594293 Ry
     estimated scf accuracy    <       0.00000001 Ry

     iteration #278     ecut=    80.00 Ry     beta= 0.10
     Davidson diagonalization with overlap
     ethr =  7.28E-13,  avg # of iterations =  1.0

     negative rho (up, down):  5.968E-02 0.000E+00

     total cpu time spent up to now is    79616.5 secs

     total energy              =  -11682.10594293 Ry
     estimated scf accuracy    <       0.00000002 Ry

     iteration #279     ecut=    80.00 Ry     beta= 0.10
     Davidson diagonalization with overlap
     ethr =  7.28E-13,  avg # of iterations =  1.0

     negative rho (up, down):  5.969E-02 0.000E+00

     total cpu time spent up to now is    79902.6 secs

     End of self-consistent calculation

          k = 0.0000 0.0000 0.0000 (****** PWs)   bands (ev):

   -58.2165 -56.4272 -56.0827 -56.0586 -55.8276 -55.8169 -55.2518 -55.2021
   -54.9818 -54.7257 -54.0864 -30.1433 -30.1260 -30.0878 -28.3780 -28.3354
   -28.2940 -28.0160 -28.0084 -27.9954 -27.9768 -27.9685 -27.9538 -27.7847
   -27.7606 -27.7332 -27.7189 -27.6958 -27.6904 -27.3531 -27.2226 -27.1625
   -27.1546 -27.1278 -27.0942 -27.0738 -26.9745 -26.9227 -26.8821 -26.7021
   -26.6633 -26.6081 -26.4762 -26.3527 -26.0909 -26.0371 -26.0092 -25.9913
   -25.9895 -25.9794 -25.8487 -25.7998 -25.7809 -25.7734 -25.6757 -25.5886
   -25.5202 -25.4590 -25.4097 -25.3526 -25.3330 -25.2790 -25.2539 -25.2368
   -25.2236 -25.2185 -25.1677 -25.1290 -25.1205 -25.1090 -25.0748 -25.0721
   -25.0217 -25.0089 -24.9802 -24.9570 -24.9310 -24.8935 -24.8668 -24.8538
   -24.8323 -24.8278 -24.7945 -24.7728 -24.7580 -24.7339 -24.7103 -24.6773
   -24.6637 -24.6287 -24.6241 -24.5996 -24.5862 -24.5612 -24.5481 -24.5264
   -24.5133 -24.4872 -24.4810 -24.4676 -24.4404 -24.4337 -24.4066 -24.3954
   -24.3748 -24.3480 -24.3274 -24.3192 -24.3031 -24.2840 -24.2692 -24.2437
   -24.2114 -24.1975 -24.1845 -24.1628 -24.1466 -24.1208 -24.0919 -24.0880
   -24.0347 -24.0135 -24.0103 -23.9943 -23.9778 -23.9623 -23.9528 -23.9400
   -23.9276 -23.9209 -23.9133 -23.9062 -23.8982 -23.8870 -23.8586 -23.8440
   -23.8299 -23.8233 -23.8112 -23.7839 -23.7787 -23.7645 -23.7457 -23.7385
   -23.7257 -23.7133 -23.6962 -23.6634 -23.6394 -23.6291 -23.6104 -23.6085
   -23.5810 -23.5666 -23.5625 -23.5302 -23.5229 -23.5131 -23.5007 -23.4822
   -23.4724 -23.4413 -23.4343 -23.4169 -23.4069 -23.3787 -23.3695 -23.3470
   -23.3464 -23.3219 -23.3098 -23.3019 -23.2838 -23.2750 -23.2734 -23.2584
   -23.2416 -23.2315 -23.2177 -23.1797 -23.1530 -23.1313 -23.1298 -23.1120
   -23.1056 -23.0809 -23.0688 -23.0551 -23.0486 -23.0220 -23.0138 -22.9963
   -22.9888 -22.9707 -22.9354 -22.9341 -22.9245 -22.9178 -22.8883 -22.8827
   -22.8611 -22.7843 -22.7525 -22.7403 -22.6974 -22.6733 -22.6323 -22.6165
   -22.6099 -22.6070 -22.6024 -22.5467 -22.4855 -22.4656 -22.4593 -22.4399
   -22.4288 -22.3936 -22.3333 -22.2504 -22.2057 -22.1969 -22.1544 -22.0589
   -21.8706 -21.8008 -21.7970 -21.7749 -21.7269 -21.6741 -21.6533 -21.6141
   -21.5567 -21.5277 -20.8610 -20.8167 -20.7836 -20.7744 -20.7723 -20.7460
   -20.7436 -20.6915 -20.6875 -20.5894 -20.5822 -20.3847 -20.3013 -20.2970
   -20.2340 -20.0490 -19.9553 -19.9530 -19.9510 -19.9384 -19.9339 -19.9331
   -19.9282 -19.9032 -19.8951 -19.8876 -19.8231 -19.1219 -18.7439 -17.9075
   -17.1430 -16.3519 -15.5731 -15.4314 -15.3689 -15.2991 -15.1891 -15.1094
   -15.0739 -15.0063 -14.9711 -14.9274 -14.8771 -14.8094 -14.8004 -14.7509
   -14.7255 -14.6396 -14.5617 -14.5046 -14.4325 -14.4043 -14.3503 -14.3182
   -14.2505 -14.2355 -14.2263 -14.1775 -14.1407 -14.1238 -14.0981 -14.0353
   -14.0152 -13.9709 -13.9641 -13.9082 -13.8800 -13.8249 -13.7574 -13.7429
   -13.7176 -13.6657 -13.6601 -13.6426 -13.5938 -13.5425 -13.5181 -13.5073
   -13.4775 -13.4378 -13.4320 -13.3723 -13.3498 -13.3083 -13.3010 -13.2719
   -13.2290 -13.2119 -13.1834 -13.1468 -13.1267 -13.1037 -13.0693 -13.0460
   -13.0214 -12.9940 -12.9549 -12.9440 -12.8894 -12.8691 -12.8467 -12.7694
   -12.7584 -12.7387 -12.7019 -12.6608 -12.6347 -12.5956 -12.5800 -12.5470
   -12.5371 -12.5189 -12.5097 -12.4488 -12.4306 -12.3854 -12.3659 -12.3459
   -12.3055 -12.2615 -12.2415 -12.2190 -12.1974 -12.1677 -12.1356 -12.1072
   -12.0857 -12.0723 -12.0466 -12.0277 -12.0048 -11.9683 -11.9616 -11.9268
   -11.9214 -11.9119 -11.8657 -11.8543 -11.8223 -11.8172 -11.8020 -11.7862
   -11.7644 -11.7548 -11.7370 -11.7142 -11.7012 -11.6830 -11.6789 -11.6626
   -11.6431 -11.6324 -11.6050 -11.5937 -11.5899 -11.5512 -11.5301 -11.5139
   -11.4944 -11.4841 -11.4678 -11.4349 -11.4157 -11.4052 -11.3924 -11.3847
   -11.3622 -11.3579 -11.3393 -11.3185 -11.3028 -11.2885 -11.2855 -11.2611
   -11.2101 -11.2061 -11.1823 -11.1694 -11.1477 -11.1198 -11.1140 -11.0996
   -11.0995 -11.0961 -11.0768 -11.0708 -11.0531 -11.0419 -11.0300 -10.9996
   -10.9969 -10.9589 -10.9385 -10.9291 -10.9127 -10.9084 -10.8809 -10.8721
   -10.8333 -10.8108 -10.8028 -10.7840 -10.7665 -10.7611 -10.7369 -10.7089
   -10.6942 -10.6807 -10.6524 -10.6100 -10.5979 -10.5521 -10.5308 -10.5150
   -10.5027 -10.4529 -10.4319 -10.4256 -10.4004 -10.3834 -10.3313 -10.2950
   -10.2917 -10.2666 -10.2496 -10.2088 -10.1936 -10.1304 -10.1171 -10.0930
   -10.0788 -10.0542 -10.0363 -10.0189 -10.0044  -9.9826  -9.9577  -9.9415
    -9.8864  -9.8673  -9.8111  -9.8062  -9.7878  -9.7568  -9.7486  -9.7315
    -9.7143  -9.7040  -9.6846  -9.6784  -9.6389  -9.6205  -9.6028  -9.5918
    -9.5835  -9.5571  -9.5552  -9.5447  -9.5439  -9.5308  -9.5232  -9.5094
    -9.4696  -9.4517  -9.4430  -9.4110  -9.3975  -9.3900  -9.3671  -9.3636
    -9.3420  -9.3280  -9.2986  -9.2791  -9.2622  -9.2397  -9.2352  -9.1969
    -9.1897  -9.1626  -9.1342  -9.1299  -9.1009  -9.0844  -9.0763  -9.0677
    -9.0581  -9.0427  -9.0247  -9.0029  -8.9911  -8.9824  -8.9577  -8.9552
    -8.9432  -8.9284  -8.9195  -8.9046  -8.8848  -8.8807  -8.8744  -8.8617
    -8.8583  -8.8421  -8.8131  -8.8078  -8.8061  -8.7975  -8.7910  -8.7900
    -8.7717  -8.7589  -8.7526  -8.7333  -8.7299  -8.7198  -8.7093  -8.6923
    -8.6825  -8.6772  -8.6627  -8.6516  -8.6372  -8.6151  -8.6103  -8.6057
    -8.5930  -8.5869  -8.5806  -8.5668  -8.5536  -8.5472  -8.5310  -8.5232
    -8.5169  -8.5049  -8.4910  -8.4887  -8.4826  -8.4690  -8.4572  -8.4422
    -8.4364  -8.4241  -8.4126  -8.3967  -8.3913  -8.3829  -8.3655  -8.3615
    -8.3597  -8.3485  -8.3286  -8.3104  -8.3038  -8.2912  -8.2847  -8.2691
    -8.2582  -8.2551  -8.2482  -8.2395  -8.2319  -8.2253  -8.2159  -8.2078
    -8.2006  -8.1786  -8.1695  -8.1635  -8.1599  -8.1370  -8.1323  -8.1280
    -8.1053  -8.1017  -8.0891  -8.0776  -8.0707  -8.0590  -8.0548  -8.0427
    -8.0417  -8.0259  -8.0202  -8.0113  -7.9978  -7.9937  -7.9833  -7.9696
    -7.9657  -7.9607  -7.9533  -7.9381  -7.9360  -7.9222  -7.9138  -7.9006
    -7.8927  -7.8922  -7.8730  -7.8663  -7.8607  -7.8464  -7.8418  -7.8340
    -7.8184  -7.8159  -7.8047  -7.7930  -7.7914  -7.7735  -7.7708  -7.7579
    -7.7560  -7.7323  -7.7248  -7.7202  -7.7132  -7.7019  -7.6883  -7.6868
    -7.6703  -7.6658  -7.6606  -7.6467  -7.6406  -7.6388  -7.6281  -7.6206
    -7.6046  -7.5984  -7.5916  -7.5835  -7.5777  -7.5479  -7.5345  -7.5197
    -7.5129  -7.5109  -7.5059  -7.4946  -7.4836  -7.4754  -7.4665  -7.4522
    -7.4438  -7.4304  -7.4236  -7.4069  -7.4045  -7.4019  -7.3935  -7.3826
    -7.3722  -7.3595  -7.3496  -7.3394  -7.3327  -7.3140  -7.3040  -7.2952
    -7.2834  -7.2790  -7.2676  -7.2582  -7.2470  -7.2405  -7.2281  -7.2241
    -7.2136  -7.2090  -7.2010  -7.1850  -7.1769  -7.1718  -7.1575  -7.1427
    -7.1260  -7.1183  -7.1068  -7.0948  -7.0835  -7.0737  -7.0652  -7.0608
    -7.0500  -7.0461  -7.0281  -7.0122  -7.0034  -6.9984  -6.9845  -6.9745
    -6.9634  -6.9549  -6.9428  -6.9363  -6.9242  -6.9157  -6.9068  -6.9012
    -6.8939  -6.8794  -6.8715  -6.8567  -6.8459  -6.8421  -6.8368  -6.8271
    -6.8170  -6.8110  -6.8096  -6.8025  -6.7741  -6.7730  -6.7522  -6.7339
    -6.7287  -6.7129  -6.7122  -6.7057  -6.7027  -6.7001  -6.6878  -6.6736
    -6.6685  -6.6560  -6.6517  -6.6403  -6.6259  -6.6213  -6.6078  -6.5994
    -6.5932  -6.5778  -6.5705  -6.5668  -6.5484  -6.5398  -6.5256  -6.5177
    -6.5019  -6.4995  -6.4859  -6.4732  -6.4670  -6.4582  -6.4432  -6.4391
    -6.4313  -6.4133  -6.4008  -6.3981  -6.3860  -6.3658  -6.3616  -6.3274
    -6.3165  -6.3024  -6.2959  -6.2818  -6.2765  -6.2557  -6.2520  -6.2307
    -6.2123  -6.2071  -6.1928  -6.1763  -6.1708  -6.1596  -6.1556  -6.1445
    -6.1380  -6.1269  -6.1056  -6.0983  -6.0872  -6.0669  -6.0648  -6.0581
    -6.0483  -6.0302  -6.0174  -6.0014  -5.9957  -5.9872  -5.9672  -5.9557
    -5.9441  -5.9405  -5.9363  -5.9214  -5.9062  -5.9030  -5.8960  -5.8719
    -5.8679  -5.8540  -5.8514  -5.8300  -5.8208  -5.8061  -5.7939  -5.7863
    -5.7671  -5.7376  -5.7169  -5.7002  -5.6848  -5.6745  -5.6662  -5.6574
    -5.6348  -5.6255  -5.6078  -5.5973  -5.5624  -5.5592  -5.5543  -5.5525
    -5.5434  -5.5344  -5.4932  -5.4861  -5.4695  -5.4500  -5.4451  -5.4364
    -5.3908  -5.3740  -5.3565  -5.3299  -5.2831  -5.2777  -5.2729  -5.2491
    -5.2234  -5.1897  -5.0856  -5.0716  -5.0582  -5.0515  -5.0462  -5.0342
    -4.9852  -4.9803  -4.9417  -4.9331  -4.9036  -4.8836  -4.8292  -4.8246
    -4.8065  -4.7275  -4.6986  -4.6780  -4.6766  -4.6650  -4.6594  -4.6476
    -4.5644  -4.4711  -4.4278  -4.4239  -4.3690  -4.3311  -4.2632  -4.2597
    -4.2522  -4.2476  -4.2283  -4.1950  -4.1745  -4.1552  -4.1393  -4.1304
    -4.1210  -4.1167  -4.1040  -4.0713  -4.0673  -4.0644  -4.0610  -4.0526
    -4.0462  -4.0370  -4.0305  -4.0225  -4.0196  -4.0162  -4.0087  -4.0057
    -4.0020  -3.9969  -3.9818  -3.9672  -3.9606  -3.9541  -3.9444  -3.9404
    -3.9313  -3.9311  -3.8968  -3.8885  -3.8692  -3.8518  -3.8503  -3.8379
    -3.7566  -3.6726  -3.6067  -3.5588  -3.5444  -3.5004  -3.3998  -3.3296
    -2.9453  -2.8492  -2.4553  -2.2236  -1.8056  -0.8729  -0.8453  -0.7076
    -0.6434  -0.6257  -0.4954  -0.4628  -0.3867  -0.3314  -0.2571  -0.2388
    -0.1798  -0.0763   0.0293   0.0949   0.1706   0.2427   0.3000   0.4025
     0.4534   0.4901   0.5141   0.5487   0.5938   0.6527   0.6827   0.7172
     0.7524   0.7946   0.8278   0.8405   0.8796   0.9128   0.9236   0.9808
     0.9929   1.0056   1.0216   1.0665   1.0943   1.1412   1.1439   1.1693
     1.1818   1.2122   1.2304   1.2579   1.2858   1.2923   1.3144   1.3510
     1.3942   1.4217   1.4353   1.4519   1.4665   1.4996   1.5243   1.5448
     1.5658   1.5804   1.6011   1.6100   1.6332   1.6615   1.6763   1.6974
     1.7188   1.7450   1.7520   1.7744   1.7847   1.8117   1.8345   1.8454
     1.8654   1.8830   1.8966   1.9173   1.9303   1.9485   1.9527   1.9794
     1.9831   1.9937   2.0060   2.0267   2.0369   2.0546   2.0672   2.0832
     2.1032   2.1147   2.1250   2.1401   2.1429   2.1470   2.1689   2.1791
     2.2066   2.2165   2.2404   2.2530   2.2616   2.2710   2.2769   2.3085
     2.3162   2.3336   2.3456   2.3491   2.3567   2.3656   2.3743   2.3821
     2.4030   2.4100   2.4188   2.4369   2.4448   2.4627   2.4783   2.4826
     2.4951   2.5000   2.5040   2.5099   2.5161   2.5289   2.5352   2.5456
     2.5506   2.5588   2.5660   2.5821   2.5882   2.5917   2.6122   2.6182
     2.6261   2.6356   2.6411   2.6565   2.6672   2.6699   2.6832   2.6921
     2.7095   2.7127   2.7181   2.7270   2.7435   2.7450   2.7635   2.7643
     2.7696   2.7789   2.7933   2.8011   2.8058   2.8086   2.8166   2.8249
     2.8414   2.8510   2.8673

     the Fermi energy is    -3.9057 ev

!    total energy              =  -11682.10594291 Ry
     estimated scf accuracy    <          9.9E-09 Ry
     smearing contrib. (-TS)   =      -0.11100452 Ry
     internal energy E=F+TS    =  -11681.99493839 Ry

     The total energy is F=E-TS. E is the sum of the following terms:
     one-electron contribution = -372060.03432520 Ry
     hartree contribution      =  186477.87596221 Ry
     xc contribution           =   -2470.89513986 Ry
     ewald contribution        =  178730.76373399 Ry
     one-center paw contrib.   =   -2359.70516952 Ry

     convergence has been achieved in 279 iterations

     negative rho (up, down):  5.969E-02 0.000E+00

     Forces acting on atoms (cartesian axes, Ry/au):

     atom    1 type  1   force =     0.01200638    0.01349599    0.05508057
     atom    2 type  1   force =     0.02828234    0.02473771   -0.00006157
     atom    3 type  1   force =     0.00760316    0.00108401   -0.00346696
     atom    4 type  1   force =    -0.01245553   -0.01523186   -0.01030427
     atom    5 type  1   force =     0.01480862   -0.02250026   -0.02695875
     atom    6 type  1   force =     0.00333892   -0.00158449    0.00490456
     atom    7 type  1   force =    -0.00850453    0.01187874    0.01219546
     atom    8 type  1   force =    -0.01213460   -0.03116966    0.00348604
     atom    9 type  1   force =    -0.00149742    0.00641251    0.01348990
     atom   10 type  1   force =     0.01822055   -0.00181657    0.01771746
     atom   11 type  1   force =    -0.01120403   -0.00520615   -0.01226773
     atom   12 type  2   force =     0.00695115    0.12284679   -0.04036970
     atom   13 type  2   force =     0.13679288    0.10051035   -0.00108668
     atom   14 type  2   force =     0.08067437    0.03190284   -0.06288108
     atom   15 type  2   force =     0.14707771   -0.03951681   -0.15272748
     atom   16 type  2   force =     0.02144538    0.03852820    0.04009499
     atom   17 type  2   force =     0.15421897    0.01535446    0.25451210
     atom   18 type  2   force =    -0.01250977   -0.04661591   -0.04944933
     atom   19 type  2   force =    -0.01073530    0.03862819   -0.10070496
     atom   20 type  2   force =    -0.02585803   -0.01328441   -0.04175925
     atom   21 type  2   force =    -0.05466292    0.13496849   -0.03937824
     atom   22 type  2   force =     0.03529268   -0.13260509    0.09203628
     atom   23 type  2   force =    -0.03933199   -0.06823162   -0.05867715
     atom   24 type  2   force =     0.03247669    0.02647432    0.01013886
     atom   25 type  2   force =     0.06558897    0.00686222    0.07213459
     atom   26 type  2   force =    -0.01636529   -0.00965094   -0.01071723
     atom   27 type  2   force =     0.04187182    0.11784802   -0.07335566
     atom   28 type  2   force =    -0.00193201   -0.05842695   -0.01128158
     atom   29 type  2   force =    -0.03140207   -0.05047818    0.08153808
     atom   30 type  2   force =     0.03232420   -0.03167758   -0.03952143
     atom   31 type  2   force =     0.03589496    0.02203192    0.00233183
     atom   32 type  2   force =    -0.00989953   -0.06582567    0.08802449
     atom   33 type  2   force =    -0.05574260    0.01800689   -0.05537141
     atom   34 type  2   force =     0.06094855   -0.02689369   -0.02238775
     atom   35 type  3   force =    -0.01334769   -0.07808053    0.00323849
     atom   36 type  3   force =    -0.16446717    0.08802016   -0.04859452
     atom   37 type  3   force =    -0.06762624    0.03586863   -0.01402502
     atom   38 type  3   force =    -0.05432457   -0.00012491   -0.00929945
     atom   39 type  3   force =     0.07403756    0.00716322    0.01037971
     atom   40 type  3   force =     0.08667518    0.02283439   -0.04330946
     atom   41 type  3   force =    -0.10905542   -0.09022473   -0.13254510
     atom   42 type  3   force =     0.01159907   -0.06027762    0.06464302
     atom   43 type  3   force =     0.01844839   -0.02227701   -0.04847190
     atom   44 type  3   force =     0.06107452    0.10580498    0.04126822
     atom   45 type  3   force =    -0.03244760   -0.00090036   -0.03151920
     atom   46 type  3   force =    -0.03637526    0.12455389    0.05979953
     atom   47 type  3   force =    -0.05594270    0.00756185   -0.14730419
     atom   48 type  3   force =    -0.02875527   -0.12210279   -0.13758805
     atom   49 type  3   force =     0.06188418    0.18234652    0.05229142
     atom   50 type  3   force =     0.04381459   -0.02168856   -0.09757552
     atom   51 type  3   force =    -0.01908180    0.04781265    0.07077012
     atom   52 type  3   force =    -0.12112826   -0.10570483    0.11941253
     atom   53 type  3   force =    -0.12317626   -0.10994353   -0.05459926
     atom   54 type  3   force =    -0.03652194   -0.02308305    0.10027670
     atom   55 type  3   force =    -0.14932646    0.03075759    0.03098981
     atom   56 type  3   force =    -0.02263824    0.01121576    0.12157431
     atom   57 type  3   force =     0.00705720   -0.09507330   -0.04893067
     atom   58 type  3   force =     0.06108662   -0.00846975    0.04776631
     atom   59 type  3   force =    -0.03557905   -0.01076229    0.03901599
     atom   60 type  3   force =     0.07904213   -0.07455085   -0.00353212
     atom   61 type  3   force =     0.01546124    0.19116630    0.03559776
     atom   62 type  3   force =    -0.01925824   -0.01657843   -0.00611140
     atom   63 type  3   force =     0.01623981    0.01186344   -0.00631401
     atom   64 type  3   force =     0.00300130    0.05905327    0.08282142
     atom   65 type  3   force =    -0.00743703    0.02304848    0.01982059
     atom   66 type  3   force =    -0.01589430    0.00332896   -0.01864228
     atom   67 type  3   force =     0.03283917    0.00119922    0.10119868
     atom   68 type  3   force =    -0.06480258   -0.03465632    0.07982302
     atom   69 type  3   force =     0.04496168    0.03725090    0.03188693
     atom   70 type  3   force =    -0.05037829   -0.06712253   -0.05577776
     atom   71 type  3   force =     0.04845201   -0.03742391    0.05254521
     atom   72 type  3   force =     0.01422399    0.11138847    0.19927728
     atom   73 type  3   force =    -0.07868462    0.05104543   -0.07638905
     atom   74 type  3   force =     0.00535830   -0.06453514   -0.04789038
     atom   75 type  3   force =    -0.06310713    0.00863071   -0.00228730
     atom   76 type  3   force =     0.04453440   -0.10613999   -0.06059437
     atom   77 type  3   force =    -0.03078245    0.07749583    0.03356230
     atom   78 type  3   force =    -0.09862893   -0.02062626   -0.06886109
     atom   79 type  3   force =    -0.00382203   -0.04273021    0.03522716
     atom   80 type  3   force =    -0.03147381    0.03990706   -0.00626741
     atom   81 type  3   force =     0.03053149    0.01861418   -0.03975521
     atom   82 type  3   force =    -0.04211277    0.01754387   -0.05408570
     atom   83 type  3   force =    -0.05121368    0.09449166    0.02441522
     atom   84 type  3   force =    -0.02490186    0.04022854   -0.04039238
     atom   85 type  3   force =    -0.01125693   -0.09864508    0.07705467
     atom   86 type  3   force =    -0.02858979   -0.07921758   -0.10454004
     atom   87 type  3   force =     0.02228516   -0.00681931   -0.06799584
     atom   88 type  3   force =    -0.00062407    0.05374815   -0.11883127
     atom   89 type  3   force =    -0.04878705   -0.02107163    0.06474533
     atom   90 type  3   force =     0.05370686   -0.04773255   -0.04653354
     atom   91 type  3   force =     0.06646219    0.04066335   -0.01538974
     atom   92 type  3   force =    -0.00907945   -0.00585926   -0.02088010
     atom   93 type  3   force =    -0.08708907   -0.10490043   -0.00534808
     atom   94 type  3   force =     0.07176185    0.08995288    0.05035866
     atom   95 type  3   force =    -0.01085387   -0.01075703   -0.06884614
     atom   96 type  3   force =    -0.09370510   -0.01180880    0.15326068
     atom   97 type  3   force =    -0.02820802   -0.04656492   -0.00174340
     atom   98 type  3   force =     0.10436845    0.01081451    0.09551225
     atom   99 type  3   force =    -0.05541061   -0.00677426    0.03652111
     atom  100 type  3   force =     0.02252297   -0.07806534    0.07957464
     atom  101 type  3   force =    -0.06013788    0.02734205   -0.01093413
     atom  102 type  3   force =     0.03017428    0.01704507    0.03128191
     atom  103 type  3   force =     0.04697768    0.03112317    0.09747358
     atom  104 type  3   force =    -0.08243181   -0.07743831   -0.00516115
     atom  105 type  3   force =     0.02910594    0.05416689   -0.00656100
     atom  106 type  3   force =     0.03855587    0.11465420   -0.01514043
     atom  107 type  3   force =    -0.02841656   -0.00299261    0.02825895
     atom  108 type  3   force =     0.04677387   -0.01107118    0.04552058
     atom  109 type  3   force =     0.10900051    0.02067700   -0.03998176
     atom  110 type  3   force =     0.13935254    0.00801719   -0.06092798
     atom  111 type  3   force =    -0.02040640   -0.01787993    0.01789882
     atom  112 type  3   force =    -0.06701138    0.09517606   -0.01064468
     atom  113 type  3   force =     0.02128966   -0.01982485   -0.05614277
     atom  114 type  3   force =    -0.03898959    0.02176261    0.08109509
     atom  115 type  3   force =     0.01337647   -0.02836486    0.07665931
     atom  116 type  3   force =     0.08474472    0.00791022   -0.04834381
     atom  117 type  3   force =    -0.06888324    0.00322562    0.03782002
     atom  118 type  3   force =    -0.11788431    0.11145145    0.02567818
     atom  119 type  3   force =     0.07041488   -0.00668233    0.03249107
     atom  120 type  3   force =     0.00919840    0.02811861    0.10537468
     atom  121 type  3   force =     0.12978457    0.07606819    0.01677612
     atom  122 type  4   force =     0.03927609    0.01292220    0.02856823
     atom  123 type  4   force =    -0.06150555   -0.04010859   -0.00946103
     atom  124 type  4   force =     0.00360787    0.02432849   -0.04633896
     atom  125 type  4   force =     0.01812283   -0.00580580   -0.00430434
     atom  126 type  4   force =    -0.13140067   -0.14922287   -0.01144920
     atom  127 type  4   force =    -0.09950982   -0.12885253   -0.07376627
     atom  128 type  4   force =     0.01054898   -0.04946222    0.05950935
     atom  129 type  4   force =     0.00875178   -0.06129301   -0.01164410
     atom  130 type  4   force =     0.00891053   -0.02173387    0.00936652
     atom  131 type  4   force =     0.00663002   -0.01837674   -0.01365738
     atom  132 type  4   force =     0.04931567   -0.03837343   -0.01678809
     atom  133 type  4   force =    -0.03659267   -0.05918297    0.03629537
     atom  134 type  4   force =    -0.09349954    0.00757550   -0.04010876
     atom  135 type  4   force =     0.02240996   -0.02689571    0.12450201
     atom  136 type  4   force =     0.01795990   -0.01015668   -0.01841215
     atom  137 type  4   force =     0.05383258    0.04126689   -0.03421425
     atom  138 type  4   force =     0.01569838    0.00202509   -0.01535843
     atom  139 type  4   force =    -0.00673785    0.02804947   -0.02082411
     atom  140 type  4   force =     0.02154627   -0.06867118    0.02199886
     atom  141 type  4   force =     0.05848882   -0.01190576    0.00207845
     atom  142 type  4   force =    -0.10499251   -0.05308556    0.04674823
     atom  143 type  4   force =    -0.15076140   -0.03727657   -0.09753340
     atom  144 type  4   force =    -0.00562170   -0.01755561    0.02991803
     atom  145 type  4   force =    -0.04011207    0.03666013    0.01597502
     atom  146 type  4   force =    -0.02191421    0.01688136   -0.02250573
     atom  147 type  4   force =    -0.13171768   -0.04974621    0.03206998
     atom  148 type  4   force =     0.01369889   -0.02070128   -0.01298403
     atom  149 type  4   force =     0.06869617    0.03543260    0.01728881
     atom  150 type  4   force =    -0.06368627   -0.05303064   -0.02011229
     atom  151 type  4   force =     0.05092588    0.03695320    0.02445508
     atom  152 type  4   force =    -0.05808191    0.02464569    0.01510215
     atom  153 type  4   force =     0.07627569    0.01870255    0.07640743
     atom  154 type  4   force =    -0.09645524    0.00591170    0.00664960
     atom  155 type  4   force =    -0.01235839   -0.01451832   -0.00942403
     atom  156 type  4   force =    -0.05025508    0.04123556   -0.02250643
     atom  157 type  4   force =     0.04245200   -0.01054005   -0.00374757
     atom  158 type  4   force =     0.01334277    0.01209037   -0.02431579
     atom  159 type  4   force =     0.06700884    0.00748544   -0.05884141
     atom  160 type  4   force =     0.03929008   -0.08922117    0.01381276
     atom  161 type  4   force =     0.00303053   -0.02877315    0.07141109
     atom  162 type  4   force =     0.05271550    0.09514291    0.01487363
     atom  163 type  4   force =    -0.01544282    0.05816517   -0.01562174
     atom  164 type  4   force =     0.02432117    0.02883403    0.06673255
     atom  165 type  4   force =    -0.07481640    0.00930920    0.04934965
     atom  166 type  4   force =    -0.00155374   -0.10196864    0.00500861
     atom  167 type  4   force =    -0.03921351   -0.04011750   -0.01524248
     atom  168 type  4   force =     0.01687139   -0.18421011    0.05828220
     atom  169 type  4   force =     0.05231296    0.04495416   -0.09520766
     atom  170 type  4   force =     0.02791633   -0.04772829   -0.03587088
     atom  171 type  4   force =     0.01258232   -0.01692243    0.00344285
     atom  172 type  4   force =    -0.07002726    0.01212345   -0.04405124
     atom  173 type  4   force =    -0.03889560    0.00724923   -0.02571483
     atom  174 type  4   force =     0.05690226    0.08618954    0.01854676
     atom  175 type  4   force =     0.01309817    0.04176026    0.00300154
     atom  176 type  4   force =     0.03805589   -0.00537229    0.02580426
     atom  177 type  4   force =     0.06449358   -0.00485867   -0.00876057
     atom  178 type  4   force =    -0.00353298    0.03683819    0.04533313
     atom  179 type  4   force =    -0.01187473    0.02841331    0.00295691
     atom  180 type  4   force =    -0.05729777    0.00562191   -0.00720232
     atom  181 type  4   force =    -0.00000223   -0.00053261    0.09591133
     atom  182 type  4   force =    -0.02453104   -0.06135548    0.05013907
     atom  183 type  4   force =    -0.03296296    0.10633443   -0.05847738
     atom  184 type  4   force =     0.01826552   -0.01127158    0.05175957
     atom  185 type  4   force =     0.04936541   -0.03494224   -0.01726808
     atom  186 type  4   force =    -0.01140064   -0.01741044    0.00160461
     atom  187 type  4   force =    -0.02755331   -0.01186079    0.05022690
     atom  188 type  4   force =    -0.02036890   -0.01784161   -0.04717246
     atom  189 type  4   force =    -0.01995799    0.03567105   -0.00018240
     atom  190 type  4   force =     0.05857110   -0.03611992    0.00662618
     atom  191 type  4   force =    -0.01849924   -0.00335810   -0.00674756
     atom  192 type  4   force =    -0.03514880    0.02414411   -0.03100279
     atom  193 type  4   force =     0.03625955   -0.06461137    0.02158202
     atom  194 type  4   force =    -0.04963174    0.00127222   -0.00630047
     atom  195 type  4   force =    -0.01020841   -0.00660804    0.01845079
     atom  196 type  4   force =     0.00238265   -0.02552500   -0.06118646
     atom  197 type  4   force =     0.00929101    0.01570501   -0.00016104
     atom  198 type  4   force =    -0.03842006    0.04140183   -0.01365476
     atom  199 type  4   force =     0.00813856   -0.02588525    0.00626354
     atom  200 type  4   force =    -0.00959206   -0.03603855    0.05782988
     atom  201 type  4   force =    -0.01079583   -0.04762387   -0.02854836
     atom  202 type  4   force =     0.01619024    0.01501297    0.04149442
     atom  203 type  4   force =    -0.05689025   -0.05916217   -0.10316212
     atom  204 type  4   force =    -0.00238396    0.01817604    0.06240780
     atom  205 type  4   force =     0.01019597    0.07388569   -0.01371381
     atom  206 type  4   force =    -0.04069916   -0.03139829   -0.04468486
     atom  207 type  4   force =    -0.00465447   -0.03032995    0.03530101
     atom  208 type  4   force =    -0.00083025    0.01180288   -0.01001798
     atom  209 type  4   force =    -0.04446984    0.03170045   -0.05089968
     atom  210 type  4   force =    -0.01138185    0.01308023   -0.05118469
     atom  211 type  4   force =    -0.00047695   -0.03479982   -0.05646174
     atom  212 type  4   force =     0.04212631   -0.03943359   -0.03347528
     atom  213 type  4   force =     0.04284588   -0.14881813   -0.08358429
     atom  214 type  4   force =     0.05162893    0.06500132   -0.05759047
     atom  215 type  4   force =    -0.02679191   -0.02904058    0.00518250
     atom  216 type  4   force =    -0.02211476    0.07575590    0.04090738
     atom  217 type  4   force =    -0.02413395    0.03766347   -0.04189661
     atom  218 type  4   force =     0.01500383    0.02510007   -0.00791274
     atom  219 type  4   force =    -0.04400573   -0.04014532   -0.00920967
     atom  220 type  4   force =     0.01252358   -0.04159225    0.02307044
     atom  221 type  4   force =    -0.00426517    0.03038152    0.06498639
     atom  222 type  4   force =     0.10390977   -0.01656083    0.00584895
     atom  223 type  4   force =     0.02184497    0.08571897   -0.05094092
     atom  224 type  4   force =     0.03971232    0.02492632   -0.01339639
     atom  225 type  4   force =     0.06110069    0.04952640   -0.00341715
     atom  226 type  4   force =     0.02002681   -0.02507776    0.02072699
     atom  227 type  4   force =    -0.02255525    0.05201019    0.04169011
     atom  228 type  4   force =     0.00322964   -0.01711059   -0.02723931
     atom  229 type  4   force =     0.01373305    0.00001203    0.05415688
     atom  230 type  4   force =     0.05281881    0.04916827   -0.00133462
     atom  231 type  4   force =     0.04224957   -0.02120077    0.07150002
     atom  232 type  4   force =     0.04274936   -0.06426337   -0.00880083
     atom  233 type  4   force =     0.03888106    0.05820087    0.02902077
     atom  234 type  4   force =    -0.03305165   -0.05984633   -0.11440130
     atom  235 type  4   force =    -0.01908430    0.15901839   -0.01455388
     atom  236 type  4   force =     0.08808967   -0.01639059   -0.04576331
     atom  237 type  4   force =     0.00619735    0.00678627    0.01213427
     atom  238 type  4   force =    -0.01094230   -0.01289055    0.04261094
     atom  239 type  4   force =     0.01897533   -0.03601921    0.00741675
     atom  240 type  4   force =     0.07766077    0.03085944    0.02820056
     atom  241 type  4   force =     0.03139507   -0.01974819   -0.00497764
     atom  242 type  4   force =    -0.20438691   -0.02979702    0.07890252
     atom  243 type  4   force =     0.02973765    0.00104773    0.02039063
     atom  244 type  4   force =    -0.05117267   -0.00159782   -0.04533660
     atom  245 type  4   force =    -0.01912496   -0.02914483   -0.09482071
     atom  246 type  4   force =     0.02451306   -0.00899685   -0.03125772
     atom  247 type  4   force =    -0.00640185   -0.01711664   -0.06729672
     atom  248 type  4   force =    -0.01645752    0.03017697    0.05871818
     atom  249 type  4   force =     0.03807683    0.02615536   -0.06222603
     atom  250 type  4   force =    -0.08193751   -0.01673276    0.00420791
     atom  251 type  4   force =    -0.00777585   -0.00392026   -0.01949281
     atom  252 type  4   force =    -0.07070136    0.01885503   -0.05167519
     atom  253 type  4   force =     0.00125597   -0.04522605   -0.11039501
     atom  254 type  4   force =    -0.09107107    0.01338156   -0.01478733
     atom  255 type  4   force =     0.01622348   -0.01881898    0.02037531
     atom  256 type  4   force =     0.03195098   -0.00799838    0.03524598
     atom  257 type  4   force =     0.02691952   -0.02500211    0.03378782
     atom  258 type  4   force =     0.00067476    0.01271309   -0.02910178
     atom  259 type  4   force =     0.04802915    0.01502795   -0.00891299
     atom  260 type  4   force =    -0.04570073   -0.01160413   -0.06095089
     atom  261 type  4   force =     0.04155105    0.02784700   -0.03932299
     atom  262 type  4   force =    -0.05471833   -0.01074937    0.04593413
     atom  263 type  4   force =     0.09629098   -0.02620999    0.01763655
     atom  264 type  4   force =    -0.04572394    0.04262879   -0.02250611
     atom  265 type  4   force =     0.02495976    0.01611894   -0.04000425
     atom  266 type  4   force =     0.02701264    0.02036801   -0.04799891
     atom  267 type  4   force =     0.07731753   -0.00413940   -0.04230163
     atom  268 type  4   force =     0.02719147   -0.04396400   -0.03136892
     atom  269 type  4   force =    -0.01663357   -0.06672829    0.00511050
     atom  270 type  4   force =    -0.07173732   -0.01331539   -0.02966547
     atom  271 type  4   force =     0.06960690    0.01180869    0.00866847
     atom  272 type  4   force =     0.02760770    0.05490479   -0.01277004
     atom  273 type  4   force =     0.00243835   -0.00628127    0.04764697
     atom  274 type  4   force =    -0.02440546    0.00276049    0.02710416
     atom  275 type  4   force =    -0.01177526   -0.02052366    0.01813986
     atom  276 type  4   force =     0.04365639    0.07912370    0.06965047
     atom  277 type  4   force =     0.02660687   -0.01173235   -0.07658330
     atom  278 type  4   force =    -0.02155717    0.06286701    0.04418650
     atom  279 type  4   force =    -0.01200896   -0.02155238    0.00405733
     atom  280 type  4   force =    -0.02684054    0.05665961    0.00926054
     atom  281 type  4   force =     0.04153535    0.03164056    0.04325871
     atom  282 type  4   force =     0.03678765   -0.05141942    0.01536978
     atom  283 type  4   force =     0.00388338   -0.06518131   -0.03216287
     atom  284 type  4   force =     0.07176262   -0.05364087   -0.03053732
     atom  285 type  4   force =     0.01850914   -0.01659980    0.01457711
     atom  286 type  4   force =    -0.11829818   -0.02981800   -0.06918696
     atom  287 type  4   force =    -0.01597791   -0.00141211    0.04439931
     atom  288 type  4   force =     0.06633826   -0.00469887   -0.05576838
     atom  289 type  4   force =     0.02102226    0.09114229   -0.02695706
     atom  290 type  4   force =     0.10201808   -0.05843548   -0.11032108
     atom  291 type  4   force =    -0.03029632    0.01406222   -0.01559053
     atom  292 type  4   force =    -0.01983457   -0.01142268    0.01434354
     atom  293 type  4   force =    -0.00648923   -0.02628467   -0.04963624
     atom  294 type  4   force =     0.08007721   -0.02996098    0.16772084
     atom  295 type  4   force =    -0.05381988    0.06396949    0.06793851
     atom  296 type  4   force =    -0.05990493    0.01921858    0.03730951
     atom  297 type  4   force =    -0.01788246    0.01393140   -0.02460633
     atom  298 type  4   force =     0.01299915    0.01346952    0.01805934
     atom  299 type  4   force =    -0.06666916   -0.14462235   -0.02722655
     atom  300 type  4   force =    -0.01171569   -0.05293803   -0.03429566
     atom  301 type  4   force =    -0.07375218    0.03966059    0.02584424
     atom  302 type  4   force =     0.00579851    0.12645474    0.11047714
     atom  303 type  4   force =    -0.01421437   -0.02300001   -0.03990647
     atom  304 type  4   force =    -0.03899928   -0.00165265    0.01127143
     atom  305 type  4   force =    -0.03629798   -0.01652967    0.00695932
     atom  306 type  4   force =     0.00812568    0.01577867   -0.05869914
     atom  307 type  4   force =     0.02341638    0.02014823    0.04233456
     atom  308 type  4   force =     0.00975310    0.00088462   -0.05119759
     atom  309 type  4   force =     0.00196685   -0.02055376    0.01388260
     atom  310 type  4   force =     0.09238630   -0.00427613    0.11083323
     atom  311 type  4   force =    -0.03298918   -0.01366061    0.01113816
     atom  312 type  4   force =    -0.02338518    0.02158681    0.01456053
     atom  313 type  4   force =     0.01448770   -0.08756477    0.01933964
     atom  314 type  4   force =    -0.04556077    0.01302693   -0.02397896
     atom  315 type  4   force =    -0.01721904   -0.00381123   -0.02794050
     atom  316 type  4   force =    -0.00562394   -0.00397475    0.01815497
     atom  317 type  4   force =    -0.00148152    0.06910647    0.04027011
     atom  318 type  4   force =     0.04040660    0.00254411   -0.01763685
     atom  319 type  4   force =    -0.02971285   -0.01475312   -0.06108240
     atom  320 type  4   force =     0.04269840   -0.01856032   -0.02680810
     atom  321 type  4   force =    -0.02613039    0.12891676    0.03821367
     atom  322 type  4   force =     0.02391399    0.01095952   -0.06531911
     atom  323 type  4   force =     0.03517330   -0.03549987    0.04972391
     atom  324 type  4   force =     0.05180097    0.00479745   -0.02340934
     atom  325 type  4   force =     0.03439567   -0.02325089   -0.02835244
     atom  326 type  4   force =    -0.00824187    0.11665961    0.05598897
     atom  327 type  4   force =     0.04740566    0.04959835   -0.03982291
     atom  328 type  4   force =     0.02043760    0.00101220   -0.01989165
     atom  329 type  4   force =     0.10557320    0.01068767    0.01855353
     atom  330 type  4   force =     0.02361887   -0.03624932   -0.05419139
     atom  331 type  4   force =     0.03238574    0.04216297   -0.00805466
     atom  332 type  4   force =     0.02202329    0.05082043   -0.01240693
     atom  333 type  4   force =    -0.05390386   -0.05586149    0.02737676
     atom  334 type  4   force =     0.02364308    0.04564481   -0.02812898
     atom  335 type  4   force =     0.06788423    0.02159197   -0.02193532
     atom  336 type  4   force =    -0.03954013   -0.03107352   -0.04420122
     atom  337 type  4   force =    -0.00562017   -0.00455617   -0.02302103
     atom  338 type  4   force =    -0.05725605    0.04313723   -0.01901169
     atom  339 type  5   force =    -0.02048972    0.02371196    0.03467084
     atom  340 type  5   force =     0.00637625   -0.02897625    0.02892905
     atom  341 type  6   force =     0.02431135    0.00541317    0.00439350
     atom  342 type  6   force =    -0.02486157   -0.00337179   -0.00440673
     atom  343 type  6   force =     0.00272443   -0.04182268    0.00492864
     atom  344 type  6   force =     0.00825073   -0.04091905    0.00451880
     atom  345 type  6   force =    -0.00819534    0.04128182   -0.00427680
     atom  346 type  6   force =    -0.00331832    0.04224533   -0.00367637
     atom  347 type  6   force =     0.02886180    0.02143711    0.00438253
     atom  348 type  6   force =    -0.03350821    0.01331608   -0.00723172
     atom  349 type  6   force =     0.03401148   -0.01323959    0.00694348
     atom  350 type  6   force =    -0.02892682   -0.02365833   -0.00390481
     atom  351 type  7   force =     0.00342951    0.00576620   -0.00064794
     atom  352 type  7   force =    -0.00412850    0.00479251   -0.00111947
     atom  353 type  7   force =     0.00421469   -0.00424273    0.00097629
     atom  354 type  7   force =    -0.00263005   -0.00577575   -0.00004055
     atom  355 type  7   force =     0.00365570   -0.00364113    0.00088395
     atom  356 type  7   force =    -0.00257107   -0.00430306   -0.00033306
     atom  357 type  7   force =     0.00305416    0.00407457    0.00054947
     atom  358 type  7   force =    -0.00365779    0.00324268   -0.00095565

     Total force =     1.686331     Total SCF correction =     0.000170


     Computing stress (Cartesian axis) and pressure


     negative rho (up, down):  5.969E-02 0.000E+00
          total   stress  (Ry/bohr**3)                   (kbar)     P=        7.98
   0.00005256   0.00000155  -0.00000264            7.73        0.23       -0.39
   0.00000155   0.00006100   0.00000337            0.23        8.97        0.50
  -0.00000264   0.00000337   0.00004921           -0.39        0.50        7.24


     Writing all to output data dir ./outputs/pwscf.save/ :
     XML data file, charge density, pseudopotentials, collected wavefunctions
 
     init_run     :    145.36s CPU    148.52s WALL (       1 calls)
     electrons    :  78440.28s CPU  79756.24s WALL (       1 calls)
     forces       :     93.02s CPU     95.91s WALL (       1 calls)
     stress       :    349.79s CPU    354.85s WALL (       1 calls)

     Called by init_run:
     wfcinit      :    129.47s CPU    131.36s WALL (       1 calls)
     potinit      :      1.20s CPU      1.29s WALL (       1 calls)
     hinit0       :      1.40s CPU      1.45s WALL (       1 calls)

     Called by electrons:
     c_bands      :  65586.85s CPU  66315.35s WALL (     279 calls)
     sum_band     :  11534.98s CPU  11869.51s WALL (     279 calls)
     v_of_rho     :    127.07s CPU    131.98s WALL (     280 calls)
     newd         :    946.41s CPU   1188.95s WALL (     280 calls)
     PAW_pot      :    158.37s CPU    159.42s WALL (     280 calls)
     mix_rho      :     69.84s CPU     72.69s WALL (     279 calls)

     Called by c_bands:
     init_us_2    :    611.62s CPU    620.51s WALL (     560 calls)
     cegterg      :  64759.02s CPU  65473.88s WALL (     279 calls)

     Called by *egterg:
     cdiaghg      :    936.74s CPU    944.31s WALL (     635 calls)
     h_psi        :  36068.51s CPU  36450.69s WALL (     636 calls)
     s_psi        :  10770.55s CPU  10851.32s WALL (     636 calls)
     g_psi        :     42.20s CPU     42.79s WALL (     356 calls)

     Called by h_psi:
     h_psi:calbec :  10788.99s CPU  10864.41s WALL (     636 calls)
     vloc_psi     :  14435.06s CPU  14592.88s WALL (     636 calls)
                                        0.00s GPU  (     636 calls)
     add_vuspsi   :  10776.10s CPU  10860.04s WALL (     636 calls)

     General routines
     calbec       :  16465.14s CPU  16580.05s WALL (     932 calls)
     fft          :    125.81s CPU    131.60s WALL (    3663 calls)
     ffts         :     12.09s CPU     12.55s WALL (     559 calls)
     fftw         :  14012.96s CPU  14155.05s WALL ( 1574369 calls)
     interpolate  :     15.75s CPU     16.41s WALL (     280 calls)
 
     Parallel routines
 
     PWSCF        :     21h57m CPU     22h20m WALL

 
   This run was terminated on:  11:44:42   4Mar2026            

=------------------------------------------------------------------------------=
   JOB DONE.
=------------------------------------------------------------------------------=
