
     Program PWSCF v.7.5 starts on 10Mar2026 at 23:23: 9 

     This program is part of the open-source Quantum ESPRESSO suite
     for quantum simulation of materials; please cite
         "P. Giannozzi et al., J. Phys.:Condens. Matter 21 395502 (2009);
         "P. Giannozzi et al., J. Phys.:Condens. Matter 29 465901 (2017);
         "P. Giannozzi et al., J. Chem. Phys. 152 154105 (2020);
          URL http://www.quantum-espresso.org", 
     in publications or presentations arising from this work. More details at
     http://www.quantum-espresso.org/quote

     Parallel version (MPI), running on    80 processors

     MPI processes distributed on     4 nodes
     80204 MiB available memory on the printing compute node when the environment starts
 
     Reading input from NaphthaleneOnGlassSite2Snapshot31.in
Warning: card &CELL ignored
Warning: card &FCP ignored
Warning: card &RISM ignored

     Current dimensions of program PWSCF are:
     Max number of different atomic species (ntypx) = 10
     Max number of k-points (npk) =  40000
     Max angular momentum in pseudopotentials (lmaxx) =  4
     file Na.paw.z_9.ld1.psl.v1.0.0-low.upf: wavefunction(s)  2P renormalized
     file O.pbe-n-kjpaw_psl.0.1.UPF: wavefunction(s)  2P renormalized
     file Al.pbe-n-kjpaw_psl.1.0.0.UPF: wavefunction(s)  3S 3P renormalized
     file C.pbe-n-kjpaw_psl.1.0.0.UPF: wavefunction(s)  2S 2P renormalized
 
     R & G space division:  proc/nbgrp/npool/nimage =      80
     Subspace diagonalization in iterative solution of the eigenvalue problem:
     one sub-group per band group will be used
     custom distributed-memory algorithm (size of sub-group:  8*  8 procs)

 
     Parallelization info
     --------------------
     sticks:   dense  smooth     PW     G-vecs:    dense   smooth      PW
     Min         450     400    100               199276   167008   20874
     Max         451     401    101               199303   167021   20885
     Sum       36073   32057   8021             15943719 13361281 1670237
 
     Using Slab Decomposition
 


     bravais-lattice index     =            0
     lattice parameter (alat)  =      35.4885  a.u.
     unit-cell volume          =  138228.4306 (a.u.)^3
     number of atoms/cell      =          358
     number of atomic types    =            7
     number of electrons       =      1872.00
     number of Kohn-Sham states=         1123
     kinetic-energy cutoff     =      80.0000  Ry
     charge density cutoff     =     360.0000  Ry
     scf convergence threshold =      1.0E-08
     mixing beta               =       0.1000
     number of iterations used =            8  plain     mixing
     Exchange-correlation= PBE
                           (   1   4   3   4   0   0   0)

     celldm(1)=  35.488539  celldm(2)=   0.000000  celldm(3)=   0.000000
     celldm(4)=   0.000000  celldm(5)=   0.000000  celldm(6)=   0.000000

     crystal axes: (cart. coord. in units of alat)
               a(1) = (   1.000000   0.000000   0.000000 )  
               a(2) = (   0.000000   1.000000   0.000000 )  
               a(3) = (   0.000000   0.000000   3.092666 )  

     reciprocal axes: (cart. coord. in units 2 pi/alat)
               b(1) = (  1.000000  0.000000  0.000000 )  
               b(2) = (  0.000000  1.000000  0.000000 )  
               b(3) = (  0.000000  0.000000  0.323346 )  


     PseudoPot. # 1 for Na read from file:
     /home/sabeel/VOCC_Simulation/pseudopotentials/SSSP_Precision/Na.paw.z_9.ld1.psl.v1.0.0-low.upf
     MD5 check sum: 32bccecb13d7399e6c7dae6fe6685ff0
     Pseudo is Projector augmented-wave + core cor, Zval =  9.0
     Generated using &quot;atomic&quot; code by A. Dal Corso  v.6.3MaX
     Shape of augmentation charge: PSQ
     Using radial grid of 1121 points,  4 beta functions with: 
                l(1) =   0
                l(2) =   0
                l(3) =   1
                l(4) =   1
     Q(r) pseudized with 0 coefficients 


     PseudoPot. # 2 for B  read from file:
     /home/sabeel/VOCC_Simulation/pseudopotentials/SSSP_Precision/B_pbe_v1.01.uspp.F.UPF
     MD5 check sum: d081ebb89d0c768e112975f650467a00
     Pseudo is Ultrasoft + core correction, Zval =  3.0
     Generated by new atomic code, or converted to UPF format
     Using radial grid of  781 points,  4 beta functions with: 
                l(1) =   0
                l(2) =   0
                l(3) =   1
                l(4) =   1
     Q(r) pseudized with  8 coefficients,  rinner =    1.100   1.100   1.100


     PseudoPot. # 3 for Si read from file:
     /home/sabeel/VOCC_Simulation/pseudopotentials/SSSP_Precision/Si.pbe-n-rrkjus_psl.1.0.0.UPF
     MD5 check sum: 0b0bb1205258b0d07b9f9672cf965d36
     Pseudo is Ultrasoft + core correction, Zval =  4.0
     Generated using "atomic" code by A. Dal Corso  v.5.1
     Using radial grid of 1141 points,  6 beta functions with: 
                l(1) =   0
                l(2) =   0
                l(3) =   1
                l(4) =   1
                l(5) =   2
                l(6) =   2
     Q(r) pseudized with 0 coefficients 


     PseudoPot. # 4 for O  read from file:
     /home/sabeel/VOCC_Simulation/pseudopotentials/SSSP_Precision/O.pbe-n-kjpaw_psl.0.1.UPF
     MD5 check sum: 0234752ac141de4415c5fc33072bef88
     Pseudo is Projector augmented-wave + core cor, Zval =  6.0
     Generated using "atomic" code by A. Dal Corso  v.5.0.99 svn rev. 10869
     Shape of augmentation charge: BESSEL
     Using radial grid of 1095 points,  4 beta functions with: 
                l(1) =   0
                l(2) =   0
                l(3) =   1
                l(4) =   1
     Q(r) pseudized with 0 coefficients 


     PseudoPot. # 5 for Al read from file:
     /home/sabeel/VOCC_Simulation/pseudopotentials/SSSP_Precision/Al.pbe-n-kjpaw_psl.1.0.0.UPF
     MD5 check sum: cfc449ca30b5f3223ec38ddd88ac046d
     Pseudo is Projector augmented-wave + core cor, Zval =  3.0
     Generated using "atomic" code by A. Dal Corso  v.5.1
     Shape of augmentation charge: PSQ
     Using radial grid of 1135 points,  6 beta functions with: 
                l(1) =   0
                l(2) =   0
                l(3) =   1
                l(4) =   1
                l(5) =   2
                l(6) =   2
     Q(r) pseudized with 0 coefficients 


     PseudoPot. # 6 for C  read from file:
     /home/sabeel/VOCC_Simulation/pseudopotentials/SSSP_Precision/C.pbe-n-kjpaw_psl.1.0.0.UPF
     MD5 check sum: 5d2aebdfa2cae82b50a7e79e9516da0f
     Pseudo is Projector augmented-wave + core cor, Zval =  4.0
     Generated using "atomic" code by A. Dal Corso  v.5.1
     Shape of augmentation charge: PSQ
     Using radial grid of 1073 points,  4 beta functions with: 
                l(1) =   0
                l(2) =   0
                l(3) =   1
                l(4) =   1
     Q(r) pseudized with 0 coefficients 


     PseudoPot. # 7 for H  read from file:
     /home/sabeel/VOCC_Simulation/pseudopotentials/SSSP_Precision/H_ONCV_PBE-1.0.oncvpsp.upf
     MD5 check sum: 1790becc920ee074925cf490c71280fe
     Pseudo is Norm-conserving, Zval =  1.0
     Generated using ONCVPSP code by D. R. Hamann
     Using radial grid of 1166 points,  2 beta functions with: 
                l(1) =   0
                l(2) =   0

     atomic species   valence    mass     pseudopotential
     Na                9.00    22.98977     Na( 1.00)
     B                 3.00    10.81000     B ( 1.00)
     Si                4.00    28.08500     Si( 1.00)
     O                 6.00    15.99900     O ( 1.00)
     Al                3.00    26.98154     Al( 1.00)
     C                 4.00    12.01100     C ( 1.00)
     H                 1.00     1.00800     H ( 1.00)

     No symmetry found



   Cartesian axes

     site n.     atom                  positions (alat units)
         1        Na     tau(   1) = (   0.2476327   0.1287261   1.4401902  )
         2        Na     tau(   2) = (   0.2347070   0.3964799   1.8357059  )
         3        Na     tau(   3) = (   0.2580766   0.4457236   1.6551511  )
         4        Na     tau(   4) = (   0.0484944   0.0277893   1.6277847  )
         5        Na     tau(   5) = (   0.2352313   0.0813062   1.2863150  )
         6        Na     tau(   6) = (   0.0747243   0.2371463   1.1982473  )
         7        Na     tau(   7) = (   0.1133306   0.7698962   1.8611434  )
         8        Na     tau(   8) = (   0.9037110   0.1954209   1.2700780  )
         9        Na     tau(   9) = (   0.5181841   0.1014052   1.4940734  )
        10        Na     tau(  10) = (   0.3803624   0.0140251   1.8302637  )
        11        Na     tau(  11) = (   0.3545179   0.4989222   1.3772145  )
        12        B      tau(  12) = (   0.9565860   0.6559989   1.4661680  )
        13        B      tau(  13) = (   0.3779039   0.3190213   1.8506233  )
        14        B      tau(  14) = (   0.6357433   0.7757670   1.3375748  )
        15        B      tau(  15) = (   0.9958362   0.0827877   1.8476266  )
        16        B      tau(  16) = (   0.6987179   0.5586979   1.3943070  )
        17        B      tau(  17) = (   0.0903279   0.5997535   1.2200041  )
        18        B      tau(  18) = (   0.9460845   0.5017876   1.4754679  )
        19        B      tau(  19) = (   0.0032347   0.0527127   1.2839437  )
        20        B      tau(  20) = (   0.1241012   0.5940167   1.6016841  )
        21        B      tau(  21) = (   0.4174729   0.9198072   1.5541475  )
        22        B      tau(  22) = (   0.4638227   0.9107282   1.2322731  )
        23        B      tau(  23) = (   0.5096053   0.7092947   1.5000083  )
        24        B      tau(  24) = (   0.4035376   0.9367665   1.6900270  )
        25        B      tau(  25) = (   0.7132674   0.8560217   1.2558196  )
        26        B      tau(  26) = (   0.2579773   0.4217781   1.2874388  )
        27        B      tau(  27) = (   0.1862793   0.2338812   1.3576537  )
        28        B      tau(  28) = (   0.2134919   0.3664862   1.5073156  )
        29        B      tau(  29) = (   0.3546252   0.0462610   1.5293894  )
        30        B      tau(  30) = (   0.8082206   0.9504483   1.6218439  )
        31        B      tau(  31) = (   0.4915043   0.5408159   1.2913026  )
        32        B      tau(  32) = (   0.2471486   0.9450605   1.4099193  )
        33        B      tau(  33) = (   0.7089246   0.1566090   1.6669558  )
        34        B      tau(  34) = (   0.4858908   0.1745693   1.3498737  )
        35        Si     tau(  35) = (   0.5740761   0.3686341   1.4981594  )
        36        Si     tau(  36) = (   0.9600416   0.6521543   1.2713743  )
        37        Si     tau(  37) = (   0.8029666   0.9237355   1.4090604  )
        38        Si     tau(  38) = (   0.6589027   0.0111466   1.4303706  )
        39        Si     tau(  39) = (   0.7148031   0.8518694   1.6658713  )
        40        Si     tau(  40) = (   0.4062844   0.4370669   1.7000479  )
        41        Si     tau(  41) = (   0.8652299   0.0194200   1.2866760  )
        42        Si     tau(  42) = (   0.8792462   0.4724358   1.3313926  )
        43        Si     tau(  43) = (   0.9761010   0.8191325   1.3004490  )
        44        Si     tau(  44) = (   0.0927580   0.6000365   1.4532062  )
        45        Si     tau(  45) = (   0.8492038   0.6801733   1.8429896  )
        46        Si     tau(  46) = (   0.7648638   0.9759642   1.8781504  )
        47        Si     tau(  47) = (   0.8282769   0.9005504   1.7531841  )
        48        Si     tau(  48) = (   0.2400871   0.2615564   1.6009290  )
        49        Si     tau(  49) = (   0.0782160   0.8578516   1.7113893  )
        50        Si     tau(  50) = (   0.1793983   0.5421597   1.3229395  )
        51        Si     tau(  51) = (   0.3045589   0.3154693   1.3856788  )
        52        Si     tau(  52) = (   0.1868342   0.9496617   1.8144358  )
        53        Si     tau(  53) = (   0.5597482   0.9942014   1.8563540  )
        54        Si     tau(  54) = (   0.3283405   0.8654915   1.7979255  )
        55        Si     tau(  55) = (   0.3944303   0.1342286   1.2558232  )
        56        Si     tau(  56) = (   0.5556116   0.4029995   1.7688172  )
        57        Si     tau(  57) = (   0.8886951   0.0519111   1.5515978  )
        58        Si     tau(  58) = (   0.9177874   0.8266438   1.8602018  )
        59        Si     tau(  59) = (   0.5141592   0.7513592   1.7304853  )
        60        Si     tau(  60) = (   0.6200680   0.7296116   1.5975635  )
        61        Si     tau(  61) = (   0.4531771   0.2653855   1.4551164  )
        62        Si     tau(  62) = (   0.9530092   0.1910999   1.6203079  )
        63        Si     tau(  63) = (   0.9806318   0.2594417   1.4695044  )
        64        Si     tau(  64) = (   0.1810221   0.5658568   1.7318917  )
        65        Si     tau(  65) = (   0.2276537   0.6624309   1.2309086  )
        66        Si     tau(  66) = (   0.7086066   0.3068958   1.4624957  )
        67        Si     tau(  67) = (   0.7573617   0.5008676   1.2102682  )
        68        Si     tau(  68) = (   0.0630774   0.5052222   1.8068999  )
        69        Si     tau(  69) = (   0.9531780   0.4208941   1.7332624  )
        70        Si     tau(  70) = (   0.8429520   0.6341042   1.3864806  )
        71        Si     tau(  71) = (   0.8255070   0.2513717   1.7092992  )
        72        Si     tau(  72) = (   0.4660404   0.3166643   1.5999861  )
        73        Si     tau(  73) = (   0.3218087   0.1696541   1.7095271  )
        74        Si     tau(  74) = (   0.6054871   0.0864265   1.2929813  )
        75        Si     tau(  75) = (   0.4402609   0.0821865   1.6559030  )
        76        Si     tau(  76) = (   0.3770531   0.0317907   1.3941734  )
        77        Si     tau(  77) = (   0.5059912   0.8072476   1.3243503  )
        78        Si     tau(  78) = (   0.6069382   0.5044701   1.6609957  )
        79        Si     tau(  79) = (   0.6370349   0.4244534   1.3741369  )
        80        Si     tau(  80) = (   0.6855674   0.7078304   1.8645318  )
        81        Si     tau(  81) = (   0.0765130   0.9298841   1.2314627  )
        82        Si     tau(  82) = (   0.9863684   0.4054382   1.2235204  )
        83        Si     tau(  83) = (   0.4950631   0.2585395   1.7548401  )
        84        Si     tau(  84) = (   0.5719431   0.1160579   1.7357262  )
        85        Si     tau(  85) = (   0.3566442   0.7389475   1.7027041  )
        86        Si     tau(  86) = (   0.5887626   0.6478135   1.7482870  )
        87        Si     tau(  87) = (   0.3778403   0.4701707   1.1981005  )
        88        Si     tau(  88) = (   0.7705746   0.7745811   1.3546535  )
        89        Si     tau(  89) = (   0.6353056   0.3899359   1.2194797  )
        90        Si     tau(  90) = (   0.3199297   0.6027545   1.8036004  )
        91        Si     tau(  91) = (   0.6901246   0.5787282   1.5496775  )
        92        Si     tau(  92) = (   0.1108815   0.9857043   1.4484254  )
        93        Si     tau(  93) = (   0.0087222   0.8101075   1.4596435  )
        94        Si     tau(  94) = (   0.4662737   0.5842118   1.4387730  )
        95        Si     tau(  95) = (   0.1497603   0.1150345   1.8191784  )
        96        Si     tau(  96) = (   0.9119816   0.9073773   1.5284091  )
        97        Si     tau(  97) = (   0.5081777   0.9347421   1.4393654  )
        98        Si     tau(  98) = (   0.9733658   0.9480751   1.7929925  )
        99        Si     tau(  99) = (   0.2449909   0.7736475   1.5958723  )
       100        Si     tau( 100) = (   0.2568298   0.7840856   1.3334763  )
       101        Si     tau( 101) = (   0.1600543   0.7576293   1.4557816  )
       102        Si     tau( 102) = (   0.9190690   0.2974838   1.8287833  )
       103        Si     tau( 103) = (   0.8499270   0.3745654   1.6104514  )
       104        Si     tau( 104) = (   0.8444491   0.5369054   1.7673517  )
       105        Si     tau( 105) = (   0.1203187   0.1732756   1.6597012  )
       106        Si     tau( 106) = (   0.6321686   0.6005607   1.2681838  )
       107        Si     tau( 107) = (   0.6235724   0.8470731   1.8048529  )
       108        Si     tau( 108) = (   0.7501132   0.1202716   1.2309056  )
       109        Si     tau( 109) = (   0.2746484   0.2046900   1.8670863  )
       110        Si     tau( 110) = (   0.2273259   0.0646953   1.6216725  )
       111        Si     tau( 111) = (   0.0729274   0.4042159   1.4579120  )
       112        Si     tau( 112) = (   0.6640697   0.1601480   1.5162335  )
       113        Si     tau( 113) = (   0.1226817   0.7031938   1.6887692  )
       114        Si     tau( 114) = (   0.8406300   0.5276586   1.5875131  )
       115        Si     tau( 115) = (   0.8389500   0.3149315   1.3901795  )
       116        Si     tau( 116) = (   0.1722727   0.9211130   1.5953570  )
       117        Si     tau( 117) = (   0.0763504   0.1375521   1.3930086  )
       118        Si     tau( 118) = (   0.3256209   0.9115638   1.2548481  )
       119        Si     tau( 119) = (   0.3955849   0.7224945   1.4035300  )
       120        Si     tau( 120) = (   0.4652418   0.5499611   1.5942954  )
       121        Si     tau( 121) = (   0.1212618   0.3651412   1.3045003  )
       122        O      tau( 122) = (   0.0295168   0.4481121   1.8630498  )
       123        O      tau( 123) = (   0.8632305   0.7660730   1.8351295  )
       124        O      tau( 124) = (   0.7865379   0.5198677   1.8292109  )
       125        O      tau( 125) = (   0.7687039   0.8065522   1.2712216  )
       126        O      tau( 126) = (   0.2613316   0.2462125   1.3627201  )
       127        O      tau( 127) = (   0.4383841   0.2721051   1.5384261  )
       128        O      tau( 128) = (   0.4075804   0.9041606   1.6244717  )
       129        O      tau( 129) = (   0.2891632   0.9821156   1.2266374  )
       130        O      tau( 130) = (   0.3003666   0.1796727   1.7902854  )
       131        O      tau( 131) = (   0.5973279   0.4225163   1.2949590  )
       132        O      tau( 132) = (   0.5334428   0.5020140   1.6146071  )
       133        O      tau( 133) = (   0.2755656   0.1058719   1.6786020  )
       134        O      tau( 134) = (   0.1545595   0.1075181   1.6150265  )
       135        O      tau( 135) = (   0.1198242   0.5723265   1.5291309  )
       136        O      tau( 136) = (   0.5826608   0.7211316   1.6806210  )
       137        O      tau( 137) = (   0.4384820   0.7620469   1.6969890  )
       138        O      tau( 138) = (   0.3813441   0.2977472   1.4178316  )
       139        O      tau( 139) = (   0.9518571   0.2429557   1.5505285  )
       140        O      tau( 140) = (   0.6668767   0.5177678   1.6031137  )
       141        O      tau( 141) = (   0.1520770   0.1695411   1.3620472  )
       142        O      tau( 142) = (   0.6925009   0.7509516   1.3753791  )
       143        O      tau( 143) = (   0.1434568   0.6580895   1.2139172  )
       144        O      tau( 144) = (   0.4761486   0.9028411   1.5138988  )
       145        O      tau( 145) = (   0.0631356   0.5782061   1.8492954  )
       146        O      tau( 146) = (   0.5876332   0.4146284   1.8503125  )
       147        O      tau( 147) = (   0.1071621   0.8902567   1.6361869  )
       148        O      tau( 148) = (   0.0331486   0.1967754   1.4407710  )
       149        O      tau( 149) = (   0.9443941   0.9810288   1.5588672  )
       150        O      tau( 150) = (   0.5485694   0.5774714   1.2625723  )
       151        O      tau( 151) = (   0.6090489   0.9225244   1.8421140  )
       152        O      tau( 152) = (   0.3184350   0.7927686   1.7545505  )
       153        O      tau( 153) = (   0.2965868   0.2359092   1.6579206  )
       154        O      tau( 154) = (   0.3399948   0.4149078   1.7451441  )
       155        O      tau( 155) = (   0.6583099   0.3076783   1.2358723  )
       156        O      tau( 156) = (   0.5620926   0.7442927   1.5385442  )
       157        O      tau( 157) = (   0.5556976   0.3175372   1.7688381  )
       158        O      tau( 158) = (   0.3525972   0.6632019   1.7471104  )
       159        O      tau( 159) = (   0.9620412   0.3446718   1.7697440  )
       160        O      tau( 160) = (   0.5313272   0.1848172   1.7709556  )
       161        O      tau( 161) = (   0.9429693   0.0183272   1.3239474  )
       162        O      tau( 162) = (   0.4858005   0.9533180   1.8755890  )
       163        O      tau( 163) = (   0.3657073   0.5328581   1.8345358  )
       164        O      tau( 164) = (   0.4406081   0.5066782   1.2484323  )
       165        O      tau( 165) = (   0.3135028   0.2834622   1.8690668  )
       166        O      tau( 166) = (   0.7907911   0.8360261   1.7119523  )
       167        O      tau( 167) = (   0.7289290   0.9234833   1.2340123  )
       168        O      tau( 168) = (   0.1454692   0.2885690   1.3267456  )
       169        O      tau( 169) = (   0.3914991   0.9066251   1.7575926  )
       170        O      tau( 170) = (   0.7079875   0.2222935   1.4707635  )
       171        O      tau( 171) = (   0.9743698   0.8515159   1.5269402  )
       172        O      tau( 172) = (   0.1330105   0.5361140   1.2470617  )
       173        O      tau( 173) = (   0.5827735   0.0420994   1.2254729  )
       174        O      tau( 174) = (   0.8602910   0.6220068   1.7811976  )
       175        O      tau( 175) = (   0.5252483   0.6418342   1.4684534  )
       176        O      tau( 176) = (   0.6556139   0.6691234   1.7930720  )
       177        O      tau( 177) = (   0.9478947   0.4555202   1.2814895  )
       178        O      tau( 178) = (   0.9699578   0.0766966   1.2188133  )
       179        O      tau( 179) = (   0.5480526   0.8088247   1.7836236  )
       180        O      tau( 180) = (   0.3152477   0.7447790   1.3880620  )
       181        O      tau( 181) = (   0.1477991   0.6460434   1.7450578  )
       182        O      tau( 182) = (   0.4226375   0.0083615   1.6949577  )
       183        O      tau( 183) = (   0.5004654   0.8461638   1.2447985  )
       184        O      tau( 184) = (   0.7864920   0.8423242   1.4036977  )
       185        O      tau( 185) = (   0.9046070   0.6136339   1.3286598  )
       186        O      tau( 186) = (   0.1308852   0.5564651   1.3912596  )
       187        O      tau( 187) = (   0.0181193   0.9388870   1.8632981  )
       188        O      tau( 188) = (   0.5236768   0.3172741   1.4469420  )
       189        O      tau( 189) = (   0.6771903   0.1363695   1.2729556  )
       190        O      tau( 190) = (   0.5668565   0.7520726   1.3411952  )
       191        O      tau( 191) = (   0.4390184   0.1054952   1.8920128  )
       192        O      tau( 192) = (   0.2801127   0.0556319   1.5537880  )
       193        O      tau( 193) = (   0.9517833   0.2240015   1.8530263  )
       194        O      tau( 194) = (   0.4078786   0.5134087   1.6517908  )
       195        O      tau( 195) = (   0.6735166   0.7941076   1.8547702  )
       196        O      tau( 196) = (   0.7896414   0.2674110   1.3392843  )
       197        O      tau( 197) = (   0.9136500   0.5214282   1.5392122  )
       198        O      tau( 198) = (   0.5881526   0.4350093   1.4460280  )
       199        O      tau( 199) = (   0.7745755   0.5842257   1.3844862  )
       200        O      tau( 200) = (   0.2034896   0.9862494   1.6415920  )
       201        O      tau( 201) = (   0.1233221   0.6813655   1.4530684  )
       202        O      tau( 202) = (   0.7937827   0.3272627   1.4639956  )
       203        O      tau( 203) = (   0.4473563   0.5396589   1.5104804  )
       204        O      tau( 204) = (   0.6542799   0.3403998   1.5182787  )
       205        O      tau( 205) = (   0.8234572   0.7113307   1.3622509  )
       206        O      tau( 206) = (   0.8127487   0.4431771   1.5824090  )
       207        O      tau( 207) = (   0.5134106   0.6764784   1.7758121  )
       208        O      tau( 208) = (   0.1836556   0.7783442   1.3761575  )
       209        O      tau( 209) = (   0.8104766   0.3105590   1.6473803  )
       210        O      tau( 210) = (   0.3044033   0.9850075   1.3843284  )
       211        O      tau( 211) = (   0.1301504   0.8965179   1.7717389  )
       212        O      tau( 212) = (   0.3197141   0.1653364   1.2298596  )
       213        O      tau( 213) = (   0.4699233   0.1934200   1.4196372  )
       214        O      tau( 214) = (   0.2809558   0.8612246   1.3097159  )
       215        O      tau( 215) = (   0.4264163   0.2824703   1.8051299  )
       216        O      tau( 216) = (   0.6599679   0.6539216   1.5790006  )
       217        O      tau( 217) = (   0.7349642   0.9291111   1.6364595  )
       218        O      tau( 218) = (   0.0099961   0.4612132   1.4800917  )
       219        O      tau( 219) = (   0.5892025   0.1978638   1.5290320  )
       220        O      tau( 220) = (   0.0485841   0.8646896   1.2765110  )
       221        O      tau( 221) = (   0.9732948   0.8322736   1.3845405  )
       222        O      tau( 222) = (   0.4005127   0.1467648   1.7001924  )
       223        O      tau( 223) = (   0.8561165   0.3880932   1.3551362  )
       224        O      tau( 224) = (   0.1908703   0.7320545   1.6493092  )
       225        O      tau( 225) = (   0.5316561   0.3624401   1.5720686  )
       226        O      tau( 226) = (   0.6407674   0.0341441   1.3503554  )
       227        O      tau( 227) = (   0.2507360   0.3493753   1.4464087  )
       228        O      tau( 228) = (   0.5138994   0.8709061   1.3834646  )
       229        O      tau( 229) = (   0.9079300   0.5013233   1.4088368  )
       230        O      tau( 230) = (   0.4395504   0.1937154   1.2966161  )
       231        O      tau( 231) = (   0.2308999   0.6103161   1.2990312  )
       232        O      tau( 232) = (   0.3685013   0.9700313   1.5258447  )
       233        O      tau( 233) = (   0.8514985   0.9494698   1.6877232  )
       234        O      tau( 234) = (   0.0187499   0.4824011   1.7364241  )
       235        O      tau( 235) = (   0.2414021   0.3421124   1.5740169  )
       236        O      tau( 236) = (   0.6097970   0.4413714   1.7163163  )
       237        O      tau( 237) = (   0.4788214   0.4352721   1.7472383  )
       238        O      tau( 238) = (   0.1395403   0.9630524   1.5257738  )
       239        O      tau( 239) = (   0.3787358   0.0784353   1.3203646  )
       240        O      tau( 240) = (   0.5839692   0.9685892   1.4551464  )
       241        O      tau( 241) = (   0.9110607   0.6557788   1.2003494  )
       242        O      tau( 242) = (   0.0686474   0.1043740   1.8437037  )
       243        O      tau( 243) = (   0.1460976   0.3999842   1.5060950  )
       244        O      tau( 244) = (   0.4166165   0.3782170   1.6358330  )
       245        O      tau( 245) = (   0.0075933   0.9084354   1.7265037  )
       246        O      tau( 246) = (   0.8482460   0.9888286   1.2074661  )
       247        O      tau( 247) = (   0.6787187   0.3475581   1.3906861  )
       248        O      tau( 248) = (   0.2793975   0.6318760   1.8700688  )
       249        O      tau( 249) = (   0.1753735   0.9662414   1.3957977  )
       250        O      tau( 250) = (   0.0079684   0.6039592   1.4520956  )
       251        O      tau( 251) = (   0.6799702   0.7916690   1.6137563  )
       252        O      tau( 252) = (   0.8228944   0.4963375   1.2716413  )
       253        O      tau( 253) = (   0.1652982   0.5553089   1.6491463  )
       254        O      tau( 254) = (   0.6527640   0.8346788   1.2935381  )
       255        O      tau( 255) = (   0.0358116   0.1810737   1.6422342  )
       256        O      tau( 256) = (   0.5638762   0.0484964   1.7892635  )
       257        O      tau( 257) = (   0.7314789   0.9670683   1.4359075  )
       258        O      tau( 258) = (   0.2559548   0.8899428   1.4535926  )
       259        O      tau( 259) = (   0.7774448   0.5773609   1.5598674  )
       260        O      tau( 260) = (   0.0868638   0.6515873   1.6288983  )
       261        O      tau( 261) = (   0.2614827   0.9212168   1.7891965  )
       262        O      tau( 262) = (   0.1954831   0.1735609   1.8664394  )
       263        O      tau( 263) = (   0.9906684   0.7948073   1.8435173  )
       264        O      tau( 264) = (   0.4575167   0.9955248   1.4051103  )
       265        O      tau( 265) = (   0.7735858   0.2011661   1.2118609  )
       266        O      tau( 266) = (   0.8814090   0.9281431   1.4499689  )
       267        O      tau( 267) = (   0.4072071   0.9256292   1.2771435  )
       268        O      tau( 268) = (   0.8399764   0.8937974   1.5751596  )
       269        O      tau( 269) = (   0.9802476   0.7272430   1.4739436  )
       270        O      tau( 270) = (   0.4029974   0.6353892   1.4077172  )
       271        O      tau( 271) = (   0.5236271   0.0940762   1.6637713  )
       272        O      tau( 272) = (   0.2291142   0.8566340   1.6031926  )
       273        O      tau( 273) = (   0.1369597   0.1529802   1.7410824  )
       274        O      tau( 274) = (   0.8956842   0.4684356   1.7728116  )
       275        O      tau( 275) = (   0.0304714   0.3296381   1.4668483  )
       276        O      tau( 276) = (   0.9261533   0.1126670   1.5937994  )
       277        O      tau( 277) = (   0.3196110   0.7473434   1.6269653  )
       278        O      tau( 278) = (   0.2346612   0.4755155   1.3381933  )
       279        O      tau( 279) = (   0.0309321   0.9618656   1.4299785  )
       280        O      tau( 280) = (   0.1026240   0.4047238   1.3770124  )
       281        O      tau( 281) = (   0.0996948   0.0720356   1.4419196  )
       282        O      tau( 282) = (   0.9796419   0.7336502   1.2951357  )
       283        O      tau( 283) = (   0.4798587   0.2721799   1.6719849  )
       284        O      tau( 284) = (   0.1447462   0.5042309   1.7791641  )
       285        O      tau( 285) = (   0.6584207   0.0850578   1.4744274  )
       286        O      tau( 286) = (   0.8447302   0.2856675   1.7867899  )
       287        O      tau( 287) = (   0.9236456   0.3532967   1.8933803  )
       288        O      tau( 288) = (   0.7131244   0.4260542   1.2089447  )
       289        O      tau( 289) = (   0.1815374   0.0351118   1.8104616  )
       290        O      tau( 290) = (   0.0329975   0.6097415   1.2681351  )
       291        O      tau( 291) = (   0.8998275   0.8951096   1.8045433  )
       292        O      tau( 292) = (   0.3016404   0.4593341   1.2337882  )
       293        O      tau( 293) = (   0.2631331   0.5633327   1.7490475  )
       294        O      tau( 294) = (   0.7023044   0.1539457   1.5910141  )
       295        O      tau( 295) = (   0.5450848   0.1349270   1.3303906  )
       296        O      tau( 296) = (   0.1632620   0.2443342   1.6379519  )
       297        O      tau( 297) = (   0.1916640   0.3894955   1.2601897  )
       298        O      tau( 298) = (   0.0615898   0.0043928   1.2718305  )
       299        O      tau( 299) = (   0.3967139   0.3875856   1.8762703  )
       300        O      tau( 300) = (   0.4846187   0.5410669   1.3666698  )
       301        O      tau( 301) = (   0.8186424   0.0168112   1.5820830  )
       302        O      tau( 302) = (   0.5974300   0.5762403   1.7036424  )
       303        O      tau( 303) = (   0.4323575   0.7667648   1.3386386  )
       304        O      tau( 304) = (   0.7719883   0.9374236   1.8028857  )
       305        O      tau( 305) = (   0.7672182   0.1900179   1.6976508  )
       306        O      tau( 306) = (   0.8994379   0.0650389   1.4672678  )
       307        O      tau( 307) = (   0.4462121   0.7426137   1.4731770  )
       308        O      tau( 308) = (   0.9211726   0.3961581   1.6533343  )
       309        O      tau( 309) = (   0.2420202   0.2200105   1.5251544  )
       310        O      tau( 310) = (   0.8842963   0.6436934   1.4589679  )
       311        O      tau( 311) = (   0.6482991   0.6785877   1.2330670  )
       312        O      tau( 312) = (   0.4832983   0.6325017   1.6039613  )
       313        O      tau( 313) = (   0.7361349   0.0571749   1.8732737  )
       314        O      tau( 314) = (   0.6649925   0.8590630   1.7336776  )
       315        O      tau( 315) = (   0.9130296   0.2721061   1.4159943  )
       316        O      tau( 316) = (   0.6511009   0.5989696   1.3506902  )
       317        O      tau( 317) = (   0.8131240   0.0898692   1.2825970  )
       318        O      tau( 318) = (   0.6524595   0.1336951   1.7108949  )
       319        O      tau( 319) = (   0.6784211   0.5695802   1.4690337  )
       320        O      tau( 320) = (   0.9018920   0.2183548   1.6834522  )
       321        O      tau( 321) = (   0.9678130   0.0358255   1.7940055  )
       322        O      tau( 322) = (   0.8368182   0.5391156   1.6776043  )
       323        O      tau( 323) = (   0.7668768   0.6856661   1.8697035  )
       324        O      tau( 324) = (   0.1531671   0.9301796   1.8945654  )
       325        O      tau( 325) = (   0.2178402   0.7542098   1.5177838  )
       326        O      tau( 326) = (   0.3614324   0.0782581   1.4600024  )
       327        O      tau( 327) = (   0.4053368   0.0766386   1.5793453  )
       328        O      tau( 328) = (   0.3320739   0.8564650   1.8828345  )
       329        O      tau( 329) = (   0.0914304   0.8126101   1.4681485  )
       330        O      tau( 330) = (   0.2416337   0.7445048   1.2588964  )
       331        O      tau( 331) = (   0.8232583   0.9617889   1.3373563  )
       332        O      tau( 332) = (   0.0224173   0.1103921   1.3331986  )
       333        O      tau( 333) = (   0.0827261   0.7743688   1.7158336  )
       334        O      tau( 334) = (   0.3058372   0.3697607   1.3216954  )
       335        O      tau( 335) = (   0.6940744   0.4843818   1.3763524  )
       336        O      tau( 336) = (   0.0505520   0.3569640   1.2588409  )
       337        O      tau( 337) = (   0.6956442   0.5556100   1.2255199  )
       338        O      tau( 338) = (   0.9205918   0.8444316   1.2442634  )
       339        Al     tau( 339) = (   0.9474166   0.9984982   1.4171699  )
       340        Al     tau( 340) = (   0.7317137   0.2651324   1.2660316  )
       341        C      tau( 341) = (   0.5214378   0.4015461   0.2889243  )
       342        C      tau( 342) = (   0.4479569   0.3909766   0.2759764  )
       343        C      tau( 343) = (   0.5653175   0.3422400   0.3011619  )
       344        C      tau( 344) = (   0.4205128   0.3214128   0.2756623  )
       345        C      tau( 345) = (   0.5488767   0.4711092   0.2892376  )
       346        C      tau( 346) = (   0.4040833   0.4502831   0.2637345  )
       347        C      tau( 347) = (   0.5371518   0.2734980   0.3006461  )
       348        C      tau( 348) = (   0.4648892   0.2631047   0.2879236  )
       349        C      tau( 349) = (   0.5045065   0.5294176   0.2769719  )
       350        C      tau( 350) = (   0.4322510   0.5190244   0.2642399  )
       351        H      tau( 351) = (   0.6219558   0.3491057   0.3112205  )
       352        H      tau( 352) = (   0.3641909   0.3120316   0.2658302  )
       353        H      tau( 353) = (   0.6051969   0.4804959   0.2990744  )
       354        H      tau( 354) = (   0.3474366   0.4434151   0.2536637  )
       355        H      tau( 355) = (   0.5716658   0.2280845   0.3101910  )
       356        H      tau( 356) = (   0.4429953   0.2095720   0.2875282  )
       357        H      tau( 357) = (   0.5264020   0.5829447   0.2773626  )
       358        H      tau( 358) = (   0.3977363   0.5644431   0.2546945  )

     number of k points=     1  Gaussian smearing, width (Ry)=  0.0100
                       cart. coord. in units 2pi/alat
        k(    1) = (   0.0000000   0.0000000   0.0000000), wk =   2.0000000

     Dense  grid: 15943719 G-vectors     FFT dimensions: ( 216, 216, 675)

     Smooth grid: 13361281 G-vectors     FFT dimensions: ( 216, 216, 625)

     Estimated max dynamical RAM per process >       4.14 GB

     Estimated total dynamical RAM >     331.13 GB

     Check: negative core charge=   -0.000001

     Initial potential from superposition of free atoms

     starting charge    1871.8703, renormalised to    1872.0000

     negative rho (up, down):  4.211E-02 0.000E+00
     Starting wfcs are 1419 randomized atomic wfcs
     Checking if some PAW data can be deallocated... 

     total cpu time spent up to now is      148.8 secs

     per-process dynamical memory:  1754.0 Mb

     Self-consistent Calculation

     iteration #  1     ecut=    80.00 Ry     beta= 0.10
     Davidson diagonalization with overlap
     ethr =  1.00E-02,  avg # of iterations =  3.0

     negative rho (up, down):  4.419E-02 0.000E+00

     total cpu time spent up to now is      632.0 secs

     total energy              =  -11693.37216644 Ry
     estimated scf accuracy    <     115.61089864 Ry

     iteration #  2     ecut=    80.00 Ry     beta= 0.10
     Davidson diagonalization with overlap
     ethr =  6.18E-03,  avg # of iterations =  1.0

     negative rho (up, down):  4.591E-02 0.000E+00

     total cpu time spent up to now is      916.0 secs

     total energy              =  -11688.10893351 Ry
     estimated scf accuracy    <      84.84916915 Ry

     iteration #  3     ecut=    80.00 Ry     beta= 0.10
     Davidson diagonalization with overlap
     ethr =  4.53E-03,  avg # of iterations =  1.0

     negative rho (up, down):  4.776E-02 0.000E+00

     total cpu time spent up to now is     1199.8 secs

     total energy              =  -11681.50265301 Ry
     estimated scf accuracy    <      59.20455093 Ry

     iteration #  4     ecut=    80.00 Ry     beta= 0.10
     Davidson diagonalization with overlap
     ethr =  3.16E-03,  avg # of iterations =  2.0

     negative rho (up, down):  4.886E-02 0.000E+00

     total cpu time spent up to now is     1518.1 secs

     total energy              =  -11682.82252934 Ry
     estimated scf accuracy    <      60.37370955 Ry

     iteration #  5     ecut=    80.00 Ry     beta= 0.10
     Davidson diagonalization with overlap
     ethr =  3.16E-03,  avg # of iterations =  1.0

     negative rho (up, down):  4.999E-02 0.000E+00

     total cpu time spent up to now is     1801.9 secs

     total energy              =  -11682.19956080 Ry
     estimated scf accuracy    <      39.50108933 Ry

     iteration #  6     ecut=    80.00 Ry     beta= 0.10
     Davidson diagonalization with overlap
     ethr =  2.11E-03,  avg # of iterations =  1.0

     negative rho (up, down):  5.085E-02 0.000E+00

     total cpu time spent up to now is     2086.1 secs

     total energy              =  -11682.42803475 Ry
     estimated scf accuracy    <      26.86158714 Ry

     iteration #  7     ecut=    80.00 Ry     beta= 0.10
     Davidson diagonalization with overlap
     ethr =  1.43E-03,  avg # of iterations =  2.0

     negative rho (up, down):  5.167E-02 0.000E+00

     total cpu time spent up to now is     2404.2 secs

     total energy              =  -11682.17304805 Ry
     estimated scf accuracy    <      34.77146418 Ry

     iteration #  8     ecut=    80.00 Ry     beta= 0.10
     Davidson diagonalization with overlap
     ethr =  1.43E-03,  avg # of iterations =  1.0

     negative rho (up, down):  5.227E-02 0.000E+00

     total cpu time spent up to now is     2688.1 secs

     total energy              =  -11682.31193480 Ry
     estimated scf accuracy    <      18.88457244 Ry

     iteration #  9     ecut=    80.00 Ry     beta= 0.10
     Davidson diagonalization with overlap
     ethr =  1.01E-03,  avg # of iterations =  2.0

     negative rho (up, down):  5.286E-02 0.000E+00

     total cpu time spent up to now is     3006.0 secs

     total energy              =  -11682.14012038 Ry
     estimated scf accuracy    <      18.70397560 Ry

     iteration # 10     ecut=    80.00 Ry     beta= 0.10
     Davidson diagonalization with overlap
     ethr =  9.99E-04,  avg # of iterations =  2.0

     negative rho (up, down):  5.337E-02 0.000E+00

     total cpu time spent up to now is     3322.8 secs

     total energy              =  -11682.14598436 Ry
     estimated scf accuracy    <      12.77639807 Ry

     iteration # 11     ecut=    80.00 Ry     beta= 0.10
     Davidson diagonalization with overlap
     ethr =  6.82E-04,  avg # of iterations =  2.0

     negative rho (up, down):  5.372E-02 0.000E+00

     total cpu time spent up to now is     3640.8 secs

     total energy              =  -11682.03914487 Ry
     estimated scf accuracy    <      21.78181984 Ry

     iteration # 12     ecut=    80.00 Ry     beta= 0.10
     Davidson diagonalization with overlap
     ethr =  6.82E-04,  avg # of iterations =  2.0

     negative rho (up, down):  5.402E-02 0.000E+00

     total cpu time spent up to now is     3958.2 secs

     total energy              =  -11682.31721952 Ry
     estimated scf accuracy    <       4.87685150 Ry

     iteration # 13     ecut=    80.00 Ry     beta= 0.10
     Davidson diagonalization with overlap
     ethr =  2.61E-04,  avg # of iterations = 18.0

     negative rho (up, down):  5.445E-02 0.000E+00

     total cpu time spent up to now is     4413.2 secs

     total energy              =  -11682.20881133 Ry
     estimated scf accuracy    <       5.66171015 Ry

     iteration # 14     ecut=    80.00 Ry     beta= 0.10
     Davidson diagonalization with overlap
     ethr =  2.61E-04,  avg # of iterations =  2.0

     negative rho (up, down):  5.499E-02 0.000E+00

     total cpu time spent up to now is     4730.4 secs

     total energy              =  -11682.10808516 Ry
     estimated scf accuracy    <       4.72886243 Ry

     iteration # 15     ecut=    80.00 Ry     beta= 0.10
     Davidson diagonalization with overlap
     ethr =  2.53E-04,  avg # of iterations =  1.0

     negative rho (up, down):  5.497E-02 0.000E+00

     total cpu time spent up to now is     5013.3 secs

     total energy              =  -11681.90035563 Ry
     estimated scf accuracy    <      18.18799212 Ry

     iteration # 16     ecut=    80.00 Ry     beta= 0.10
     Davidson diagonalization with overlap
     ethr =  2.53E-04,  avg # of iterations =  2.0

     negative rho (up, down):  5.535E-02 0.000E+00

     total cpu time spent up to now is     5330.5 secs

     total energy              =  -11682.13349871 Ry
     estimated scf accuracy    <       3.58174820 Ry

     iteration # 17     ecut=    80.00 Ry     beta= 0.10
     Davidson diagonalization with overlap
     ethr =  1.91E-04,  avg # of iterations =  1.0

     negative rho (up, down):  5.588E-02 0.000E+00

     total cpu time spent up to now is     5613.1 secs

     total energy              =  -11682.07346670 Ry
     estimated scf accuracy    <       3.82896822 Ry

     iteration # 18     ecut=    80.00 Ry     beta= 0.10
     Davidson diagonalization with overlap
     ethr =  1.91E-04,  avg # of iterations =  2.0

     negative rho (up, down):  5.586E-02 0.000E+00

     total cpu time spent up to now is     5930.7 secs

     total energy              =  -11681.95327165 Ry
     estimated scf accuracy    <       8.12062148 Ry

     iteration # 19     ecut=    80.00 Ry     beta= 0.10
     Davidson diagonalization with overlap
     ethr =  1.91E-04,  avg # of iterations =  2.0

     negative rho (up, down):  5.613E-02 0.000E+00

     total cpu time spent up to now is     6247.7 secs

     total energy              =  -11682.11587886 Ry
     estimated scf accuracy    <       2.99507502 Ry

     iteration # 20     ecut=    80.00 Ry     beta= 0.10
     Davidson diagonalization with overlap
     ethr =  1.60E-04,  avg # of iterations =  1.0

     negative rho (up, down):  5.653E-02 0.000E+00

     total cpu time spent up to now is     6530.8 secs

     total energy              =  -11682.07196920 Ry
     estimated scf accuracy    <       2.92514888 Ry

     iteration # 21     ecut=    80.00 Ry     beta= 0.10
     Davidson diagonalization with overlap
     ethr =  1.56E-04,  avg # of iterations =  1.0

     negative rho (up, down):  5.675E-02 0.000E+00

     total cpu time spent up to now is     6814.6 secs

     total energy              =  -11681.99310722 Ry
     estimated scf accuracy    <      10.38468408 Ry

     iteration # 22     ecut=    80.00 Ry     beta= 0.10
     Davidson diagonalization with overlap
     ethr =  1.56E-04,  avg # of iterations =  1.0

     negative rho (up, down):  5.681E-02 0.000E+00

     total cpu time spent up to now is     7097.7 secs

     total energy              =  -11682.02925368 Ry
     estimated scf accuracy    <      10.00434925 Ry

     iteration # 23     ecut=    80.00 Ry     beta= 0.10
     Davidson diagonalization with overlap
     ethr =  1.56E-04,  avg # of iterations =  1.0

     negative rho (up, down):  5.683E-02 0.000E+00

     total cpu time spent up to now is     7380.5 secs

     total energy              =  -11682.08677548 Ry
     estimated scf accuracy    <       2.98082837 Ry

     iteration # 24     ecut=    80.00 Ry     beta= 0.10
     Davidson diagonalization with overlap
     ethr =  1.56E-04,  avg # of iterations =  1.0

     negative rho (up, down):  5.737E-02 0.000E+00

     total cpu time spent up to now is     7663.2 secs

     total energy              =  -11682.06291114 Ry
     estimated scf accuracy    <       4.41195005 Ry

     iteration # 25     ecut=    80.00 Ry     beta= 0.10
     Davidson diagonalization with overlap
     ethr =  1.56E-04,  avg # of iterations =  1.0

     negative rho (up, down):  5.736E-02 0.000E+00

     total cpu time spent up to now is     7945.9 secs

     total energy              =  -11682.07012909 Ry
     estimated scf accuracy    <       2.77086386 Ry

     iteration # 26     ecut=    80.00 Ry     beta= 0.10
     Davidson diagonalization with overlap
     ethr =  1.48E-04,  avg # of iterations =  1.0

     negative rho (up, down):  5.749E-02 0.000E+00

     total cpu time spent up to now is     8228.9 secs

     total energy              =  -11682.08559302 Ry
     estimated scf accuracy    <       1.54005053 Ry

     iteration # 27     ecut=    80.00 Ry     beta= 0.10
     Davidson diagonalization with overlap
     ethr =  8.23E-05,  avg # of iterations =  1.0

     negative rho (up, down):  5.825E-02 0.000E+00

     total cpu time spent up to now is     8511.8 secs

     total energy              =  -11682.06958866 Ry
     estimated scf accuracy    <       1.91512199 Ry

     iteration # 28     ecut=    80.00 Ry     beta= 0.10
     Davidson diagonalization with overlap
     ethr =  8.23E-05,  avg # of iterations =  1.0

     negative rho (up, down):  5.767E-02 0.000E+00

     total cpu time spent up to now is     8794.5 secs

     total energy              =  -11681.98909601 Ry
     estimated scf accuracy    <       6.08645505 Ry

     iteration # 29     ecut=    80.00 Ry     beta= 0.10
     Davidson diagonalization with overlap
     ethr =  8.23E-05,  avg # of iterations =  1.0

     negative rho (up, down):  5.785E-02 0.000E+00

     total cpu time spent up to now is     9077.5 secs

     total energy              =  -11682.08014336 Ry
     estimated scf accuracy    <       3.74422962 Ry

     iteration # 30     ecut=    80.00 Ry     beta= 0.10
     Davidson diagonalization with overlap
     ethr =  8.23E-05,  avg # of iterations =  1.0

     negative rho (up, down):  5.805E-02 0.000E+00

     total cpu time spent up to now is     9360.5 secs

     total energy              =  -11682.09461441 Ry
     estimated scf accuracy    <       0.84124471 Ry

     iteration # 31     ecut=    80.00 Ry     beta= 0.10
     Davidson diagonalization with overlap
     ethr =  4.49E-05,  avg # of iterations =  1.0

     negative rho (up, down):  5.822E-02 0.000E+00

     total cpu time spent up to now is     9644.9 secs

     total energy              =  -11682.08995365 Ry
     estimated scf accuracy    <       1.52532465 Ry

     iteration # 32     ecut=    80.00 Ry     beta= 0.10
     Davidson diagonalization with overlap
     ethr =  4.49E-05,  avg # of iterations =  1.0

     negative rho (up, down):  5.837E-02 0.000E+00

     total cpu time spent up to now is     9928.2 secs

     total energy              =  -11682.08286512 Ry
     estimated scf accuracy    <       1.41786124 Ry

     iteration # 33     ecut=    80.00 Ry     beta= 0.10
     Davidson diagonalization with overlap
     ethr =  4.49E-05,  avg # of iterations =  1.0

     negative rho (up, down):  5.826E-02 0.000E+00

     total cpu time spent up to now is    10211.7 secs

     total energy              =  -11682.07376894 Ry
     estimated scf accuracy    <       2.46556349 Ry

     iteration # 34     ecut=    80.00 Ry     beta= 0.10
     Davidson diagonalization with overlap
     ethr =  4.49E-05,  avg # of iterations =  1.0

     negative rho (up, down):  5.891E-02 0.000E+00

     total cpu time spent up to now is    10496.4 secs

     total energy              =  -11682.09179083 Ry
     estimated scf accuracy    <       1.02314491 Ry

     iteration # 35     ecut=    80.00 Ry     beta= 0.10
     Davidson diagonalization with overlap
     ethr =  4.49E-05,  avg # of iterations =  1.0

     negative rho (up, down):  5.862E-02 0.000E+00

     total cpu time spent up to now is    10779.6 secs

     total energy              =  -11682.08600092 Ry
     estimated scf accuracy    <       0.78149345 Ry

     iteration # 36     ecut=    80.00 Ry     beta= 0.10
     Davidson diagonalization with overlap
     ethr =  4.17E-05,  avg # of iterations =  1.0

     negative rho (up, down):  5.871E-02 0.000E+00

     total cpu time spent up to now is    11063.3 secs

     total energy              =  -11682.08110439 Ry
     estimated scf accuracy    <       2.17909199 Ry

     iteration # 37     ecut=    80.00 Ry     beta= 0.10
     Davidson diagonalization with overlap
     ethr =  4.17E-05,  avg # of iterations =  1.0

     negative rho (up, down):  5.919E-02 0.000E+00

     total cpu time spent up to now is    11347.4 secs

     total energy              =  -11682.09176442 Ry
     estimated scf accuracy    <       0.92535126 Ry

     iteration # 38     ecut=    80.00 Ry     beta= 0.10
     Davidson diagonalization with overlap
     ethr =  4.17E-05,  avg # of iterations =  1.0

     negative rho (up, down):  5.897E-02 0.000E+00

     total cpu time spent up to now is    11630.4 secs

     total energy              =  -11682.07283411 Ry
     estimated scf accuracy    <       1.67378455 Ry

     iteration # 39     ecut=    80.00 Ry     beta= 0.10
     Davidson diagonalization with overlap
     ethr =  4.17E-05,  avg # of iterations =  1.0

     negative rho (up, down):  5.902E-02 0.000E+00

     total cpu time spent up to now is    11914.4 secs

     total energy              =  -11682.08072376 Ry
     estimated scf accuracy    <       2.58550565 Ry

     iteration # 40     ecut=    80.00 Ry     beta= 0.10
     Davidson diagonalization with overlap
     ethr =  4.17E-05,  avg # of iterations =  1.0

     negative rho (up, down):  5.907E-02 0.000E+00

     total cpu time spent up to now is    12197.1 secs

     total energy              =  -11682.09481486 Ry
     estimated scf accuracy    <       0.73536593 Ry

     iteration # 41     ecut=    80.00 Ry     beta= 0.10
     Davidson diagonalization with overlap
     ethr =  3.93E-05,  avg # of iterations =  1.0

     negative rho (up, down):  5.915E-02 0.000E+00

     total cpu time spent up to now is    12479.5 secs

     total energy              =  -11682.09852880 Ry
     estimated scf accuracy    <       0.46956704 Ry

     iteration # 42     ecut=    80.00 Ry     beta= 0.10
     Davidson diagonalization with overlap
     ethr =  2.51E-05,  avg # of iterations =  2.0

     negative rho (up, down):  5.928E-02 0.000E+00

     total cpu time spent up to now is    12796.8 secs

     total energy              =  -11682.09936534 Ry
     estimated scf accuracy    <       0.54857371 Ry

     iteration # 43     ecut=    80.00 Ry     beta= 0.10
     Davidson diagonalization with overlap
     ethr =  2.51E-05,  avg # of iterations =  1.0

     negative rho (up, down):  5.913E-02 0.000E+00

     total cpu time spent up to now is    13078.8 secs

     total energy              =  -11682.09864136 Ry
     estimated scf accuracy    <       0.15831125 Ry

     iteration # 44     ecut=    80.00 Ry     beta= 0.10
     Davidson diagonalization with overlap
     ethr =  8.46E-06,  avg # of iterations = 20.0

     negative rho (up, down):  5.930E-02 0.000E+00

     total cpu time spent up to now is    13500.5 secs

     total energy              =  -11682.09797870 Ry
     estimated scf accuracy    <       0.58298212 Ry

     iteration # 45     ecut=    80.00 Ry     beta= 0.10
     Davidson diagonalization with overlap
     ethr =  8.46E-06,  avg # of iterations =  1.0

     negative rho (up, down):  5.937E-02 0.000E+00

     total cpu time spent up to now is    13783.8 secs

     total energy              =  -11682.09892268 Ry
     estimated scf accuracy    <       0.37237802 Ry

     iteration # 46     ecut=    80.00 Ry     beta= 0.10
     Davidson diagonalization with overlap
     ethr =  8.46E-06,  avg # of iterations =  1.0

     negative rho (up, down):  5.936E-02 0.000E+00

     total cpu time spent up to now is    14067.2 secs

     total energy              =  -11682.10082022 Ry
     estimated scf accuracy    <       0.10740454 Ry

     iteration # 47     ecut=    80.00 Ry     beta= 0.10
     Davidson diagonalization with overlap
     ethr =  5.74E-06,  avg # of iterations =  1.0

     negative rho (up, down):  5.947E-02 0.000E+00

     total cpu time spent up to now is    14350.6 secs

     total energy              =  -11682.09685654 Ry
     estimated scf accuracy    <       0.64953265 Ry

     iteration # 48     ecut=    80.00 Ry     beta= 0.10
     Davidson diagonalization with overlap
     ethr =  5.74E-06,  avg # of iterations =  1.0

     negative rho (up, down):  5.950E-02 0.000E+00

     total cpu time spent up to now is    14633.7 secs

     total energy              =  -11682.09513292 Ry
     estimated scf accuracy    <       0.72634537 Ry

     iteration # 49     ecut=    80.00 Ry     beta= 0.10
     Davidson diagonalization with overlap
     ethr =  5.74E-06,  avg # of iterations =  1.0

     negative rho (up, down):  5.951E-02 0.000E+00

     total cpu time spent up to now is    14918.3 secs

     total energy              =  -11682.10182940 Ry
     estimated scf accuracy    <       0.13122673 Ry

     iteration # 50     ecut=    80.00 Ry     beta= 0.10
     Davidson diagonalization with overlap
     ethr =  5.74E-06,  avg # of iterations =  1.0

     negative rho (up, down):  5.951E-02 0.000E+00

     total cpu time spent up to now is    15200.9 secs

     total energy              =  -11682.10171211 Ry
     estimated scf accuracy    <       0.13852071 Ry

     iteration # 51     ecut=    80.00 Ry     beta= 0.10
     Davidson diagonalization with overlap
     ethr =  5.74E-06,  avg # of iterations =  1.0

     negative rho (up, down):  5.953E-02 0.000E+00

     total cpu time spent up to now is    15483.2 secs

     total energy              =  -11682.10146368 Ry
     estimated scf accuracy    <       0.21941155 Ry

     iteration # 52     ecut=    80.00 Ry     beta= 0.10
     Davidson diagonalization with overlap
     ethr =  5.74E-06,  avg # of iterations =  1.0

     negative rho (up, down):  5.959E-02 0.000E+00

     total cpu time spent up to now is    15766.7 secs

     total energy              =  -11682.10178696 Ry
     estimated scf accuracy    <       0.27376224 Ry

     iteration # 53     ecut=    80.00 Ry     beta= 0.10
     Davidson diagonalization with overlap
     ethr =  5.74E-06,  avg # of iterations =  1.0

     negative rho (up, down):  5.957E-02 0.000E+00

     total cpu time spent up to now is    16049.8 secs

     total energy              =  -11682.10268178 Ry
     estimated scf accuracy    <       0.03678888 Ry

     iteration # 54     ecut=    80.00 Ry     beta= 0.10
     Davidson diagonalization with overlap
     ethr =  1.97E-06,  avg # of iterations =  1.0

     negative rho (up, down):  5.963E-02 0.000E+00

     total cpu time spent up to now is    16332.0 secs

     total energy              =  -11682.10228777 Ry
     estimated scf accuracy    <       0.18898074 Ry

     iteration # 55     ecut=    80.00 Ry     beta= 0.10
     Davidson diagonalization with overlap
     ethr =  1.97E-06,  avg # of iterations =  1.0

     negative rho (up, down):  5.964E-02 0.000E+00

     total cpu time spent up to now is    16615.2 secs

     total energy              =  -11682.10310973 Ry
     estimated scf accuracy    <       0.06106257 Ry

     iteration # 56     ecut=    80.00 Ry     beta= 0.10
     Davidson diagonalization with overlap
     ethr =  1.97E-06,  avg # of iterations =  1.0

     negative rho (up, down):  5.968E-02 0.000E+00

     total cpu time spent up to now is    16898.7 secs

     total energy              =  -11682.10366022 Ry
     estimated scf accuracy    <       0.02182305 Ry

     iteration # 57     ecut=    80.00 Ry     beta= 0.10
     Davidson diagonalization with overlap
     ethr =  1.17E-06,  avg # of iterations =  1.0

     negative rho (up, down):  5.977E-02 0.000E+00

     total cpu time spent up to now is    17181.9 secs

     total energy              =  -11682.10348834 Ry
     estimated scf accuracy    <       0.11372527 Ry

     iteration # 58     ecut=    80.00 Ry     beta= 0.10
     Davidson diagonalization with overlap
     ethr =  1.17E-06,  avg # of iterations =  1.0

     negative rho (up, down):  5.973E-02 0.000E+00

     total cpu time spent up to now is    17465.0 secs

     total energy              =  -11682.10331201 Ry
     estimated scf accuracy    <       0.05156927 Ry

     iteration # 59     ecut=    80.00 Ry     beta= 0.10
     Davidson diagonalization with overlap
     ethr =  1.17E-06,  avg # of iterations =  1.0

     negative rho (up, down):  5.974E-02 0.000E+00

     total cpu time spent up to now is    17748.3 secs

     total energy              =  -11682.10341298 Ry
     estimated scf accuracy    <       0.07751237 Ry

     iteration # 60     ecut=    80.00 Ry     beta= 0.10
     Davidson diagonalization with overlap
     ethr =  1.17E-06,  avg # of iterations =  1.0

     negative rho (up, down):  5.976E-02 0.000E+00

     total cpu time spent up to now is    18031.9 secs

     total energy              =  -11682.10356280 Ry
     estimated scf accuracy    <       0.06525036 Ry

     iteration # 61     ecut=    80.00 Ry     beta= 0.10
     Davidson diagonalization with overlap
     ethr =  1.17E-06,  avg # of iterations =  1.0

     negative rho (up, down):  5.981E-02 0.000E+00

     total cpu time spent up to now is    18314.9 secs

     total energy              =  -11682.10353107 Ry
     estimated scf accuracy    <       0.09852916 Ry

     iteration # 62     ecut=    80.00 Ry     beta= 0.10
     Davidson diagonalization with overlap
     ethr =  1.17E-06,  avg # of iterations =  1.0

     negative rho (up, down):  5.982E-02 0.000E+00

     total cpu time spent up to now is    18597.5 secs

     total energy              =  -11682.10341057 Ry
     estimated scf accuracy    <       0.13531590 Ry

     iteration # 63     ecut=    80.00 Ry     beta= 0.10
     Davidson diagonalization with overlap
     ethr =  1.17E-06,  avg # of iterations =  1.0

     negative rho (up, down):  5.990E-02 0.000E+00

     total cpu time spent up to now is    18881.4 secs

     total energy              =  -11682.10418302 Ry
     estimated scf accuracy    <       0.03249633 Ry

     iteration # 64     ecut=    80.00 Ry     beta= 0.10
     Davidson diagonalization with overlap
     ethr =  1.17E-06,  avg # of iterations =  1.0

     negative rho (up, down):  5.988E-02 0.000E+00

     total cpu time spent up to now is    19165.5 secs

     total energy              =  -11682.10286131 Ry
     estimated scf accuracy    <       0.22934248 Ry

     iteration # 65     ecut=    80.00 Ry     beta= 0.10
     Davidson diagonalization with overlap
     ethr =  1.17E-06,  avg # of iterations =  1.0

     negative rho (up, down):  5.984E-02 0.000E+00

     total cpu time spent up to now is    19448.7 secs

     total energy              =  -11682.10393760 Ry
     estimated scf accuracy    <       0.04717483 Ry

     iteration # 66     ecut=    80.00 Ry     beta= 0.10
     Davidson diagonalization with overlap
     ethr =  1.17E-06,  avg # of iterations =  1.0

     negative rho (up, down):  5.989E-02 0.000E+00

     total cpu time spent up to now is    19732.5 secs

     total energy              =  -11682.10450938 Ry
     estimated scf accuracy    <       0.01505753 Ry

     iteration # 67     ecut=    80.00 Ry     beta= 0.10
     Davidson diagonalization with overlap
     ethr =  8.04E-07,  avg # of iterations =  1.0

     negative rho (up, down):  5.994E-02 0.000E+00

     total cpu time spent up to now is    20016.1 secs

     total energy              =  -11682.10455406 Ry
     estimated scf accuracy    <       0.03417074 Ry

     iteration # 68     ecut=    80.00 Ry     beta= 0.10
     Davidson diagonalization with overlap
     ethr =  8.04E-07,  avg # of iterations =  1.0

     negative rho (up, down):  5.991E-02 0.000E+00

     total cpu time spent up to now is    20299.1 secs

     total energy              =  -11682.10444400 Ry
     estimated scf accuracy    <       0.01818289 Ry

     iteration # 69     ecut=    80.00 Ry     beta= 0.10
     Davidson diagonalization with overlap
     ethr =  8.04E-07,  avg # of iterations =  1.0

     negative rho (up, down):  5.993E-02 0.000E+00

     total cpu time spent up to now is    20581.7 secs

     total energy              =  -11682.10441460 Ry
     estimated scf accuracy    <       0.04091142 Ry

     iteration # 70     ecut=    80.00 Ry     beta= 0.10
     Davidson diagonalization with overlap
     ethr =  8.04E-07,  avg # of iterations =  1.0

     negative rho (up, down):  5.994E-02 0.000E+00

     total cpu time spent up to now is    20864.0 secs

     total energy              =  -11682.10456554 Ry
     estimated scf accuracy    <       0.02439093 Ry

     iteration # 71     ecut=    80.00 Ry     beta= 0.10
     Davidson diagonalization with overlap
     ethr =  8.04E-07,  avg # of iterations =  1.0

     negative rho (up, down):  5.998E-02 0.000E+00

     total cpu time spent up to now is    21147.1 secs

     total energy              =  -11682.10461699 Ry
     estimated scf accuracy    <       0.03188320 Ry

     iteration # 72     ecut=    80.00 Ry     beta= 0.10
     Davidson diagonalization with overlap
     ethr =  8.04E-07,  avg # of iterations =  1.0

     negative rho (up, down):  5.999E-02 0.000E+00

     total cpu time spent up to now is    21430.9 secs

     total energy              =  -11682.10455320 Ry
     estimated scf accuracy    <       0.05308194 Ry

     iteration # 73     ecut=    80.00 Ry     beta= 0.10
     Davidson diagonalization with overlap
     ethr =  8.04E-07,  avg # of iterations =  1.0

     negative rho (up, down):  6.011E-02 0.000E+00

     total cpu time spent up to now is    21714.4 secs

     total energy              =  -11682.10505355 Ry
     estimated scf accuracy    <       0.01649713 Ry

     iteration # 74     ecut=    80.00 Ry     beta= 0.10
     Davidson diagonalization with overlap
     ethr =  8.04E-07,  avg # of iterations =  1.0

     negative rho (up, down):  6.006E-02 0.000E+00

     total cpu time spent up to now is    21997.7 secs

     total energy              =  -11682.10459925 Ry
     estimated scf accuracy    <       0.04702206 Ry

     iteration # 75     ecut=    80.00 Ry     beta= 0.10
     Davidson diagonalization with overlap
     ethr =  8.04E-07,  avg # of iterations =  1.0

     negative rho (up, down):  5.998E-02 0.000E+00

     total cpu time spent up to now is    22280.8 secs

     total energy              =  -11682.10445356 Ry
     estimated scf accuracy    <       0.03154025 Ry

     iteration # 76     ecut=    80.00 Ry     beta= 0.10
     Davidson diagonalization with overlap
     ethr =  8.04E-07,  avg # of iterations =  1.0

     negative rho (up, down):  6.005E-02 0.000E+00

     total cpu time spent up to now is    22563.1 secs

     total energy              =  -11682.10488789 Ry
     estimated scf accuracy    <       0.02737470 Ry

     iteration # 77     ecut=    80.00 Ry     beta= 0.10
     Davidson diagonalization with overlap
     ethr =  8.04E-07,  avg # of iterations =  1.0

     negative rho (up, down):  6.010E-02 0.000E+00

     total cpu time spent up to now is    22845.7 secs

     total energy              =  -11682.10498842 Ry
     estimated scf accuracy    <       0.02127867 Ry

     iteration # 78     ecut=    80.00 Ry     beta= 0.10
     Davidson diagonalization with overlap
     ethr =  8.04E-07,  avg # of iterations =  1.0

     negative rho (up, down):  6.008E-02 0.000E+00

     total cpu time spent up to now is    23128.7 secs

     total energy              =  -11682.10494432 Ry
     estimated scf accuracy    <       0.01385408 Ry

     iteration # 79     ecut=    80.00 Ry     beta= 0.10
     Davidson diagonalization with overlap
     ethr =  7.40E-07,  avg # of iterations =  1.0

     negative rho (up, down):  6.008E-02 0.000E+00

     total cpu time spent up to now is    23411.3 secs

     total energy              =  -11682.10487385 Ry
     estimated scf accuracy    <       0.03331114 Ry

     iteration # 80     ecut=    80.00 Ry     beta= 0.10
     Davidson diagonalization with overlap
     ethr =  7.40E-07,  avg # of iterations =  1.0

     negative rho (up, down):  6.010E-02 0.000E+00

     total cpu time spent up to now is    23693.8 secs

     total energy              =  -11682.10503263 Ry
     estimated scf accuracy    <       0.01446279 Ry

     iteration # 81     ecut=    80.00 Ry     beta= 0.10
     Davidson diagonalization with overlap
     ethr =  7.40E-07,  avg # of iterations =  1.0

     negative rho (up, down):  6.012E-02 0.000E+00

     total cpu time spent up to now is    23977.0 secs

     total energy              =  -11682.10509526 Ry
     estimated scf accuracy    <       0.01218373 Ry

     iteration # 82     ecut=    80.00 Ry     beta= 0.10
     Davidson diagonalization with overlap
     ethr =  6.51E-07,  avg # of iterations =  1.0

     negative rho (up, down):  6.012E-02 0.000E+00

     total cpu time spent up to now is    24260.6 secs

     total energy              =  -11682.10508358 Ry
     estimated scf accuracy    <       0.01801650 Ry

     iteration # 83     ecut=    80.00 Ry     beta= 0.10
     Davidson diagonalization with overlap
     ethr =  6.51E-07,  avg # of iterations =  1.0

     negative rho (up, down):  6.018E-02 0.000E+00

     total cpu time spent up to now is    24543.2 secs

     total energy              =  -11682.10526691 Ry
     estimated scf accuracy    <       0.00666140 Ry

     iteration # 84     ecut=    80.00 Ry     beta= 0.10
     Davidson diagonalization with overlap
     ethr =  3.56E-07,  avg # of iterations =  1.0

     negative rho (up, down):  6.018E-02 0.000E+00

     total cpu time spent up to now is    24826.0 secs

     total energy              =  -11682.10522816 Ry
     estimated scf accuracy    <       0.00579075 Ry

     iteration # 85     ecut=    80.00 Ry     beta= 0.10
     Davidson diagonalization with overlap
     ethr =  3.09E-07,  avg # of iterations =  1.0

     negative rho (up, down):  6.013E-02 0.000E+00

     total cpu time spent up to now is    25108.8 secs

     total energy              =  -11682.10500114 Ry
     estimated scf accuracy    <       0.01282666 Ry

     iteration # 86     ecut=    80.00 Ry     beta= 0.10
     Davidson diagonalization with overlap
     ethr =  3.09E-07,  avg # of iterations =  1.0

     negative rho (up, down):  6.017E-02 0.000E+00

     total cpu time spent up to now is    25392.2 secs

     total energy              =  -11682.10487661 Ry
     estimated scf accuracy    <       0.05718037 Ry

     iteration # 87     ecut=    80.00 Ry     beta= 0.10
     Davidson diagonalization with overlap
     ethr =  3.09E-07,  avg # of iterations =  1.0

     negative rho (up, down):  6.021E-02 0.000E+00

     total cpu time spent up to now is    25675.1 secs

     total energy              =  -11682.10528835 Ry
     estimated scf accuracy    <       0.00476418 Ry

     iteration # 88     ecut=    80.00 Ry     beta= 0.10
     Davidson diagonalization with overlap
     ethr =  2.54E-07,  avg # of iterations =  1.0

     negative rho (up, down):  6.021E-02 0.000E+00

     total cpu time spent up to now is    25959.2 secs

     total energy              =  -11682.10528985 Ry
     estimated scf accuracy    <       0.00428514 Ry

     iteration # 89     ecut=    80.00 Ry     beta= 0.10
     Davidson diagonalization with overlap
     ethr =  2.29E-07,  avg # of iterations =  1.0

     negative rho (up, down):  6.021E-02 0.000E+00

     total cpu time spent up to now is    26241.7 secs

     total energy              =  -11682.10522307 Ry
     estimated scf accuracy    <       0.01421606 Ry

     iteration # 90     ecut=    80.00 Ry     beta= 0.10
     Davidson diagonalization with overlap
     ethr =  2.29E-07,  avg # of iterations =  1.0

     negative rho (up, down):  6.021E-02 0.000E+00

     total cpu time spent up to now is    26525.5 secs

     total energy              =  -11682.10526960 Ry
     estimated scf accuracy    <       0.00885220 Ry

     iteration # 91     ecut=    80.00 Ry     beta= 0.10
     Davidson diagonalization with overlap
     ethr =  2.29E-07,  avg # of iterations =  1.0

     negative rho (up, down):  6.022E-02 0.000E+00

     total cpu time spent up to now is    26808.4 secs

     total energy              =  -11682.10531834 Ry
     estimated scf accuracy    <       0.00547450 Ry

     iteration # 92     ecut=    80.00 Ry     beta= 0.10
     Davidson diagonalization with overlap
     ethr =  2.29E-07,  avg # of iterations =  1.0

     negative rho (up, down):  6.022E-02 0.000E+00

     total cpu time spent up to now is    27092.3 secs

     total energy              =  -11682.10531318 Ry
     estimated scf accuracy    <       0.00699077 Ry

     iteration # 93     ecut=    80.00 Ry     beta= 0.10
     Davidson diagonalization with overlap
     ethr =  2.29E-07,  avg # of iterations =  1.0

     negative rho (up, down):  6.025E-02 0.000E+00

     total cpu time spent up to now is    27375.4 secs

     total energy              =  -11682.10538487 Ry
     estimated scf accuracy    <       0.00199154 Ry

     iteration # 94     ecut=    80.00 Ry     beta= 0.10
     Davidson diagonalization with overlap
     ethr =  1.06E-07,  avg # of iterations =  1.0

     negative rho (up, down):  6.025E-02 0.000E+00

     total cpu time spent up to now is    27658.8 secs

     total energy              =  -11682.10538652 Ry
     estimated scf accuracy    <       0.00104539 Ry

     iteration # 95     ecut=    80.00 Ry     beta= 0.10
     Davidson diagonalization with overlap
     ethr =  5.58E-08,  avg # of iterations =  1.0

     negative rho (up, down):  6.028E-02 0.000E+00

     total cpu time spent up to now is    27941.5 secs

     total energy              =  -11682.10538221 Ry
     estimated scf accuracy    <       0.00375979 Ry

     iteration # 96     ecut=    80.00 Ry     beta= 0.10
     Davidson diagonalization with overlap
     ethr =  5.58E-08,  avg # of iterations =  1.0

     negative rho (up, down):  6.026E-02 0.000E+00

     total cpu time spent up to now is    28226.7 secs

     total energy              =  -11682.10524968 Ry
     estimated scf accuracy    <       0.01975207 Ry

     iteration # 97     ecut=    80.00 Ry     beta= 0.10
     Davidson diagonalization with overlap
     ethr =  5.58E-08,  avg # of iterations =  1.0

     negative rho (up, down):  6.028E-02 0.000E+00

     total cpu time spent up to now is    28510.5 secs

     total energy              =  -11682.10540746 Ry
     estimated scf accuracy    <       0.00212663 Ry

     iteration # 98     ecut=    80.00 Ry     beta= 0.10
     Davidson diagonalization with overlap
     ethr =  5.58E-08,  avg # of iterations =  1.0

     negative rho (up, down):  6.029E-02 0.000E+00

     total cpu time spent up to now is    28793.6 secs

     total energy              =  -11682.10542234 Ry
     estimated scf accuracy    <       0.00167238 Ry

     iteration # 99     ecut=    80.00 Ry     beta= 0.10
     Davidson diagonalization with overlap
     ethr =  5.58E-08,  avg # of iterations =  1.0

     negative rho (up, down):  6.029E-02 0.000E+00

     total cpu time spent up to now is    29076.6 secs

     total energy              =  -11682.10539570 Ry
     estimated scf accuracy    <       0.00510436 Ry

     iteration #100     ecut=    80.00 Ry     beta= 0.10
     Davidson diagonalization with overlap
     ethr =  5.58E-08,  avg # of iterations =  1.0

     negative rho (up, down):  6.029E-02 0.000E+00

     total cpu time spent up to now is    29360.3 secs

     total energy              =  -11682.10538894 Ry
     estimated scf accuracy    <       0.00549136 Ry

     iteration #101     ecut=    80.00 Ry     beta= 0.10
     Davidson diagonalization with overlap
     ethr =  5.58E-08,  avg # of iterations =  1.0

     negative rho (up, down):  6.030E-02 0.000E+00

     total cpu time spent up to now is    29643.1 secs

     total energy              =  -11682.10540732 Ry
     estimated scf accuracy    <       0.00449905 Ry

     iteration #102     ecut=    80.00 Ry     beta= 0.10
     Davidson diagonalization with overlap
     ethr =  5.58E-08,  avg # of iterations =  1.0

     negative rho (up, down):  6.029E-02 0.000E+00

     total cpu time spent up to now is    29926.0 secs

     total energy              =  -11682.10540351 Ry
     estimated scf accuracy    <       0.00528775 Ry

     iteration #103     ecut=    80.00 Ry     beta= 0.10
     Davidson diagonalization with overlap
     ethr =  5.58E-08,  avg # of iterations =  1.0

     negative rho (up, down):  6.031E-02 0.000E+00

     total cpu time spent up to now is    30208.6 secs

     total energy              =  -11682.10544388 Ry
     estimated scf accuracy    <       0.00168979 Ry

     iteration #104     ecut=    80.00 Ry     beta= 0.10
     Davidson diagonalization with overlap
     ethr =  5.58E-08,  avg # of iterations =  1.0

     negative rho (up, down):  6.031E-02 0.000E+00

     total cpu time spent up to now is    30491.4 secs

     total energy              =  -11682.10545445 Ry
     estimated scf accuracy    <       0.00049538 Ry

     iteration #105     ecut=    80.00 Ry     beta= 0.10
     Davidson diagonalization with overlap
     ethr =  2.65E-08,  avg # of iterations =  1.0

     negative rho (up, down):  6.034E-02 0.000E+00

     total cpu time spent up to now is    30774.0 secs

     total energy              =  -11682.10547468 Ry
     estimated scf accuracy    <       0.00085207 Ry

     iteration #106     ecut=    80.00 Ry     beta= 0.10
     Davidson diagonalization with overlap
     ethr =  2.65E-08,  avg # of iterations =  1.0

     negative rho (up, down):  6.032E-02 0.000E+00

     total cpu time spent up to now is    31057.0 secs

     total energy              =  -11682.10543770 Ry
     estimated scf accuracy    <       0.00217428 Ry

     iteration #107     ecut=    80.00 Ry     beta= 0.10
     Davidson diagonalization with overlap
     ethr =  2.65E-08,  avg # of iterations =  1.0

     negative rho (up, down):  6.033E-02 0.000E+00

     total cpu time spent up to now is    31340.6 secs

     total energy              =  -11682.10546333 Ry
     estimated scf accuracy    <       0.00137249 Ry

     iteration #108     ecut=    80.00 Ry     beta= 0.10
     Davidson diagonalization with overlap
     ethr =  2.65E-08,  avg # of iterations =  1.0

     negative rho (up, down):  6.034E-02 0.000E+00

     total cpu time spent up to now is    31623.4 secs

     total energy              =  -11682.10547965 Ry
     estimated scf accuracy    <       0.00053844 Ry

     iteration #109     ecut=    80.00 Ry     beta= 0.10
     Davidson diagonalization with overlap
     ethr =  2.65E-08,  avg # of iterations =  1.0

     negative rho (up, down):  6.035E-02 0.000E+00

     total cpu time spent up to now is    31906.4 secs

     total energy              =  -11682.10547441 Ry
     estimated scf accuracy    <       0.00171808 Ry

     iteration #110     ecut=    80.00 Ry     beta= 0.10
     Davidson diagonalization with overlap
     ethr =  2.65E-08,  avg # of iterations =  1.0

     negative rho (up, down):  6.035E-02 0.000E+00

     total cpu time spent up to now is    32189.8 secs

     total energy              =  -11682.10546552 Ry
     estimated scf accuracy    <       0.00253668 Ry

     iteration #111     ecut=    80.00 Ry     beta= 0.10
     Davidson diagonalization with overlap
     ethr =  2.65E-08,  avg # of iterations =  1.0

     negative rho (up, down):  6.035E-02 0.000E+00

     total cpu time spent up to now is    32472.6 secs

     total energy              =  -11682.10546482 Ry
     estimated scf accuracy    <       0.00287682 Ry

     iteration #112     ecut=    80.00 Ry     beta= 0.10
     Davidson diagonalization with overlap
     ethr =  2.65E-08,  avg # of iterations =  1.0

     negative rho (up, down):  6.035E-02 0.000E+00

     total cpu time spent up to now is    32755.4 secs

     total energy              =  -11682.10546045 Ry
     estimated scf accuracy    <       0.00415951 Ry

     iteration #113     ecut=    80.00 Ry     beta= 0.10
     Davidson diagonalization with overlap
     ethr =  2.65E-08,  avg # of iterations =  1.0

     negative rho (up, down):  6.036E-02 0.000E+00

     total cpu time spent up to now is    33038.4 secs

     total energy              =  -11682.10547494 Ry
     estimated scf accuracy    <       0.00209395 Ry

     iteration #114     ecut=    80.00 Ry     beta= 0.10
     Davidson diagonalization with overlap
     ethr =  2.65E-08,  avg # of iterations =  1.0

     negative rho (up, down):  6.036E-02 0.000E+00

     total cpu time spent up to now is    33321.1 secs

     total energy              =  -11682.10548931 Ry
     estimated scf accuracy    <       0.00043675 Ry

     iteration #115     ecut=    80.00 Ry     beta= 0.10
     Davidson diagonalization with overlap
     ethr =  2.33E-08,  avg # of iterations =  1.0

     negative rho (up, down):  6.038E-02 0.000E+00

     total cpu time spent up to now is    33604.6 secs

     total energy              =  -11682.10550382 Ry
     estimated scf accuracy    <       0.00042038 Ry

     iteration #116     ecut=    80.00 Ry     beta= 0.10
     Davidson diagonalization with overlap
     ethr =  2.25E-08,  avg # of iterations =  1.0

     negative rho (up, down):  6.037E-02 0.000E+00

     total cpu time spent up to now is    33887.9 secs

     total energy              =  -11682.10548957 Ry
     estimated scf accuracy    <       0.00045453 Ry

     iteration #117     ecut=    80.00 Ry     beta= 0.10
     Davidson diagonalization with overlap
     ethr =  2.25E-08,  avg # of iterations =  1.0

     negative rho (up, down):  6.037E-02 0.000E+00

     total cpu time spent up to now is    34171.6 secs

     total energy              =  -11682.10548828 Ry
     estimated scf accuracy    <       0.00173664 Ry

     iteration #118     ecut=    80.00 Ry     beta= 0.10
     Davidson diagonalization with overlap
     ethr =  2.25E-08,  avg # of iterations =  1.0

     negative rho (up, down):  6.038E-02 0.000E+00

     total cpu time spent up to now is    34454.4 secs

     total energy              =  -11682.10550637 Ry
     estimated scf accuracy    <       0.00018775 Ry

     iteration #119     ecut=    80.00 Ry     beta= 0.10
     Davidson diagonalization with overlap
     ethr =  1.00E-08,  avg # of iterations =  1.0

     negative rho (up, down):  6.039E-02 0.000E+00

     total cpu time spent up to now is    34737.2 secs

     total energy              =  -11682.10550679 Ry
     estimated scf accuracy    <       0.00045679 Ry

     iteration #120     ecut=    80.00 Ry     beta= 0.10
     Davidson diagonalization with overlap
     ethr =  1.00E-08,  avg # of iterations =  1.0

     negative rho (up, down):  6.039E-02 0.000E+00

     total cpu time spent up to now is    35021.1 secs

     total energy              =  -11682.10550541 Ry
     estimated scf accuracy    <       0.00090001 Ry

     iteration #121     ecut=    80.00 Ry     beta= 0.10
     Davidson diagonalization with overlap
     ethr =  1.00E-08,  avg # of iterations =  1.0

     negative rho (up, down):  6.039E-02 0.000E+00

     total cpu time spent up to now is    35304.2 secs

     total energy              =  -11682.10550333 Ry
     estimated scf accuracy    <       0.00113609 Ry

     iteration #122     ecut=    80.00 Ry     beta= 0.10
     Davidson diagonalization with overlap
     ethr =  1.00E-08,  avg # of iterations =  1.0

     negative rho (up, down):  6.040E-02 0.000E+00

     total cpu time spent up to now is    35587.7 secs

     total energy              =  -11682.10550369 Ry
     estimated scf accuracy    <       0.00191046 Ry

     iteration #123     ecut=    80.00 Ry     beta= 0.10
     Davidson diagonalization with overlap
     ethr =  1.00E-08,  avg # of iterations =  1.0

     negative rho (up, down):  6.039E-02 0.000E+00

     total cpu time spent up to now is    35870.7 secs

     total energy              =  -11682.10550164 Ry
     estimated scf accuracy    <       0.00126833 Ry

     iteration #124     ecut=    80.00 Ry     beta= 0.10
     Davidson diagonalization with overlap
     ethr =  1.00E-08,  avg # of iterations =  1.0

     negative rho (up, down):  6.039E-02 0.000E+00

     total cpu time spent up to now is    36153.5 secs

     total energy              =  -11682.10550866 Ry
     estimated scf accuracy    <       0.00037347 Ry

     iteration #125     ecut=    80.00 Ry     beta= 0.10
     Davidson diagonalization with overlap
     ethr =  1.00E-08,  avg # of iterations =  1.0

     negative rho (up, down):  6.041E-02 0.000E+00

     total cpu time spent up to now is    36437.3 secs

     total energy              =  -11682.10551809 Ry
     estimated scf accuracy    <       0.00035099 Ry

     iteration #126     ecut=    80.00 Ry     beta= 0.10
     Davidson diagonalization with overlap
     ethr =  1.00E-08,  avg # of iterations =  1.0

     negative rho (up, down):  6.041E-02 0.000E+00

     total cpu time spent up to now is    36721.2 secs

     total energy              =  -11682.10551695 Ry
     estimated scf accuracy    <       0.00019598 Ry

     iteration #127     ecut=    80.00 Ry     beta= 0.10
     Davidson diagonalization with overlap
     ethr =  1.00E-08,  avg # of iterations =  1.0

     negative rho (up, down):  6.040E-02 0.000E+00

     total cpu time spent up to now is    37003.8 secs

     total energy              =  -11682.10550726 Ry
     estimated scf accuracy    <       0.00121926 Ry

     iteration #128     ecut=    80.00 Ry     beta= 0.10
     Davidson diagonalization with overlap
     ethr =  1.00E-08,  avg # of iterations =  1.0

     negative rho (up, down):  6.041E-02 0.000E+00

     total cpu time spent up to now is    37287.5 secs

     total energy              =  -11682.10551900 Ry
     estimated scf accuracy    <       0.00014779 Ry

     iteration #129     ecut=    80.00 Ry     beta= 0.10
     Davidson diagonalization with overlap
     ethr =  7.89E-09,  avg # of iterations =  1.0

     negative rho (up, down):  6.042E-02 0.000E+00

     total cpu time spent up to now is    37571.8 secs

     total energy              =  -11682.10552115 Ry
     estimated scf accuracy    <       0.00017525 Ry

     iteration #130     ecut=    80.00 Ry     beta= 0.10
     Davidson diagonalization with overlap
     ethr =  7.89E-09,  avg # of iterations =  1.0

     negative rho (up, down):  6.042E-02 0.000E+00

     total cpu time spent up to now is    37856.5 secs

     total energy              =  -11682.10552197 Ry
     estimated scf accuracy    <       0.00019229 Ry

     iteration #131     ecut=    80.00 Ry     beta= 0.10
     Davidson diagonalization with overlap
     ethr =  7.89E-09,  avg # of iterations =  1.0

     negative rho (up, down):  6.042E-02 0.000E+00

     total cpu time spent up to now is    38140.6 secs

     total energy              =  -11682.10552160 Ry
     estimated scf accuracy    <       0.00030881 Ry

     iteration #132     ecut=    80.00 Ry     beta= 0.10
     Davidson diagonalization with overlap
     ethr =  7.89E-09,  avg # of iterations =  1.0

     negative rho (up, down):  6.043E-02 0.000E+00

     total cpu time spent up to now is    38424.1 secs

     total energy              =  -11682.10552254 Ry
     estimated scf accuracy    <       0.00061173 Ry

     iteration #133     ecut=    80.00 Ry     beta= 0.10
     Davidson diagonalization with overlap
     ethr =  7.89E-09,  avg # of iterations =  1.0

     negative rho (up, down):  6.042E-02 0.000E+00

     total cpu time spent up to now is    38707.5 secs

     total energy              =  -11682.10552051 Ry
     estimated scf accuracy    <       0.00036287 Ry

     iteration #134     ecut=    80.00 Ry     beta= 0.10
     Davidson diagonalization with overlap
     ethr =  7.89E-09,  avg # of iterations =  1.0

     negative rho (up, down):  6.042E-02 0.000E+00

     total cpu time spent up to now is    38990.1 secs

     total energy              =  -11682.10552104 Ry
     estimated scf accuracy    <       0.00024980 Ry

     iteration #135     ecut=    80.00 Ry     beta= 0.10
     Davidson diagonalization with overlap
     ethr =  7.89E-09,  avg # of iterations =  1.0

     negative rho (up, down):  6.043E-02 0.000E+00

     total cpu time spent up to now is    39273.1 secs

     total energy              =  -11682.10552506 Ry
     estimated scf accuracy    <       0.00030938 Ry

     iteration #136     ecut=    80.00 Ry     beta= 0.10
     Davidson diagonalization with overlap
     ethr =  7.89E-09,  avg # of iterations =  1.0

     negative rho (up, down):  6.044E-02 0.000E+00

     total cpu time spent up to now is    39555.8 secs

     total energy              =  -11682.10552805 Ry
     estimated scf accuracy    <       0.00008570 Ry

     iteration #137     ecut=    80.00 Ry     beta= 0.10
     Davidson diagonalization with overlap
     ethr =  4.58E-09,  avg # of iterations =  1.0

     negative rho (up, down):  6.043E-02 0.000E+00

     total cpu time spent up to now is    39839.3 secs

     total energy              =  -11682.10552263 Ry
     estimated scf accuracy    <       0.00032410 Ry

     iteration #138     ecut=    80.00 Ry     beta= 0.10
     Davidson diagonalization with overlap
     ethr =  4.58E-09,  avg # of iterations =  1.0

     negative rho (up, down):  6.043E-02 0.000E+00

     total cpu time spent up to now is    40123.9 secs

     total energy              =  -11682.10552556 Ry
     estimated scf accuracy    <       0.00017618 Ry

     iteration #139     ecut=    80.00 Ry     beta= 0.10
     Davidson diagonalization with overlap
     ethr =  4.58E-09,  avg # of iterations =  1.0

     negative rho (up, down):  6.044E-02 0.000E+00

     total cpu time spent up to now is    40406.2 secs

     total energy              =  -11682.10552748 Ry
     estimated scf accuracy    <       0.00011490 Ry

     iteration #140     ecut=    80.00 Ry     beta= 0.10
     Davidson diagonalization with overlap
     ethr =  4.58E-09,  avg # of iterations =  1.0

     negative rho (up, down):  6.044E-02 0.000E+00

     total cpu time spent up to now is    40689.9 secs

     total energy              =  -11682.10552833 Ry
     estimated scf accuracy    <       0.00008681 Ry

     iteration #141     ecut=    80.00 Ry     beta= 0.10
     Davidson diagonalization with overlap
     ethr =  4.58E-09,  avg # of iterations =  1.0

     negative rho (up, down):  6.044E-02 0.000E+00

     total cpu time spent up to now is    40973.1 secs

     total energy              =  -11682.10552863 Ry
     estimated scf accuracy    <       0.00007480 Ry

     iteration #142     ecut=    80.00 Ry     beta= 0.10
     Davidson diagonalization with overlap
     ethr =  4.00E-09,  avg # of iterations =  1.0

     negative rho (up, down):  6.044E-02 0.000E+00

     total cpu time spent up to now is    41256.0 secs

     total energy              =  -11682.10552922 Ry
     estimated scf accuracy    <       0.00015326 Ry

     iteration #143     ecut=    80.00 Ry     beta= 0.10
     Davidson diagonalization with overlap
     ethr =  4.00E-09,  avg # of iterations =  1.0

     negative rho (up, down):  6.044E-02 0.000E+00

     total cpu time spent up to now is    41538.8 secs

     total energy              =  -11682.10552887 Ry
     estimated scf accuracy    <       0.00008012 Ry

     iteration #144     ecut=    80.00 Ry     beta= 0.10
     Davidson diagonalization with overlap
     ethr =  4.00E-09,  avg # of iterations =  1.0

     negative rho (up, down):  6.044E-02 0.000E+00

     total cpu time spent up to now is    41822.7 secs

     total energy              =  -11682.10552875 Ry
     estimated scf accuracy    <       0.00009904 Ry

     iteration #145     ecut=    80.00 Ry     beta= 0.10
     Davidson diagonalization with overlap
     ethr =  4.00E-09,  avg # of iterations =  1.0

     negative rho (up, down):  6.045E-02 0.000E+00

     total cpu time spent up to now is    42106.3 secs

     total energy              =  -11682.10552935 Ry
     estimated scf accuracy    <       0.00015438 Ry

     iteration #146     ecut=    80.00 Ry     beta= 0.10
     Davidson diagonalization with overlap
     ethr =  4.00E-09,  avg # of iterations =  1.0

     negative rho (up, down):  6.045E-02 0.000E+00

     total cpu time spent up to now is    42389.8 secs

     total energy              =  -11682.10553139 Ry
     estimated scf accuracy    <       0.00003084 Ry

     iteration #147     ecut=    80.00 Ry     beta= 0.10
     Davidson diagonalization with overlap
     ethr =  1.65E-09,  avg # of iterations =  1.0

     negative rho (up, down):  6.045E-02 0.000E+00

     total cpu time spent up to now is    42673.1 secs

     total energy              =  -11682.10553000 Ry
     estimated scf accuracy    <       0.00006983 Ry

     iteration #148     ecut=    80.00 Ry     beta= 0.10
     Davidson diagonalization with overlap
     ethr =  1.65E-09,  avg # of iterations =  1.0

     negative rho (up, down):  6.045E-02 0.000E+00

     total cpu time spent up to now is    42955.9 secs

     total energy              =  -11682.10552917 Ry
     estimated scf accuracy    <       0.00017604 Ry

     iteration #149     ecut=    80.00 Ry     beta= 0.10
     Davidson diagonalization with overlap
     ethr =  1.65E-09,  avg # of iterations =  1.0

     negative rho (up, down):  6.045E-02 0.000E+00

     total cpu time spent up to now is    43239.1 secs

     total energy              =  -11682.10553052 Ry
     estimated scf accuracy    <       0.00009599 Ry

     iteration #150     ecut=    80.00 Ry     beta= 0.10
     Davidson diagonalization with overlap
     ethr =  1.65E-09,  avg # of iterations =  1.0

     negative rho (up, down):  6.045E-02 0.000E+00

     total cpu time spent up to now is    43522.1 secs

     total energy              =  -11682.10553117 Ry
     estimated scf accuracy    <       0.00005866 Ry

     iteration #151     ecut=    80.00 Ry     beta= 0.10
     Davidson diagonalization with overlap
     ethr =  1.65E-09,  avg # of iterations =  1.0

     negative rho (up, down):  6.045E-02 0.000E+00

     total cpu time spent up to now is    43804.6 secs

     total energy              =  -11682.10553145 Ry
     estimated scf accuracy    <       0.00003495 Ry

     iteration #152     ecut=    80.00 Ry     beta= 0.10
     Davidson diagonalization with overlap
     ethr =  1.65E-09,  avg # of iterations =  1.0

     negative rho (up, down):  6.045E-02 0.000E+00

     total cpu time spent up to now is    44087.2 secs

     total energy              =  -11682.10553171 Ry
     estimated scf accuracy    <       0.00005708 Ry

     iteration #153     ecut=    80.00 Ry     beta= 0.10
     Davidson diagonalization with overlap
     ethr =  1.65E-09,  avg # of iterations =  1.0

     negative rho (up, down):  6.045E-02 0.000E+00

     total cpu time spent up to now is    44370.8 secs

     total energy              =  -11682.10553187 Ry
     estimated scf accuracy    <       0.00002335 Ry

     iteration #154     ecut=    80.00 Ry     beta= 0.10
     Davidson diagonalization with overlap
     ethr =  1.25E-09,  avg # of iterations =  1.0

     negative rho (up, down):  6.046E-02 0.000E+00

     total cpu time spent up to now is    44653.4 secs

     total energy              =  -11682.10553199 Ry
     estimated scf accuracy    <       0.00003174 Ry

     iteration #155     ecut=    80.00 Ry     beta= 0.10
     Davidson diagonalization with overlap
     ethr =  1.25E-09,  avg # of iterations =  1.0

     negative rho (up, down):  6.046E-02 0.000E+00

     total cpu time spent up to now is    44936.9 secs

     total energy              =  -11682.10553182 Ry
     estimated scf accuracy    <       0.00005302 Ry

     iteration #156     ecut=    80.00 Ry     beta= 0.10
     Davidson diagonalization with overlap
     ethr =  1.25E-09,  avg # of iterations =  1.0

     negative rho (up, down):  6.046E-02 0.000E+00

     total cpu time spent up to now is    45220.8 secs

     total energy              =  -11682.10553270 Ry
     estimated scf accuracy    <       0.00001109 Ry

     iteration #157     ecut=    80.00 Ry     beta= 0.10
     Davidson diagonalization with overlap
     ethr =  5.93E-10,  avg # of iterations =  1.0

     negative rho (up, down):  6.046E-02 0.000E+00

     total cpu time spent up to now is    45504.0 secs

     total energy              =  -11682.10553274 Ry
     estimated scf accuracy    <       0.00001794 Ry

     iteration #158     ecut=    80.00 Ry     beta= 0.10
     Davidson diagonalization with overlap
     ethr =  5.93E-10,  avg # of iterations =  1.0

     negative rho (up, down):  6.046E-02 0.000E+00

     total cpu time spent up to now is    45787.2 secs

     total energy              =  -11682.10553204 Ry
     estimated scf accuracy    <       0.00007236 Ry

     iteration #159     ecut=    80.00 Ry     beta= 0.10
     Davidson diagonalization with overlap
     ethr =  5.93E-10,  avg # of iterations =  1.0

     negative rho (up, down):  6.046E-02 0.000E+00

     total cpu time spent up to now is    46070.2 secs

     total energy              =  -11682.10553215 Ry
     estimated scf accuracy    <       0.00006704 Ry

     iteration #160     ecut=    80.00 Ry     beta= 0.10
     Davidson diagonalization with overlap
     ethr =  5.93E-10,  avg # of iterations =  1.0

     negative rho (up, down):  6.046E-02 0.000E+00

     total cpu time spent up to now is    46353.2 secs

     total energy              =  -11682.10553254 Ry
     estimated scf accuracy    <       0.00004952 Ry

     iteration #161     ecut=    80.00 Ry     beta= 0.10
     Davidson diagonalization with overlap
     ethr =  5.93E-10,  avg # of iterations =  1.0

     negative rho (up, down):  6.046E-02 0.000E+00

     total cpu time spent up to now is    46636.9 secs

     total energy              =  -11682.10553277 Ry
     estimated scf accuracy    <       0.00002324 Ry

     iteration #162     ecut=    80.00 Ry     beta= 0.10
     Davidson diagonalization with overlap
     ethr =  5.93E-10,  avg # of iterations =  1.0

     negative rho (up, down):  6.046E-02 0.000E+00

     total cpu time spent up to now is    46919.4 secs

     total energy              =  -11682.10553285 Ry
     estimated scf accuracy    <       0.00004001 Ry

     iteration #163     ecut=    80.00 Ry     beta= 0.10
     Davidson diagonalization with overlap
     ethr =  5.93E-10,  avg # of iterations =  1.0

     negative rho (up, down):  6.046E-02 0.000E+00

     total cpu time spent up to now is    47203.2 secs

     total energy              =  -11682.10553309 Ry
     estimated scf accuracy    <       0.00001556 Ry

     iteration #164     ecut=    80.00 Ry     beta= 0.10
     Davidson diagonalization with overlap
     ethr =  5.93E-10,  avg # of iterations =  1.0

     negative rho (up, down):  6.047E-02 0.000E+00

     total cpu time spent up to now is    47486.1 secs

     total energy              =  -11682.10553325 Ry
     estimated scf accuracy    <       0.00001353 Ry

     iteration #165     ecut=    80.00 Ry     beta= 0.10
     Davidson diagonalization with overlap
     ethr =  5.93E-10,  avg # of iterations =  1.0

     negative rho (up, down):  6.046E-02 0.000E+00

     total cpu time spent up to now is    47769.3 secs

     total energy              =  -11682.10553296 Ry
     estimated scf accuracy    <       0.00002427 Ry

     iteration #166     ecut=    80.00 Ry     beta= 0.10
     Davidson diagonalization with overlap
     ethr =  5.93E-10,  avg # of iterations =  1.0

     negative rho (up, down):  6.047E-02 0.000E+00

     total cpu time spent up to now is    48052.0 secs

     total energy              =  -11682.10553338 Ry
     estimated scf accuracy    <       0.00000600 Ry

     iteration #167     ecut=    80.00 Ry     beta= 0.10
     Davidson diagonalization with overlap
     ethr =  3.20E-10,  avg # of iterations =  1.0

     negative rho (up, down):  6.047E-02 0.000E+00

     total cpu time spent up to now is    48335.4 secs

     total energy              =  -11682.10553358 Ry
     estimated scf accuracy    <       0.00000476 Ry

     iteration #168     ecut=    80.00 Ry     beta= 0.10
     Davidson diagonalization with overlap
     ethr =  2.54E-10,  avg # of iterations =  1.0

     negative rho (up, down):  6.047E-02 0.000E+00

     total cpu time spent up to now is    48619.5 secs

     total energy              =  -11682.10553343 Ry
     estimated scf accuracy    <       0.00001847 Ry

     iteration #169     ecut=    80.00 Ry     beta= 0.10
     Davidson diagonalization with overlap
     ethr =  2.54E-10,  avg # of iterations =  1.0

     negative rho (up, down):  6.047E-02 0.000E+00

     total cpu time spent up to now is    48902.4 secs

     total energy              =  -11682.10553327 Ry
     estimated scf accuracy    <       0.00002767 Ry

     iteration #170     ecut=    80.00 Ry     beta= 0.10
     Davidson diagonalization with overlap
     ethr =  2.54E-10,  avg # of iterations =  1.0

     negative rho (up, down):  6.047E-02 0.000E+00

     total cpu time spent up to now is    49185.2 secs

     total energy              =  -11682.10553335 Ry
     estimated scf accuracy    <       0.00003434 Ry

     iteration #171     ecut=    80.00 Ry     beta= 0.10
     Davidson diagonalization with overlap
     ethr =  2.54E-10,  avg # of iterations =  1.0

     negative rho (up, down):  6.047E-02 0.000E+00

     total cpu time spent up to now is    49468.5 secs

     total energy              =  -11682.10553350 Ry
     estimated scf accuracy    <       0.00001686 Ry

     iteration #172     ecut=    80.00 Ry     beta= 0.10
     Davidson diagonalization with overlap
     ethr =  2.54E-10,  avg # of iterations =  1.0

     negative rho (up, down):  6.047E-02 0.000E+00

     total cpu time spent up to now is    49752.1 secs

     total energy              =  -11682.10553346 Ry
     estimated scf accuracy    <       0.00003210 Ry

     iteration #173     ecut=    80.00 Ry     beta= 0.10
     Davidson diagonalization with overlap
     ethr =  2.54E-10,  avg # of iterations =  1.0

     negative rho (up, down):  6.047E-02 0.000E+00

     total cpu time spent up to now is    50035.3 secs

     total energy              =  -11682.10553370 Ry
     estimated scf accuracy    <       0.00001356 Ry

     iteration #174     ecut=    80.00 Ry     beta= 0.10
     Davidson diagonalization with overlap
     ethr =  2.54E-10,  avg # of iterations =  1.0

     negative rho (up, down):  6.047E-02 0.000E+00

     total cpu time spent up to now is    50318.6 secs

     total energy              =  -11682.10553380 Ry
     estimated scf accuracy    <       0.00000872 Ry

     iteration #175     ecut=    80.00 Ry     beta= 0.10
     Davidson diagonalization with overlap
     ethr =  2.54E-10,  avg # of iterations =  1.0

     negative rho (up, down):  6.047E-02 0.000E+00

     total cpu time spent up to now is    50601.4 secs

     total energy              =  -11682.10553356 Ry
     estimated scf accuracy    <       0.00001303 Ry

     iteration #176     ecut=    80.00 Ry     beta= 0.10
     Davidson diagonalization with overlap
     ethr =  2.54E-10,  avg # of iterations =  1.0

     negative rho (up, down):  6.047E-02 0.000E+00

     total cpu time spent up to now is    50884.6 secs

     total energy              =  -11682.10553379 Ry
     estimated scf accuracy    <       0.00000607 Ry

     iteration #177     ecut=    80.00 Ry     beta= 0.10
     Davidson diagonalization with overlap
     ethr =  2.54E-10,  avg # of iterations =  1.0

     negative rho (up, down):  6.047E-02 0.000E+00

     total cpu time spent up to now is    51171.4 secs

     total energy              =  -11682.10553391 Ry
     estimated scf accuracy    <       0.00000243 Ry

     iteration #178     ecut=    80.00 Ry     beta= 0.10
     Davidson diagonalization with overlap
     ethr =  1.30E-10,  avg # of iterations =  1.0

     negative rho (up, down):  6.047E-02 0.000E+00

     total cpu time spent up to now is    51454.4 secs

     total energy              =  -11682.10553392 Ry
     estimated scf accuracy    <       0.00000527 Ry

     iteration #179     ecut=    80.00 Ry     beta= 0.10
     Davidson diagonalization with overlap
     ethr =  1.30E-10,  avg # of iterations =  1.0

     negative rho (up, down):  6.047E-02 0.000E+00

     total cpu time spent up to now is    51737.2 secs

     total energy              =  -11682.10553385 Ry
     estimated scf accuracy    <       0.00000800 Ry

     iteration #180     ecut=    80.00 Ry     beta= 0.10
     Davidson diagonalization with overlap
     ethr =  1.30E-10,  avg # of iterations =  1.0

     negative rho (up, down):  6.047E-02 0.000E+00

     total cpu time spent up to now is    52019.8 secs

     total energy              =  -11682.10553383 Ry
     estimated scf accuracy    <       0.00001826 Ry

     iteration #181     ecut=    80.00 Ry     beta= 0.10
     Davidson diagonalization with overlap
     ethr =  1.30E-10,  avg # of iterations =  1.0

     negative rho (up, down):  6.047E-02 0.000E+00

     total cpu time spent up to now is    52303.2 secs

     total energy              =  -11682.10553391 Ry
     estimated scf accuracy    <       0.00000870 Ry

     iteration #182     ecut=    80.00 Ry     beta= 0.10
     Davidson diagonalization with overlap
     ethr =  1.30E-10,  avg # of iterations =  1.0

     negative rho (up, down):  6.047E-02 0.000E+00

     total cpu time spent up to now is    52586.7 secs

     total energy              =  -11682.10553388 Ry
     estimated scf accuracy    <       0.00001538 Ry

     iteration #183     ecut=    80.00 Ry     beta= 0.10
     Davidson diagonalization with overlap
     ethr =  1.30E-10,  avg # of iterations =  1.0

     negative rho (up, down):  6.047E-02 0.000E+00

     total cpu time spent up to now is    52869.8 secs

     total energy              =  -11682.10553400 Ry
     estimated scf accuracy    <       0.00000920 Ry

     iteration #184     ecut=    80.00 Ry     beta= 0.10
     Davidson diagonalization with overlap
     ethr =  1.30E-10,  avg # of iterations =  1.0

     negative rho (up, down):  6.048E-02 0.000E+00

     total cpu time spent up to now is    53153.1 secs

     total energy              =  -11682.10553406 Ry
     estimated scf accuracy    <       0.00000435 Ry

     iteration #185     ecut=    80.00 Ry     beta= 0.10
     Davidson diagonalization with overlap
     ethr =  1.30E-10,  avg # of iterations =  1.0

     negative rho (up, down):  6.047E-02 0.000E+00

     total cpu time spent up to now is    53436.5 secs

     total energy              =  -11682.10553393 Ry
     estimated scf accuracy    <       0.00000524 Ry

     iteration #186     ecut=    80.00 Ry     beta= 0.10
     Davidson diagonalization with overlap
     ethr =  1.30E-10,  avg # of iterations =  1.0

     negative rho (up, down):  6.047E-02 0.000E+00

     total cpu time spent up to now is    53721.6 secs

     total energy              =  -11682.10553398 Ry
     estimated scf accuracy    <       0.00000818 Ry

     iteration #187     ecut=    80.00 Ry     beta= 0.10
     Davidson diagonalization with overlap
     ethr =  1.30E-10,  avg # of iterations =  1.0

     negative rho (up, down):  6.048E-02 0.000E+00

     total cpu time spent up to now is    54004.4 secs

     total energy              =  -11682.10553409 Ry
     estimated scf accuracy    <       0.00000212 Ry

     iteration #188     ecut=    80.00 Ry     beta= 0.10
     Davidson diagonalization with overlap
     ethr =  1.13E-10,  avg # of iterations =  1.0

     negative rho (up, down):  6.048E-02 0.000E+00

     total cpu time spent up to now is    54287.3 secs

     total energy              =  -11682.10553411 Ry
     estimated scf accuracy    <       0.00000197 Ry

     iteration #189     ecut=    80.00 Ry     beta= 0.10
     Davidson diagonalization with overlap
     ethr =  1.05E-10,  avg # of iterations =  1.0

     negative rho (up, down):  6.048E-02 0.000E+00

     total cpu time spent up to now is    54569.8 secs

     total energy              =  -11682.10553409 Ry
     estimated scf accuracy    <       0.00000247 Ry

     iteration #190     ecut=    80.00 Ry     beta= 0.10
     Davidson diagonalization with overlap
     ethr =  1.05E-10,  avg # of iterations =  1.0

     negative rho (up, down):  6.048E-02 0.000E+00

     total cpu time spent up to now is    54852.9 secs

     total energy              =  -11682.10553407 Ry
     estimated scf accuracy    <       0.00000763 Ry

     iteration #191     ecut=    80.00 Ry     beta= 0.10
     Davidson diagonalization with overlap
     ethr =  1.05E-10,  avg # of iterations =  1.0

     negative rho (up, down):  6.048E-02 0.000E+00

     total cpu time spent up to now is    55135.6 secs

     total energy              =  -11682.10553411 Ry
     estimated scf accuracy    <       0.00000399 Ry

     iteration #192     ecut=    80.00 Ry     beta= 0.10
     Davidson diagonalization with overlap
     ethr =  1.05E-10,  avg # of iterations =  1.0

     negative rho (up, down):  6.048E-02 0.000E+00

     total cpu time spent up to now is    55419.0 secs

     total energy              =  -11682.10553409 Ry
     estimated scf accuracy    <       0.00000583 Ry

     iteration #193     ecut=    80.00 Ry     beta= 0.10
     Davidson diagonalization with overlap
     ethr =  1.05E-10,  avg # of iterations =  1.0

     negative rho (up, down):  6.048E-02 0.000E+00

     total cpu time spent up to now is    55701.2 secs

     total energy              =  -11682.10553414 Ry
     estimated scf accuracy    <       0.00000462 Ry

     iteration #194     ecut=    80.00 Ry     beta= 0.10
     Davidson diagonalization with overlap
     ethr =  1.05E-10,  avg # of iterations =  1.0

     negative rho (up, down):  6.048E-02 0.000E+00

     total cpu time spent up to now is    55984.2 secs

     total energy              =  -11682.10553417 Ry
     estimated scf accuracy    <       0.00000158 Ry

     iteration #195     ecut=    80.00 Ry     beta= 0.10
     Davidson diagonalization with overlap
     ethr =  8.44E-11,  avg # of iterations =  1.0

     negative rho (up, down):  6.048E-02 0.000E+00

     total cpu time spent up to now is    56267.0 secs

     total energy              =  -11682.10553415 Ry
     estimated scf accuracy    <       0.00000167 Ry

     iteration #196     ecut=    80.00 Ry     beta= 0.10
     Davidson diagonalization with overlap
     ethr =  8.44E-11,  avg # of iterations =  1.0

     negative rho (up, down):  6.048E-02 0.000E+00

     total cpu time spent up to now is    56549.9 secs

     total energy              =  -11682.10553409 Ry
     estimated scf accuracy    <       0.00000666 Ry

     iteration #197     ecut=    80.00 Ry     beta= 0.10
     Davidson diagonalization with overlap
     ethr =  8.44E-11,  avg # of iterations =  1.0

     negative rho (up, down):  6.048E-02 0.000E+00

     total cpu time spent up to now is    56832.0 secs

     total energy              =  -11682.10553417 Ry
     estimated scf accuracy    <       0.00000217 Ry

     iteration #198     ecut=    80.00 Ry     beta= 0.10
     Davidson diagonalization with overlap
     ethr =  8.44E-11,  avg # of iterations =  1.0

     negative rho (up, down):  6.048E-02 0.000E+00

     total cpu time spent up to now is    57114.5 secs

     total energy              =  -11682.10553419 Ry
     estimated scf accuracy    <       0.00000107 Ry

     iteration #199     ecut=    80.00 Ry     beta= 0.10
     Davidson diagonalization with overlap
     ethr =  5.71E-11,  avg # of iterations =  1.0

     negative rho (up, down):  6.048E-02 0.000E+00

     total cpu time spent up to now is    57396.5 secs

     total energy              =  -11682.10553419 Ry
     estimated scf accuracy    <       0.00000091 Ry

     iteration #200     ecut=    80.00 Ry     beta= 0.10
     Davidson diagonalization with overlap
     ethr =  4.84E-11,  avg # of iterations =  1.0

     negative rho (up, down):  6.048E-02 0.000E+00

     total cpu time spent up to now is    57678.9 secs

     total energy              =  -11682.10553418 Ry
     estimated scf accuracy    <       0.00000290 Ry

     iteration #201     ecut=    80.00 Ry     beta= 0.10
     Davidson diagonalization with overlap
     ethr =  4.84E-11,  avg # of iterations =  1.0

     negative rho (up, down):  6.048E-02 0.000E+00

     total cpu time spent up to now is    57962.3 secs

     total energy              =  -11682.10553419 Ry
     estimated scf accuracy    <       0.00000173 Ry

     iteration #202     ecut=    80.00 Ry     beta= 0.10
     Davidson diagonalization with overlap
     ethr =  4.84E-11,  avg # of iterations =  1.0

     negative rho (up, down):  6.048E-02 0.000E+00

     total cpu time spent up to now is    58246.4 secs

     total energy              =  -11682.10553418 Ry
     estimated scf accuracy    <       0.00000231 Ry

     iteration #203     ecut=    80.00 Ry     beta= 0.10
     Davidson diagonalization with overlap
     ethr =  4.84E-11,  avg # of iterations =  1.0

     negative rho (up, down):  6.048E-02 0.000E+00

     total cpu time spent up to now is    58529.2 secs

     total energy              =  -11682.10553420 Ry
     estimated scf accuracy    <       0.00000206 Ry

     iteration #204     ecut=    80.00 Ry     beta= 0.10
     Davidson diagonalization with overlap
     ethr =  4.84E-11,  avg # of iterations =  1.0

     negative rho (up, down):  6.048E-02 0.000E+00

     total cpu time spent up to now is    58812.4 secs

     total energy              =  -11682.10553421 Ry
     estimated scf accuracy    <       0.00000053 Ry

     iteration #205     ecut=    80.00 Ry     beta= 0.10
     Davidson diagonalization with overlap
     ethr =  2.84E-11,  avg # of iterations =  1.0

     negative rho (up, down):  6.048E-02 0.000E+00

     total cpu time spent up to now is    59095.0 secs

     total energy              =  -11682.10553422 Ry
     estimated scf accuracy    <       0.00000051 Ry

     iteration #206     ecut=    80.00 Ry     beta= 0.10
     Davidson diagonalization with overlap
     ethr =  2.71E-11,  avg # of iterations =  1.0

     negative rho (up, down):  6.048E-02 0.000E+00

     total cpu time spent up to now is    59377.3 secs

     total energy              =  -11682.10553419 Ry
     estimated scf accuracy    <       0.00000219 Ry

     iteration #207     ecut=    80.00 Ry     beta= 0.10
     Davidson diagonalization with overlap
     ethr =  2.71E-11,  avg # of iterations =  1.0

     negative rho (up, down):  6.048E-02 0.000E+00

     total cpu time spent up to now is    59659.8 secs

     total energy              =  -11682.10553420 Ry
     estimated scf accuracy    <       0.00000192 Ry

     iteration #208     ecut=    80.00 Ry     beta= 0.10
     Davidson diagonalization with overlap
     ethr =  2.71E-11,  avg # of iterations =  1.0

     negative rho (up, down):  6.048E-02 0.000E+00

     total cpu time spent up to now is    59942.1 secs

     total energy              =  -11682.10553422 Ry
     estimated scf accuracy    <       0.00000067 Ry

     iteration #209     ecut=    80.00 Ry     beta= 0.10
     Davidson diagonalization with overlap
     ethr =  2.71E-11,  avg # of iterations =  1.0

     negative rho (up, down):  6.048E-02 0.000E+00

     total cpu time spent up to now is    60224.7 secs

     total energy              =  -11682.10553422 Ry
     estimated scf accuracy    <       0.00000045 Ry

     iteration #210     ecut=    80.00 Ry     beta= 0.10
     Davidson diagonalization with overlap
     ethr =  2.40E-11,  avg # of iterations =  1.0

     negative rho (up, down):  6.048E-02 0.000E+00

     total cpu time spent up to now is    60507.4 secs

     total energy              =  -11682.10553422 Ry
     estimated scf accuracy    <       0.00000128 Ry

     iteration #211     ecut=    80.00 Ry     beta= 0.10
     Davidson diagonalization with overlap
     ethr =  2.40E-11,  avg # of iterations =  1.0

     negative rho (up, down):  6.048E-02 0.000E+00

     total cpu time spent up to now is    60789.8 secs

     total energy              =  -11682.10553422 Ry
     estimated scf accuracy    <       0.00000092 Ry

     iteration #212     ecut=    80.00 Ry     beta= 0.10
     Davidson diagonalization with overlap
     ethr =  2.40E-11,  avg # of iterations =  1.0

     negative rho (up, down):  6.048E-02 0.000E+00

     total cpu time spent up to now is    61071.5 secs

     total energy              =  -11682.10553422 Ry
     estimated scf accuracy    <       0.00000122 Ry

     iteration #213     ecut=    80.00 Ry     beta= 0.10
     Davidson diagonalization with overlap
     ethr =  2.40E-11,  avg # of iterations =  1.0

     negative rho (up, down):  6.048E-02 0.000E+00

     total cpu time spent up to now is    61355.6 secs

     total energy              =  -11682.10553423 Ry
     estimated scf accuracy    <       0.00000122 Ry

     iteration #214     ecut=    80.00 Ry     beta= 0.10
     Davidson diagonalization with overlap
     ethr =  2.40E-11,  avg # of iterations =  1.0

     negative rho (up, down):  6.048E-02 0.000E+00

     total cpu time spent up to now is    61638.2 secs

     total energy              =  -11682.10553423 Ry
     estimated scf accuracy    <       0.00000025 Ry

     iteration #215     ecut=    80.00 Ry     beta= 0.10
     Davidson diagonalization with overlap
     ethr =  1.34E-11,  avg # of iterations =  1.0

     negative rho (up, down):  6.048E-02 0.000E+00

     total cpu time spent up to now is    61927.6 secs

     total energy              =  -11682.10553423 Ry
     estimated scf accuracy    <       0.00000016 Ry

     iteration #216     ecut=    80.00 Ry     beta= 0.10
     Davidson diagonalization with overlap
     ethr =  8.77E-12,  avg # of iterations =  1.0

     negative rho (up, down):  6.048E-02 0.000E+00

     total cpu time spent up to now is    62210.7 secs

     total energy              =  -11682.10553423 Ry
     estimated scf accuracy    <       0.00000047 Ry

     iteration #217     ecut=    80.00 Ry     beta= 0.10
     Davidson diagonalization with overlap
     ethr =  8.77E-12,  avg # of iterations =  1.0

     negative rho (up, down):  6.048E-02 0.000E+00

     total cpu time spent up to now is    62494.2 secs

     total energy              =  -11682.10553422 Ry
     estimated scf accuracy    <       0.00000129 Ry

     iteration #218     ecut=    80.00 Ry     beta= 0.10
     Davidson diagonalization with overlap
     ethr =  8.77E-12,  avg # of iterations =  1.0

     negative rho (up, down):  6.048E-02 0.000E+00

     total cpu time spent up to now is    62777.6 secs

     total energy              =  -11682.10553423 Ry
     estimated scf accuracy    <       0.00000044 Ry

     iteration #219     ecut=    80.00 Ry     beta= 0.10
     Davidson diagonalization with overlap
     ethr =  8.77E-12,  avg # of iterations =  1.0

     negative rho (up, down):  6.048E-02 0.000E+00

     total cpu time spent up to now is    63061.0 secs

     total energy              =  -11682.10553423 Ry
     estimated scf accuracy    <       0.00000026 Ry

     iteration #220     ecut=    80.00 Ry     beta= 0.10
     Davidson diagonalization with overlap
     ethr =  8.77E-12,  avg # of iterations =  1.0

     negative rho (up, down):  6.048E-02 0.000E+00

     total cpu time spent up to now is    63344.3 secs

     total energy              =  -11682.10553423 Ry
     estimated scf accuracy    <       0.00000065 Ry

     iteration #221     ecut=    80.00 Ry     beta= 0.10
     Davidson diagonalization with overlap
     ethr =  8.77E-12,  avg # of iterations =  1.0

     negative rho (up, down):  6.048E-02 0.000E+00

     total cpu time spent up to now is    63626.9 secs

     total energy              =  -11682.10553423 Ry
     estimated scf accuracy    <       0.00000061 Ry

     iteration #222     ecut=    80.00 Ry     beta= 0.10
     Davidson diagonalization with overlap
     ethr =  8.77E-12,  avg # of iterations =  1.0

     negative rho (up, down):  6.048E-02 0.000E+00

     total cpu time spent up to now is    63909.6 secs

     total energy              =  -11682.10553423 Ry
     estimated scf accuracy    <       0.00000086 Ry

     iteration #223     ecut=    80.00 Ry     beta= 0.10
     Davidson diagonalization with overlap
     ethr =  8.77E-12,  avg # of iterations =  1.0

     negative rho (up, down):  6.048E-02 0.000E+00

     total cpu time spent up to now is    64192.5 secs

     total energy              =  -11682.10553423 Ry
     estimated scf accuracy    <       0.00000097 Ry

     iteration #224     ecut=    80.00 Ry     beta= 0.10
     Davidson diagonalization with overlap
     ethr =  8.77E-12,  avg # of iterations =  1.0

     negative rho (up, down):  6.048E-02 0.000E+00

     total cpu time spent up to now is    64475.7 secs

     total energy              =  -11682.10553424 Ry
     estimated scf accuracy    <       0.00000019 Ry

     iteration #225     ecut=    80.00 Ry     beta= 0.10
     Davidson diagonalization with overlap
     ethr =  8.77E-12,  avg # of iterations =  1.0

     negative rho (up, down):  6.048E-02 0.000E+00

     total cpu time spent up to now is    64758.1 secs

     total energy              =  -11682.10553424 Ry
     estimated scf accuracy    <       0.00000007 Ry

     iteration #226     ecut=    80.00 Ry     beta= 0.10
     Davidson diagonalization with overlap
     ethr =  3.77E-12,  avg # of iterations =  1.0

     negative rho (up, down):  6.048E-02 0.000E+00

     total cpu time spent up to now is    65041.6 secs

     total energy              =  -11682.10553424 Ry
     estimated scf accuracy    <       0.00000012 Ry

     iteration #227     ecut=    80.00 Ry     beta= 0.10
     Davidson diagonalization with overlap
     ethr =  3.77E-12,  avg # of iterations =  1.0

     negative rho (up, down):  6.048E-02 0.000E+00

     total cpu time spent up to now is    65324.5 secs

     total energy              =  -11682.10553423 Ry
     estimated scf accuracy    <       0.00000055 Ry

     iteration #228     ecut=    80.00 Ry     beta= 0.10
     Davidson diagonalization with overlap
     ethr =  3.77E-12,  avg # of iterations =  1.0

     negative rho (up, down):  6.048E-02 0.000E+00

     total cpu time spent up to now is    65607.4 secs

     total energy              =  -11682.10553423 Ry
     estimated scf accuracy    <       0.00000029 Ry

     iteration #229     ecut=    80.00 Ry     beta= 0.10
     Davidson diagonalization with overlap
     ethr =  3.77E-12,  avg # of iterations =  1.0

     negative rho (up, down):  6.048E-02 0.000E+00

     total cpu time spent up to now is    65890.3 secs

     total energy              =  -11682.10553424 Ry
     estimated scf accuracy    <       0.00000016 Ry

     iteration #230     ecut=    80.00 Ry     beta= 0.10
     Davidson diagonalization with overlap
     ethr =  3.77E-12,  avg # of iterations =  1.0

     negative rho (up, down):  6.048E-02 0.000E+00

     total cpu time spent up to now is    66172.8 secs

     total energy              =  -11682.10553424 Ry
     estimated scf accuracy    <       0.00000032 Ry

     iteration #231     ecut=    80.00 Ry     beta= 0.10
     Davidson diagonalization with overlap
     ethr =  3.77E-12,  avg # of iterations =  1.0

     negative rho (up, down):  6.048E-02 0.000E+00

     total cpu time spent up to now is    66456.2 secs

     total energy              =  -11682.10553424 Ry
     estimated scf accuracy    <       0.00000036 Ry

     iteration #232     ecut=    80.00 Ry     beta= 0.10
     Davidson diagonalization with overlap
     ethr =  3.77E-12,  avg # of iterations =  1.0

     negative rho (up, down):  6.048E-02 0.000E+00

     total cpu time spent up to now is    66741.7 secs

     total energy              =  -11682.10553423 Ry
     estimated scf accuracy    <       0.00000054 Ry

     iteration #233     ecut=    80.00 Ry     beta= 0.10
     Davidson diagonalization with overlap
     ethr =  3.77E-12,  avg # of iterations =  1.0

     negative rho (up, down):  6.048E-02 0.000E+00

     total cpu time spent up to now is    67024.5 secs

     total energy              =  -11682.10553423 Ry
     estimated scf accuracy    <       0.00000057 Ry

     iteration #234     ecut=    80.00 Ry     beta= 0.10
     Davidson diagonalization with overlap
     ethr =  3.77E-12,  avg # of iterations =  1.0

     negative rho (up, down):  6.048E-02 0.000E+00

     total cpu time spent up to now is    67311.1 secs

     total energy              =  -11682.10553424 Ry
     estimated scf accuracy    <       0.00000018 Ry

     iteration #235     ecut=    80.00 Ry     beta= 0.10
     Davidson diagonalization with overlap
     ethr =  3.77E-12,  avg # of iterations =  1.0

     negative rho (up, down):  6.048E-02 0.000E+00

     total cpu time spent up to now is    67594.4 secs

     total energy              =  -11682.10553424 Ry
     estimated scf accuracy    <       0.00000006 Ry

     iteration #236     ecut=    80.00 Ry     beta= 0.10
     Davidson diagonalization with overlap
     ethr =  3.05E-12,  avg # of iterations =  1.0

     negative rho (up, down):  6.048E-02 0.000E+00

     total cpu time spent up to now is    67877.0 secs

     total energy              =  -11682.10553423 Ry
     estimated scf accuracy    <       0.00000005 Ry

     iteration #237     ecut=    80.00 Ry     beta= 0.10
     Davidson diagonalization with overlap
     ethr =  2.69E-12,  avg # of iterations =  1.0

     negative rho (up, down):  6.048E-02 0.000E+00

     total cpu time spent up to now is    68165.0 secs

     total energy              =  -11682.10553423 Ry
     estimated scf accuracy    <       0.00000017 Ry

     iteration #238     ecut=    80.00 Ry     beta= 0.10
     Davidson diagonalization with overlap
     ethr =  2.69E-12,  avg # of iterations =  1.0

     negative rho (up, down):  6.048E-02 0.000E+00

     total cpu time spent up to now is    68449.0 secs

     total energy              =  -11682.10553424 Ry
     estimated scf accuracy    <       0.00000018 Ry

     iteration #239     ecut=    80.00 Ry     beta= 0.10
     Davidson diagonalization with overlap
     ethr =  2.69E-12,  avg # of iterations =  1.0

     negative rho (up, down):  6.048E-02 0.000E+00

     total cpu time spent up to now is    68732.4 secs

     total energy              =  -11682.10553424 Ry
     estimated scf accuracy    <       0.00000009 Ry

     iteration #240     ecut=    80.00 Ry     beta= 0.10
     Davidson diagonalization with overlap
     ethr =  2.69E-12,  avg # of iterations =  1.0

     negative rho (up, down):  6.048E-02 0.000E+00

     total cpu time spent up to now is    69015.6 secs

     total energy              =  -11682.10553423 Ry
     estimated scf accuracy    <       0.00000012 Ry

     iteration #241     ecut=    80.00 Ry     beta= 0.10
     Davidson diagonalization with overlap
     ethr =  2.69E-12,  avg # of iterations =  1.0

     negative rho (up, down):  6.048E-02 0.000E+00

     total cpu time spent up to now is    69298.9 secs

     total energy              =  -11682.10553423 Ry
     estimated scf accuracy    <       0.00000015 Ry

     iteration #242     ecut=    80.00 Ry     beta= 0.10
     Davidson diagonalization with overlap
     ethr =  2.69E-12,  avg # of iterations =  1.0

     negative rho (up, down):  6.048E-02 0.000E+00

     total cpu time spent up to now is    69581.4 secs

     total energy              =  -11682.10553423 Ry
     estimated scf accuracy    <       0.00000022 Ry

     iteration #243     ecut=    80.00 Ry     beta= 0.10
     Davidson diagonalization with overlap
     ethr =  2.69E-12,  avg # of iterations =  1.0

     negative rho (up, down):  6.048E-02 0.000E+00

     total cpu time spent up to now is    69864.5 secs

     total energy              =  -11682.10553423 Ry
     estimated scf accuracy    <       0.00000020 Ry

     iteration #244     ecut=    80.00 Ry     beta= 0.10
     Davidson diagonalization with overlap
     ethr =  2.69E-12,  avg # of iterations =  1.0

     negative rho (up, down):  6.048E-02 0.000E+00

     total cpu time spent up to now is    70147.4 secs

     total energy              =  -11682.10553423 Ry
     estimated scf accuracy    <       0.00000014 Ry

     iteration #245     ecut=    80.00 Ry     beta= 0.10
     Davidson diagonalization with overlap
     ethr =  2.69E-12,  avg # of iterations =  1.0

     negative rho (up, down):  6.048E-02 0.000E+00

     total cpu time spent up to now is    70430.5 secs

     total energy              =  -11682.10553423 Ry
     estimated scf accuracy    <       0.00000007 Ry

     iteration #246     ecut=    80.00 Ry     beta= 0.10
     Davidson diagonalization with overlap
     ethr =  2.69E-12,  avg # of iterations =  1.0

     negative rho (up, down):  6.048E-02 0.000E+00

     total cpu time spent up to now is    70713.6 secs

     total energy              =  -11682.10553423 Ry
     estimated scf accuracy    <       0.00000003 Ry

     iteration #247     ecut=    80.00 Ry     beta= 0.10
     Davidson diagonalization with overlap
     ethr =  1.56E-12,  avg # of iterations =  1.0

     negative rho (up, down):  6.048E-02 0.000E+00

     total cpu time spent up to now is    70995.6 secs

     total energy              =  -11682.10553423 Ry
     estimated scf accuracy    <       0.00000006 Ry

     iteration #248     ecut=    80.00 Ry     beta= 0.10
     Davidson diagonalization with overlap
     ethr =  1.56E-12,  avg # of iterations =  1.0

     negative rho (up, down):  6.048E-02 0.000E+00

     total cpu time spent up to now is    71279.0 secs

     total energy              =  -11682.10553423 Ry
     estimated scf accuracy    <       0.00000010 Ry

     iteration #249     ecut=    80.00 Ry     beta= 0.10
     Davidson diagonalization with overlap
     ethr =  1.56E-12,  avg # of iterations =  1.0

     negative rho (up, down):  6.048E-02 0.000E+00

     total cpu time spent up to now is    71561.7 secs

     total energy              =  -11682.10553423 Ry
     estimated scf accuracy    <       0.00000005 Ry

     iteration #250     ecut=    80.00 Ry     beta= 0.10
     Davidson diagonalization with overlap
     ethr =  1.56E-12,  avg # of iterations =  1.0

     negative rho (up, down):  6.048E-02 0.000E+00

     total cpu time spent up to now is    71844.6 secs

     total energy              =  -11682.10553423 Ry
     estimated scf accuracy    <       0.00000004 Ry

     iteration #251     ecut=    80.00 Ry     beta= 0.10
     Davidson diagonalization with overlap
     ethr =  1.56E-12,  avg # of iterations =  1.0

     negative rho (up, down):  6.048E-02 0.000E+00

     total cpu time spent up to now is    72128.1 secs

     total energy              =  -11682.10553423 Ry
     estimated scf accuracy    <       0.00000005 Ry

     iteration #252     ecut=    80.00 Ry     beta= 0.10
     Davidson diagonalization with overlap
     ethr =  1.56E-12,  avg # of iterations =  1.0

     negative rho (up, down):  6.048E-02 0.000E+00

     total cpu time spent up to now is    72410.0 secs

     total energy              =  -11682.10553423 Ry
     estimated scf accuracy    <       0.00000006 Ry

     iteration #253     ecut=    80.00 Ry     beta= 0.10
     Davidson diagonalization with overlap
     ethr =  1.56E-12,  avg # of iterations =  1.0

     negative rho (up, down):  6.048E-02 0.000E+00

     total cpu time spent up to now is    72692.7 secs

     total energy              =  -11682.10553423 Ry
     estimated scf accuracy    <       0.00000005 Ry

     iteration #254     ecut=    80.00 Ry     beta= 0.10
     Davidson diagonalization with overlap
     ethr =  1.56E-12,  avg # of iterations =  1.0

     negative rho (up, down):  6.048E-02 0.000E+00

     total cpu time spent up to now is    72975.1 secs

     total energy              =  -11682.10553423 Ry
     estimated scf accuracy    <       0.00000008 Ry

     iteration #255     ecut=    80.00 Ry     beta= 0.10
     Davidson diagonalization with overlap
     ethr =  1.56E-12,  avg # of iterations =  1.0

     negative rho (up, down):  6.048E-02 0.000E+00

     total cpu time spent up to now is    73257.2 secs

     total energy              =  -11682.10553423 Ry
     estimated scf accuracy    <       0.00000007 Ry

     iteration #256     ecut=    80.00 Ry     beta= 0.10
     Davidson diagonalization with overlap
     ethr =  1.56E-12,  avg # of iterations =  1.0

     negative rho (up, down):  6.048E-02 0.000E+00

     total cpu time spent up to now is    73541.1 secs

     total energy              =  -11682.10553423 Ry
     estimated scf accuracy    <       0.00000002 Ry

     iteration #257     ecut=    80.00 Ry     beta= 0.10
     Davidson diagonalization with overlap
     ethr =  9.89E-13,  avg # of iterations =  1.0

     negative rho (up, down):  6.048E-02 0.000E+00

     total cpu time spent up to now is    73824.1 secs

     total energy              =  -11682.10553423 Ry
     estimated scf accuracy    <       0.00000002 Ry

     iteration #258     ecut=    80.00 Ry     beta= 0.10
     Davidson diagonalization with overlap
     ethr =  9.89E-13,  avg # of iterations =  1.0

     negative rho (up, down):  6.048E-02 0.000E+00

     total cpu time spent up to now is    74106.7 secs

     total energy              =  -11682.10553423 Ry
     estimated scf accuracy    <       0.00000006 Ry

     iteration #259     ecut=    80.00 Ry     beta= 0.10
     Davidson diagonalization with overlap
     ethr =  9.89E-13,  avg # of iterations =  1.0

     negative rho (up, down):  6.048E-02 0.000E+00

     total cpu time spent up to now is    74393.6 secs

     total energy              =  -11682.10553423 Ry
     estimated scf accuracy    <       0.00000003 Ry

     iteration #260     ecut=    80.00 Ry     beta= 0.10
     Davidson diagonalization with overlap
     ethr =  9.89E-13,  avg # of iterations =  1.0

     negative rho (up, down):  6.048E-02 0.000E+00

     total cpu time spent up to now is    74676.0 secs

     total energy              =  -11682.10553423 Ry
     estimated scf accuracy    <       0.00000002 Ry

     iteration #261     ecut=    80.00 Ry     beta= 0.10
     Davidson diagonalization with overlap
     ethr =  9.89E-13,  avg # of iterations =  1.0

     negative rho (up, down):  6.048E-02 0.000E+00

     total cpu time spent up to now is    74958.8 secs

     total energy              =  -11682.10553423 Ry
     estimated scf accuracy    <       0.00000002 Ry

     iteration #262     ecut=    80.00 Ry     beta= 0.10
     Davidson diagonalization with overlap
     ethr =  8.49E-13,  avg # of iterations =  1.0

     negative rho (up, down):  6.048E-02 0.000E+00

     total cpu time spent up to now is    75242.2 secs

     total energy              =  -11682.10553423 Ry
     estimated scf accuracy    <       0.00000002 Ry

     iteration #263     ecut=    80.00 Ry     beta= 0.10
     Davidson diagonalization with overlap
     ethr =  8.49E-13,  avg # of iterations =  1.0

     negative rho (up, down):  6.048E-02 0.000E+00

     total cpu time spent up to now is    75527.4 secs

     total energy              =  -11682.10553423 Ry
     estimated scf accuracy    <       0.00000001 Ry

     iteration #264     ecut=    80.00 Ry     beta= 0.10
     Davidson diagonalization with overlap
     ethr =  7.84E-13,  avg # of iterations =  1.0

     negative rho (up, down):  6.048E-02 0.000E+00

     total cpu time spent up to now is    75810.6 secs

     total energy              =  -11682.10553423 Ry
     estimated scf accuracy    <       0.00000003 Ry

     iteration #265     ecut=    80.00 Ry     beta= 0.10
     Davidson diagonalization with overlap
     ethr =  7.84E-13,  avg # of iterations =  1.0

     negative rho (up, down):  6.048E-02 0.000E+00

     total cpu time spent up to now is    76094.1 secs

     total energy              =  -11682.10553423 Ry
     estimated scf accuracy    <       0.00000003 Ry

     iteration #266     ecut=    80.00 Ry     beta= 0.10
     Davidson diagonalization with overlap
     ethr =  7.84E-13,  avg # of iterations =  1.0

     negative rho (up, down):  6.048E-02 0.000E+00

     total cpu time spent up to now is    76376.9 secs

     total energy              =  -11682.10553423 Ry
     estimated scf accuracy    <       0.00000001 Ry

     iteration #267     ecut=    80.00 Ry     beta= 0.10
     Davidson diagonalization with overlap
