
     Program PWSCF v.7.5 starts on  2Mar2026 at 15:18:44 

     This program is part of the open-source Quantum ESPRESSO suite
     for quantum simulation of materials; please cite
         "P. Giannozzi et al., J. Phys.:Condens. Matter 21 395502 (2009);
         "P. Giannozzi et al., J. Phys.:Condens. Matter 29 465901 (2017);
         "P. Giannozzi et al., J. Chem. Phys. 152 154105 (2020);
          URL http://www.quantum-espresso.org", 
     in publications or presentations arising from this work. More details at
     http://www.quantum-espresso.org/quote

     Parallel version (MPI), running on    80 processors

     MPI processes distributed on     4 nodes
     97221 MiB available memory on the printing compute node when the environment starts
 
     Reading input from NaphthaleneOnGlassSite2Snapshot1.in
Warning: card &CELL ignored
Warning: card &FCP ignored
Warning: card &RISM ignored

     Current dimensions of program PWSCF are:
     Max number of different atomic species (ntypx) = 10
     Max number of k-points (npk) =  40000
     Max angular momentum in pseudopotentials (lmaxx) =  4
     file Na.paw.z_9.ld1.psl.v1.0.0-low.upf: wavefunction(s)  2P renormalized
     file O.pbe-n-kjpaw_psl.0.1.UPF: wavefunction(s)  2P renormalized
     file Al.pbe-n-kjpaw_psl.1.0.0.UPF: wavefunction(s)  3S 3P renormalized
     file C.pbe-n-kjpaw_psl.1.0.0.UPF: wavefunction(s)  2S 2P renormalized
 
     R & G space division:  proc/nbgrp/npool/nimage =      80
     Subspace diagonalization in iterative solution of the eigenvalue problem:
     one sub-group per band group will be used
     custom distributed-memory algorithm (size of sub-group:  8*  8 procs)

 
     Parallelization info
     --------------------
     sticks:   dense  smooth     PW     G-vecs:    dense   smooth      PW
     Min         450     400    100               199276   167008   20874
     Max         451     401    101               199303   167021   20885
     Sum       36073   32057   8021             15943719 13361281 1670237
 
     Using Slab Decomposition
 


     bravais-lattice index     =            0
     lattice parameter (alat)  =      35.4885  a.u.
     unit-cell volume          =  138228.4306 (a.u.)^3
     number of atoms/cell      =          358
     number of atomic types    =            7
     number of electrons       =      1872.00
     number of Kohn-Sham states=         1123
     kinetic-energy cutoff     =      80.0000  Ry
     charge density cutoff     =     360.0000  Ry
     scf convergence threshold =      1.0E-08
     mixing beta               =       0.1000
     number of iterations used =            8  plain     mixing
     Exchange-correlation= PBE
                           (   1   4   3   4   0   0   0)

     celldm(1)=  35.488539  celldm(2)=   0.000000  celldm(3)=   0.000000
     celldm(4)=   0.000000  celldm(5)=   0.000000  celldm(6)=   0.000000

     crystal axes: (cart. coord. in units of alat)
               a(1) = (   1.000000   0.000000   0.000000 )  
               a(2) = (   0.000000   1.000000   0.000000 )  
               a(3) = (   0.000000   0.000000   3.092666 )  

     reciprocal axes: (cart. coord. in units 2 pi/alat)
               b(1) = (  1.000000  0.000000  0.000000 )  
               b(2) = (  0.000000  1.000000  0.000000 )  
               b(3) = (  0.000000  0.000000  0.323346 )  


     PseudoPot. # 1 for Na read from file:
     /home/sabeel/VOCC_Simulation/pseudopotentials/SSSP_Precision/Na.paw.z_9.ld1.psl.v1.0.0-low.upf
     MD5 check sum: 32bccecb13d7399e6c7dae6fe6685ff0
     Pseudo is Projector augmented-wave + core cor, Zval =  9.0
     Generated using &quot;atomic&quot; code by A. Dal Corso  v.6.3MaX
     Shape of augmentation charge: PSQ
     Using radial grid of 1121 points,  4 beta functions with: 
                l(1) =   0
                l(2) =   0
                l(3) =   1
                l(4) =   1
     Q(r) pseudized with 0 coefficients 


     PseudoPot. # 2 for B  read from file:
     /home/sabeel/VOCC_Simulation/pseudopotentials/SSSP_Precision/B_pbe_v1.01.uspp.F.UPF
     MD5 check sum: d081ebb89d0c768e112975f650467a00
     Pseudo is Ultrasoft + core correction, Zval =  3.0
     Generated by new atomic code, or converted to UPF format
     Using radial grid of  781 points,  4 beta functions with: 
                l(1) =   0
                l(2) =   0
                l(3) =   1
                l(4) =   1
     Q(r) pseudized with  8 coefficients,  rinner =    1.100   1.100   1.100


     PseudoPot. # 3 for Si read from file:
     /home/sabeel/VOCC_Simulation/pseudopotentials/SSSP_Precision/Si.pbe-n-rrkjus_psl.1.0.0.UPF
     MD5 check sum: 0b0bb1205258b0d07b9f9672cf965d36
     Pseudo is Ultrasoft + core correction, Zval =  4.0
     Generated using "atomic" code by A. Dal Corso  v.5.1
     Using radial grid of 1141 points,  6 beta functions with: 
                l(1) =   0
                l(2) =   0
                l(3) =   1
                l(4) =   1
                l(5) =   2
                l(6) =   2
     Q(r) pseudized with 0 coefficients 


     PseudoPot. # 4 for O  read from file:
     /home/sabeel/VOCC_Simulation/pseudopotentials/SSSP_Precision/O.pbe-n-kjpaw_psl.0.1.UPF
     MD5 check sum: 0234752ac141de4415c5fc33072bef88
     Pseudo is Projector augmented-wave + core cor, Zval =  6.0
     Generated using "atomic" code by A. Dal Corso  v.5.0.99 svn rev. 10869
     Shape of augmentation charge: BESSEL
     Using radial grid of 1095 points,  4 beta functions with: 
                l(1) =   0
                l(2) =   0
                l(3) =   1
                l(4) =   1
     Q(r) pseudized with 0 coefficients 


     PseudoPot. # 5 for Al read from file:
     /home/sabeel/VOCC_Simulation/pseudopotentials/SSSP_Precision/Al.pbe-n-kjpaw_psl.1.0.0.UPF
     MD5 check sum: cfc449ca30b5f3223ec38ddd88ac046d
     Pseudo is Projector augmented-wave + core cor, Zval =  3.0
     Generated using "atomic" code by A. Dal Corso  v.5.1
     Shape of augmentation charge: PSQ
     Using radial grid of 1135 points,  6 beta functions with: 
                l(1) =   0
                l(2) =   0
                l(3) =   1
                l(4) =   1
                l(5) =   2
                l(6) =   2
     Q(r) pseudized with 0 coefficients 


     PseudoPot. # 6 for C  read from file:
     /home/sabeel/VOCC_Simulation/pseudopotentials/SSSP_Precision/C.pbe-n-kjpaw_psl.1.0.0.UPF
     MD5 check sum: 5d2aebdfa2cae82b50a7e79e9516da0f
     Pseudo is Projector augmented-wave + core cor, Zval =  4.0
     Generated using "atomic" code by A. Dal Corso  v.5.1
     Shape of augmentation charge: PSQ
     Using radial grid of 1073 points,  4 beta functions with: 
                l(1) =   0
                l(2) =   0
                l(3) =   1
                l(4) =   1
     Q(r) pseudized with 0 coefficients 


     PseudoPot. # 7 for H  read from file:
     /home/sabeel/VOCC_Simulation/pseudopotentials/SSSP_Precision/H_ONCV_PBE-1.0.oncvpsp.upf
     MD5 check sum: 1790becc920ee074925cf490c71280fe
     Pseudo is Norm-conserving, Zval =  1.0
     Generated using ONCVPSP code by D. R. Hamann
     Using radial grid of 1166 points,  2 beta functions with: 
                l(1) =   0
                l(2) =   0

     atomic species   valence    mass     pseudopotential
     Na                9.00    22.98977     Na( 1.00)
     B                 3.00    10.81000     B ( 1.00)
     Si                4.00    28.08500     Si( 1.00)
     O                 6.00    15.99900     O ( 1.00)
     Al                3.00    26.98154     Al( 1.00)
     C                 4.00    12.01100     C ( 1.00)
     H                 1.00     1.00800     H ( 1.00)

     No symmetry found



   Cartesian axes

     site n.     atom                  positions (alat units)
         1        Na     tau(   1) = (   0.2476327   0.1287261   1.4401902  )
         2        Na     tau(   2) = (   0.2347070   0.3964799   1.8357059  )
         3        Na     tau(   3) = (   0.2580766   0.4457236   1.6551511  )
         4        Na     tau(   4) = (   0.0484944   0.0277893   1.6277847  )
         5        Na     tau(   5) = (   0.2352313   0.0813062   1.2863150  )
         6        Na     tau(   6) = (   0.0747243   0.2371463   1.1982473  )
         7        Na     tau(   7) = (   0.1133306   0.7698962   1.8611434  )
         8        Na     tau(   8) = (   0.9037110   0.1954209   1.2700780  )
         9        Na     tau(   9) = (   0.5181841   0.1014052   1.4940734  )
        10        Na     tau(  10) = (   0.3803624   0.0140251   1.8302637  )
        11        Na     tau(  11) = (   0.3545179   0.4989222   1.3772145  )
        12        B      tau(  12) = (   0.9565860   0.6559989   1.4661680  )
        13        B      tau(  13) = (   0.3779039   0.3190213   1.8506233  )
        14        B      tau(  14) = (   0.6357433   0.7757670   1.3375748  )
        15        B      tau(  15) = (   0.9958362   0.0827877   1.8476266  )
        16        B      tau(  16) = (   0.6987179   0.5586979   1.3943070  )
        17        B      tau(  17) = (   0.0903279   0.5997535   1.2200041  )
        18        B      tau(  18) = (   0.9460845   0.5017876   1.4754679  )
        19        B      tau(  19) = (   0.0032347   0.0527127   1.2839437  )
        20        B      tau(  20) = (   0.1241012   0.5940167   1.6016841  )
        21        B      tau(  21) = (   0.4174729   0.9198072   1.5541475  )
        22        B      tau(  22) = (   0.4638227   0.9107282   1.2322731  )
        23        B      tau(  23) = (   0.5096053   0.7092947   1.5000083  )
        24        B      tau(  24) = (   0.4035376   0.9367665   1.6900270  )
        25        B      tau(  25) = (   0.7132674   0.8560217   1.2558196  )
        26        B      tau(  26) = (   0.2579773   0.4217781   1.2874388  )
        27        B      tau(  27) = (   0.1862793   0.2338812   1.3576537  )
        28        B      tau(  28) = (   0.2134919   0.3664862   1.5073156  )
        29        B      tau(  29) = (   0.3546252   0.0462610   1.5293894  )
        30        B      tau(  30) = (   0.8082206   0.9504483   1.6218439  )
        31        B      tau(  31) = (   0.4915043   0.5408159   1.2913026  )
        32        B      tau(  32) = (   0.2471486   0.9450605   1.4099193  )
        33        B      tau(  33) = (   0.7089246   0.1566090   1.6669558  )
        34        B      tau(  34) = (   0.4858908   0.1745693   1.3498737  )
        35        Si     tau(  35) = (   0.5740761   0.3686341   1.4981594  )
        36        Si     tau(  36) = (   0.9600416   0.6521543   1.2713743  )
        37        Si     tau(  37) = (   0.8029666   0.9237355   1.4090604  )
        38        Si     tau(  38) = (   0.6589027   0.0111466   1.4303706  )
        39        Si     tau(  39) = (   0.7148031   0.8518694   1.6658713  )
        40        Si     tau(  40) = (   0.4062844   0.4370669   1.7000479  )
        41        Si     tau(  41) = (   0.8652299   0.0194200   1.2866760  )
        42        Si     tau(  42) = (   0.8792462   0.4724358   1.3313926  )
        43        Si     tau(  43) = (   0.9761010   0.8191325   1.3004490  )
        44        Si     tau(  44) = (   0.0927580   0.6000365   1.4532062  )
        45        Si     tau(  45) = (   0.8492038   0.6801733   1.8429896  )
        46        Si     tau(  46) = (   0.7648638   0.9759642   1.8781504  )
        47        Si     tau(  47) = (   0.8282769   0.9005504   1.7531841  )
        48        Si     tau(  48) = (   0.2400871   0.2615564   1.6009290  )
        49        Si     tau(  49) = (   0.0782160   0.8578516   1.7113893  )
        50        Si     tau(  50) = (   0.1793983   0.5421597   1.3229395  )
        51        Si     tau(  51) = (   0.3045589   0.3154693   1.3856788  )
        52        Si     tau(  52) = (   0.1868342   0.9496617   1.8144358  )
        53        Si     tau(  53) = (   0.5597482   0.9942014   1.8563540  )
        54        Si     tau(  54) = (   0.3283405   0.8654915   1.7979255  )
        55        Si     tau(  55) = (   0.3944303   0.1342286   1.2558232  )
        56        Si     tau(  56) = (   0.5556116   0.4029995   1.7688172  )
        57        Si     tau(  57) = (   0.8886951   0.0519111   1.5515978  )
        58        Si     tau(  58) = (   0.9177874   0.8266438   1.8602018  )
        59        Si     tau(  59) = (   0.5141592   0.7513592   1.7304853  )
        60        Si     tau(  60) = (   0.6200680   0.7296116   1.5975635  )
        61        Si     tau(  61) = (   0.4531771   0.2653855   1.4551164  )
        62        Si     tau(  62) = (   0.9530092   0.1910999   1.6203079  )
        63        Si     tau(  63) = (   0.9806318   0.2594417   1.4695044  )
        64        Si     tau(  64) = (   0.1810221   0.5658568   1.7318917  )
        65        Si     tau(  65) = (   0.2276537   0.6624309   1.2309086  )
        66        Si     tau(  66) = (   0.7086066   0.3068958   1.4624957  )
        67        Si     tau(  67) = (   0.7573617   0.5008676   1.2102682  )
        68        Si     tau(  68) = (   0.0630774   0.5052222   1.8068999  )
        69        Si     tau(  69) = (   0.9531780   0.4208941   1.7332624  )
        70        Si     tau(  70) = (   0.8429520   0.6341042   1.3864806  )
        71        Si     tau(  71) = (   0.8255070   0.2513717   1.7092992  )
        72        Si     tau(  72) = (   0.4660404   0.3166643   1.5999861  )
        73        Si     tau(  73) = (   0.3218087   0.1696541   1.7095271  )
        74        Si     tau(  74) = (   0.6054871   0.0864265   1.2929813  )
        75        Si     tau(  75) = (   0.4402609   0.0821865   1.6559030  )
        76        Si     tau(  76) = (   0.3770531   0.0317907   1.3941734  )
        77        Si     tau(  77) = (   0.5059912   0.8072476   1.3243503  )
        78        Si     tau(  78) = (   0.6069382   0.5044701   1.6609957  )
        79        Si     tau(  79) = (   0.6370349   0.4244534   1.3741369  )
        80        Si     tau(  80) = (   0.6855674   0.7078304   1.8645318  )
        81        Si     tau(  81) = (   0.0765130   0.9298841   1.2314627  )
        82        Si     tau(  82) = (   0.9863684   0.4054382   1.2235204  )
        83        Si     tau(  83) = (   0.4950631   0.2585395   1.7548401  )
        84        Si     tau(  84) = (   0.5719431   0.1160579   1.7357262  )
        85        Si     tau(  85) = (   0.3566442   0.7389475   1.7027041  )
        86        Si     tau(  86) = (   0.5887626   0.6478135   1.7482870  )
        87        Si     tau(  87) = (   0.3778403   0.4701707   1.1981005  )
        88        Si     tau(  88) = (   0.7705746   0.7745811   1.3546535  )
        89        Si     tau(  89) = (   0.6353056   0.3899359   1.2194797  )
        90        Si     tau(  90) = (   0.3199297   0.6027545   1.8036004  )
        91        Si     tau(  91) = (   0.6901246   0.5787282   1.5496775  )
        92        Si     tau(  92) = (   0.1108815   0.9857043   1.4484254  )
        93        Si     tau(  93) = (   0.0087222   0.8101075   1.4596435  )
        94        Si     tau(  94) = (   0.4662737   0.5842118   1.4387730  )
        95        Si     tau(  95) = (   0.1497603   0.1150345   1.8191784  )
        96        Si     tau(  96) = (   0.9119816   0.9073773   1.5284091  )
        97        Si     tau(  97) = (   0.5081777   0.9347421   1.4393654  )
        98        Si     tau(  98) = (   0.9733658   0.9480751   1.7929925  )
        99        Si     tau(  99) = (   0.2449909   0.7736475   1.5958723  )
       100        Si     tau( 100) = (   0.2568298   0.7840856   1.3334763  )
       101        Si     tau( 101) = (   0.1600543   0.7576293   1.4557816  )
       102        Si     tau( 102) = (   0.9190690   0.2974838   1.8287833  )
       103        Si     tau( 103) = (   0.8499270   0.3745654   1.6104514  )
       104        Si     tau( 104) = (   0.8444491   0.5369054   1.7673517  )
       105        Si     tau( 105) = (   0.1203187   0.1732756   1.6597012  )
       106        Si     tau( 106) = (   0.6321686   0.6005607   1.2681838  )
       107        Si     tau( 107) = (   0.6235724   0.8470731   1.8048529  )
       108        Si     tau( 108) = (   0.7501132   0.1202716   1.2309056  )
       109        Si     tau( 109) = (   0.2746484   0.2046900   1.8670863  )
       110        Si     tau( 110) = (   0.2273259   0.0646953   1.6216725  )
       111        Si     tau( 111) = (   0.0729274   0.4042159   1.4579120  )
       112        Si     tau( 112) = (   0.6640697   0.1601480   1.5162335  )
       113        Si     tau( 113) = (   0.1226817   0.7031938   1.6887692  )
       114        Si     tau( 114) = (   0.8406300   0.5276586   1.5875131  )
       115        Si     tau( 115) = (   0.8389500   0.3149315   1.3901795  )
       116        Si     tau( 116) = (   0.1722727   0.9211130   1.5953570  )
       117        Si     tau( 117) = (   0.0763504   0.1375521   1.3930086  )
       118        Si     tau( 118) = (   0.3256209   0.9115638   1.2548481  )
       119        Si     tau( 119) = (   0.3955849   0.7224945   1.4035300  )
       120        Si     tau( 120) = (   0.4652418   0.5499611   1.5942954  )
       121        Si     tau( 121) = (   0.1212618   0.3651412   1.3045003  )
       122        O      tau( 122) = (   0.0295168   0.4481121   1.8630498  )
       123        O      tau( 123) = (   0.8632305   0.7660730   1.8351295  )
       124        O      tau( 124) = (   0.7865379   0.5198677   1.8292109  )
       125        O      tau( 125) = (   0.7687039   0.8065522   1.2712216  )
       126        O      tau( 126) = (   0.2613316   0.2462125   1.3627201  )
       127        O      tau( 127) = (   0.4383841   0.2721051   1.5384261  )
       128        O      tau( 128) = (   0.4075804   0.9041606   1.6244717  )
       129        O      tau( 129) = (   0.2891632   0.9821156   1.2266374  )
       130        O      tau( 130) = (   0.3003666   0.1796727   1.7902854  )
       131        O      tau( 131) = (   0.5973279   0.4225163   1.2949590  )
       132        O      tau( 132) = (   0.5334428   0.5020140   1.6146071  )
       133        O      tau( 133) = (   0.2755656   0.1058719   1.6786020  )
       134        O      tau( 134) = (   0.1545595   0.1075181   1.6150265  )
       135        O      tau( 135) = (   0.1198242   0.5723265   1.5291309  )
       136        O      tau( 136) = (   0.5826608   0.7211316   1.6806210  )
       137        O      tau( 137) = (   0.4384820   0.7620469   1.6969890  )
       138        O      tau( 138) = (   0.3813441   0.2977472   1.4178316  )
       139        O      tau( 139) = (   0.9518571   0.2429557   1.5505285  )
       140        O      tau( 140) = (   0.6668767   0.5177678   1.6031137  )
       141        O      tau( 141) = (   0.1520770   0.1695411   1.3620472  )
       142        O      tau( 142) = (   0.6925009   0.7509516   1.3753791  )
       143        O      tau( 143) = (   0.1434568   0.6580895   1.2139172  )
       144        O      tau( 144) = (   0.4761486   0.9028411   1.5138988  )
       145        O      tau( 145) = (   0.0631356   0.5782061   1.8492954  )
       146        O      tau( 146) = (   0.5876332   0.4146284   1.8503125  )
       147        O      tau( 147) = (   0.1071621   0.8902567   1.6361869  )
       148        O      tau( 148) = (   0.0331486   0.1967754   1.4407710  )
       149        O      tau( 149) = (   0.9443941   0.9810288   1.5588672  )
       150        O      tau( 150) = (   0.5485694   0.5774714   1.2625723  )
       151        O      tau( 151) = (   0.6090489   0.9225244   1.8421140  )
       152        O      tau( 152) = (   0.3184350   0.7927686   1.7545505  )
       153        O      tau( 153) = (   0.2965868   0.2359092   1.6579206  )
       154        O      tau( 154) = (   0.3399948   0.4149078   1.7451441  )
       155        O      tau( 155) = (   0.6583099   0.3076783   1.2358723  )
       156        O      tau( 156) = (   0.5620926   0.7442927   1.5385442  )
       157        O      tau( 157) = (   0.5556976   0.3175372   1.7688381  )
       158        O      tau( 158) = (   0.3525972   0.6632019   1.7471104  )
       159        O      tau( 159) = (   0.9620412   0.3446718   1.7697440  )
       160        O      tau( 160) = (   0.5313272   0.1848172   1.7709556  )
       161        O      tau( 161) = (   0.9429693   0.0183272   1.3239474  )
       162        O      tau( 162) = (   0.4858005   0.9533180   1.8755890  )
       163        O      tau( 163) = (   0.3657073   0.5328581   1.8345358  )
       164        O      tau( 164) = (   0.4406081   0.5066782   1.2484323  )
       165        O      tau( 165) = (   0.3135028   0.2834622   1.8690668  )
       166        O      tau( 166) = (   0.7907911   0.8360261   1.7119523  )
       167        O      tau( 167) = (   0.7289290   0.9234833   1.2340123  )
       168        O      tau( 168) = (   0.1454692   0.2885690   1.3267456  )
       169        O      tau( 169) = (   0.3914991   0.9066251   1.7575926  )
       170        O      tau( 170) = (   0.7079875   0.2222935   1.4707635  )
       171        O      tau( 171) = (   0.9743698   0.8515159   1.5269402  )
       172        O      tau( 172) = (   0.1330105   0.5361140   1.2470617  )
       173        O      tau( 173) = (   0.5827735   0.0420994   1.2254729  )
       174        O      tau( 174) = (   0.8602910   0.6220068   1.7811976  )
       175        O      tau( 175) = (   0.5252483   0.6418342   1.4684534  )
       176        O      tau( 176) = (   0.6556139   0.6691234   1.7930720  )
       177        O      tau( 177) = (   0.9478947   0.4555202   1.2814895  )
       178        O      tau( 178) = (   0.9699578   0.0766966   1.2188133  )
       179        O      tau( 179) = (   0.5480526   0.8088247   1.7836236  )
       180        O      tau( 180) = (   0.3152477   0.7447790   1.3880620  )
       181        O      tau( 181) = (   0.1477991   0.6460434   1.7450578  )
       182        O      tau( 182) = (   0.4226375   0.0083615   1.6949577  )
       183        O      tau( 183) = (   0.5004654   0.8461638   1.2447985  )
       184        O      tau( 184) = (   0.7864920   0.8423242   1.4036977  )
       185        O      tau( 185) = (   0.9046070   0.6136339   1.3286598  )
       186        O      tau( 186) = (   0.1308852   0.5564651   1.3912596  )
       187        O      tau( 187) = (   0.0181193   0.9388870   1.8632981  )
       188        O      tau( 188) = (   0.5236768   0.3172741   1.4469420  )
       189        O      tau( 189) = (   0.6771903   0.1363695   1.2729556  )
       190        O      tau( 190) = (   0.5668565   0.7520726   1.3411952  )
       191        O      tau( 191) = (   0.4390184   0.1054952   1.8920128  )
       192        O      tau( 192) = (   0.2801127   0.0556319   1.5537880  )
       193        O      tau( 193) = (   0.9517833   0.2240015   1.8530263  )
       194        O      tau( 194) = (   0.4078786   0.5134087   1.6517908  )
       195        O      tau( 195) = (   0.6735166   0.7941076   1.8547702  )
       196        O      tau( 196) = (   0.7896414   0.2674110   1.3392843  )
       197        O      tau( 197) = (   0.9136500   0.5214282   1.5392122  )
       198        O      tau( 198) = (   0.5881526   0.4350093   1.4460280  )
       199        O      tau( 199) = (   0.7745755   0.5842257   1.3844862  )
       200        O      tau( 200) = (   0.2034896   0.9862494   1.6415920  )
       201        O      tau( 201) = (   0.1233221   0.6813655   1.4530684  )
       202        O      tau( 202) = (   0.7937827   0.3272627   1.4639956  )
       203        O      tau( 203) = (   0.4473563   0.5396589   1.5104804  )
       204        O      tau( 204) = (   0.6542799   0.3403998   1.5182787  )
       205        O      tau( 205) = (   0.8234572   0.7113307   1.3622509  )
       206        O      tau( 206) = (   0.8127487   0.4431771   1.5824090  )
       207        O      tau( 207) = (   0.5134106   0.6764784   1.7758121  )
       208        O      tau( 208) = (   0.1836556   0.7783442   1.3761575  )
       209        O      tau( 209) = (   0.8104766   0.3105590   1.6473803  )
       210        O      tau( 210) = (   0.3044033   0.9850075   1.3843284  )
       211        O      tau( 211) = (   0.1301504   0.8965179   1.7717389  )
       212        O      tau( 212) = (   0.3197141   0.1653364   1.2298596  )
       213        O      tau( 213) = (   0.4699233   0.1934200   1.4196372  )
       214        O      tau( 214) = (   0.2809558   0.8612246   1.3097159  )
       215        O      tau( 215) = (   0.4264163   0.2824703   1.8051299  )
       216        O      tau( 216) = (   0.6599679   0.6539216   1.5790006  )
       217        O      tau( 217) = (   0.7349642   0.9291111   1.6364595  )
       218        O      tau( 218) = (   0.0099961   0.4612132   1.4800917  )
       219        O      tau( 219) = (   0.5892025   0.1978638   1.5290320  )
       220        O      tau( 220) = (   0.0485841   0.8646896   1.2765110  )
       221        O      tau( 221) = (   0.9732948   0.8322736   1.3845405  )
       222        O      tau( 222) = (   0.4005127   0.1467648   1.7001924  )
       223        O      tau( 223) = (   0.8561165   0.3880932   1.3551362  )
       224        O      tau( 224) = (   0.1908703   0.7320545   1.6493092  )
       225        O      tau( 225) = (   0.5316561   0.3624401   1.5720686  )
       226        O      tau( 226) = (   0.6407674   0.0341441   1.3503554  )
       227        O      tau( 227) = (   0.2507360   0.3493753   1.4464087  )
       228        O      tau( 228) = (   0.5138994   0.8709061   1.3834646  )
       229        O      tau( 229) = (   0.9079300   0.5013233   1.4088368  )
       230        O      tau( 230) = (   0.4395504   0.1937154   1.2966161  )
       231        O      tau( 231) = (   0.2308999   0.6103161   1.2990312  )
       232        O      tau( 232) = (   0.3685013   0.9700313   1.5258447  )
       233        O      tau( 233) = (   0.8514985   0.9494698   1.6877232  )
       234        O      tau( 234) = (   0.0187499   0.4824011   1.7364241  )
       235        O      tau( 235) = (   0.2414021   0.3421124   1.5740169  )
       236        O      tau( 236) = (   0.6097970   0.4413714   1.7163163  )
       237        O      tau( 237) = (   0.4788214   0.4352721   1.7472383  )
       238        O      tau( 238) = (   0.1395403   0.9630524   1.5257738  )
       239        O      tau( 239) = (   0.3787358   0.0784353   1.3203646  )
       240        O      tau( 240) = (   0.5839692   0.9685892   1.4551464  )
       241        O      tau( 241) = (   0.9110607   0.6557788   1.2003494  )
       242        O      tau( 242) = (   0.0686474   0.1043740   1.8437037  )
       243        O      tau( 243) = (   0.1460976   0.3999842   1.5060950  )
       244        O      tau( 244) = (   0.4166165   0.3782170   1.6358330  )
       245        O      tau( 245) = (   0.0075933   0.9084354   1.7265037  )
       246        O      tau( 246) = (   0.8482460   0.9888286   1.2074661  )
       247        O      tau( 247) = (   0.6787187   0.3475581   1.3906861  )
       248        O      tau( 248) = (   0.2793975   0.6318760   1.8700688  )
       249        O      tau( 249) = (   0.1753735   0.9662414   1.3957977  )
       250        O      tau( 250) = (   0.0079684   0.6039592   1.4520956  )
       251        O      tau( 251) = (   0.6799702   0.7916690   1.6137563  )
       252        O      tau( 252) = (   0.8228944   0.4963375   1.2716413  )
       253        O      tau( 253) = (   0.1652982   0.5553089   1.6491463  )
       254        O      tau( 254) = (   0.6527640   0.8346788   1.2935381  )
       255        O      tau( 255) = (   0.0358116   0.1810737   1.6422342  )
       256        O      tau( 256) = (   0.5638762   0.0484964   1.7892635  )
       257        O      tau( 257) = (   0.7314789   0.9670683   1.4359075  )
       258        O      tau( 258) = (   0.2559548   0.8899428   1.4535926  )
       259        O      tau( 259) = (   0.7774448   0.5773609   1.5598674  )
       260        O      tau( 260) = (   0.0868638   0.6515873   1.6288983  )
       261        O      tau( 261) = (   0.2614827   0.9212168   1.7891965  )
       262        O      tau( 262) = (   0.1954831   0.1735609   1.8664394  )
       263        O      tau( 263) = (   0.9906684   0.7948073   1.8435173  )
       264        O      tau( 264) = (   0.4575167   0.9955248   1.4051103  )
       265        O      tau( 265) = (   0.7735858   0.2011661   1.2118609  )
       266        O      tau( 266) = (   0.8814090   0.9281431   1.4499689  )
       267        O      tau( 267) = (   0.4072071   0.9256292   1.2771435  )
       268        O      tau( 268) = (   0.8399764   0.8937974   1.5751596  )
       269        O      tau( 269) = (   0.9802476   0.7272430   1.4739436  )
       270        O      tau( 270) = (   0.4029974   0.6353892   1.4077172  )
       271        O      tau( 271) = (   0.5236271   0.0940762   1.6637713  )
       272        O      tau( 272) = (   0.2291142   0.8566340   1.6031926  )
       273        O      tau( 273) = (   0.1369597   0.1529802   1.7410824  )
       274        O      tau( 274) = (   0.8956842   0.4684356   1.7728116  )
       275        O      tau( 275) = (   0.0304714   0.3296381   1.4668483  )
       276        O      tau( 276) = (   0.9261533   0.1126670   1.5937994  )
       277        O      tau( 277) = (   0.3196110   0.7473434   1.6269653  )
       278        O      tau( 278) = (   0.2346612   0.4755155   1.3381933  )
       279        O      tau( 279) = (   0.0309321   0.9618656   1.4299785  )
       280        O      tau( 280) = (   0.1026240   0.4047238   1.3770124  )
       281        O      tau( 281) = (   0.0996948   0.0720356   1.4419196  )
       282        O      tau( 282) = (   0.9796419   0.7336502   1.2951357  )
       283        O      tau( 283) = (   0.4798587   0.2721799   1.6719849  )
       284        O      tau( 284) = (   0.1447462   0.5042309   1.7791641  )
       285        O      tau( 285) = (   0.6584207   0.0850578   1.4744274  )
       286        O      tau( 286) = (   0.8447302   0.2856675   1.7867899  )
       287        O      tau( 287) = (   0.9236456   0.3532967   1.8933803  )
       288        O      tau( 288) = (   0.7131244   0.4260542   1.2089447  )
       289        O      tau( 289) = (   0.1815374   0.0351118   1.8104616  )
       290        O      tau( 290) = (   0.0329975   0.6097415   1.2681351  )
       291        O      tau( 291) = (   0.8998275   0.8951096   1.8045433  )
       292        O      tau( 292) = (   0.3016404   0.4593341   1.2337882  )
       293        O      tau( 293) = (   0.2631331   0.5633327   1.7490475  )
       294        O      tau( 294) = (   0.7023044   0.1539457   1.5910141  )
       295        O      tau( 295) = (   0.5450848   0.1349270   1.3303906  )
       296        O      tau( 296) = (   0.1632620   0.2443342   1.6379519  )
       297        O      tau( 297) = (   0.1916640   0.3894955   1.2601897  )
       298        O      tau( 298) = (   0.0615898   0.0043928   1.2718305  )
       299        O      tau( 299) = (   0.3967139   0.3875856   1.8762703  )
       300        O      tau( 300) = (   0.4846187   0.5410669   1.3666698  )
       301        O      tau( 301) = (   0.8186424   0.0168112   1.5820830  )
       302        O      tau( 302) = (   0.5974300   0.5762403   1.7036424  )
       303        O      tau( 303) = (   0.4323575   0.7667648   1.3386386  )
       304        O      tau( 304) = (   0.7719883   0.9374236   1.8028857  )
       305        O      tau( 305) = (   0.7672182   0.1900179   1.6976508  )
       306        O      tau( 306) = (   0.8994379   0.0650389   1.4672678  )
       307        O      tau( 307) = (   0.4462121   0.7426137   1.4731770  )
       308        O      tau( 308) = (   0.9211726   0.3961581   1.6533343  )
       309        O      tau( 309) = (   0.2420202   0.2200105   1.5251544  )
       310        O      tau( 310) = (   0.8842963   0.6436934   1.4589679  )
       311        O      tau( 311) = (   0.6482991   0.6785877   1.2330670  )
       312        O      tau( 312) = (   0.4832983   0.6325017   1.6039613  )
       313        O      tau( 313) = (   0.7361349   0.0571749   1.8732737  )
       314        O      tau( 314) = (   0.6649925   0.8590630   1.7336776  )
       315        O      tau( 315) = (   0.9130296   0.2721061   1.4159943  )
       316        O      tau( 316) = (   0.6511009   0.5989696   1.3506902  )
       317        O      tau( 317) = (   0.8131240   0.0898692   1.2825970  )
       318        O      tau( 318) = (   0.6524595   0.1336951   1.7108949  )
       319        O      tau( 319) = (   0.6784211   0.5695802   1.4690337  )
       320        O      tau( 320) = (   0.9018920   0.2183548   1.6834522  )
       321        O      tau( 321) = (   0.9678130   0.0358255   1.7940055  )
       322        O      tau( 322) = (   0.8368182   0.5391156   1.6776043  )
       323        O      tau( 323) = (   0.7668768   0.6856661   1.8697035  )
       324        O      tau( 324) = (   0.1531671   0.9301796   1.8945654  )
       325        O      tau( 325) = (   0.2178402   0.7542098   1.5177838  )
       326        O      tau( 326) = (   0.3614324   0.0782581   1.4600024  )
       327        O      tau( 327) = (   0.4053368   0.0766386   1.5793453  )
       328        O      tau( 328) = (   0.3320739   0.8564650   1.8828345  )
       329        O      tau( 329) = (   0.0914304   0.8126101   1.4681485  )
       330        O      tau( 330) = (   0.2416337   0.7445048   1.2588964  )
       331        O      tau( 331) = (   0.8232583   0.9617889   1.3373563  )
       332        O      tau( 332) = (   0.0224173   0.1103921   1.3331986  )
       333        O      tau( 333) = (   0.0827261   0.7743688   1.7158336  )
       334        O      tau( 334) = (   0.3058372   0.3697607   1.3216954  )
       335        O      tau( 335) = (   0.6940744   0.4843818   1.3763524  )
       336        O      tau( 336) = (   0.0505520   0.3569640   1.2588409  )
       337        O      tau( 337) = (   0.6956442   0.5556100   1.2255199  )
       338        O      tau( 338) = (   0.9205918   0.8444316   1.2442634  )
       339        Al     tau( 339) = (   0.9474166   0.9984982   1.4171699  )
       340        Al     tau( 340) = (   0.7317137   0.2651324   1.2660316  )
       341        C      tau( 341) = (   0.5214378   0.4015461   1.0876580  )
       342        C      tau( 342) = (   0.4479569   0.3909766   1.0747101  )
       343        C      tau( 343) = (   0.5653175   0.3422400   1.0998956  )
       344        C      tau( 344) = (   0.4205128   0.3214128   1.0743960  )
       345        C      tau( 345) = (   0.5488767   0.4711092   1.0879713  )
       346        C      tau( 346) = (   0.4040833   0.4502831   1.0624682  )
       347        C      tau( 347) = (   0.5371518   0.2734980   1.0993798  )
       348        C      tau( 348) = (   0.4648892   0.2631047   1.0866573  )
       349        C      tau( 349) = (   0.5045065   0.5294176   1.0757056  )
       350        C      tau( 350) = (   0.4322510   0.5190244   1.0629736  )
       351        H      tau( 351) = (   0.6219558   0.3491057   1.1099542  )
       352        H      tau( 352) = (   0.3641909   0.3120316   1.0645638  )
       353        H      tau( 353) = (   0.6051969   0.4804959   1.0978081  )
       354        H      tau( 354) = (   0.3474366   0.4434151   1.0523973  )
       355        H      tau( 355) = (   0.5716658   0.2280845   1.1089247  )
       356        H      tau( 356) = (   0.4429953   0.2095720   1.0862619  )
       357        H      tau( 357) = (   0.5264020   0.5829447   1.0760963  )
       358        H      tau( 358) = (   0.3977363   0.5644431   1.0534282  )

     number of k points=     1  Gaussian smearing, width (Ry)=  0.0100
                       cart. coord. in units 2pi/alat
        k(    1) = (   0.0000000   0.0000000   0.0000000), wk =   2.0000000

     Dense  grid: 15943719 G-vectors     FFT dimensions: ( 216, 216, 675)

     Smooth grid: 13361281 G-vectors     FFT dimensions: ( 216, 216, 625)

     Estimated max dynamical RAM per process >       4.14 GB

     Estimated total dynamical RAM >     331.13 GB

     Check: negative core charge=   -0.000001

     Initial potential from superposition of free atoms

     starting charge    1871.8703, renormalised to    1872.0000

     negative rho (up, down):  4.350E-02 0.000E+00
     Starting wfcs are 1419 randomized atomic wfcs
     Checking if some PAW data can be deallocated... 

     total cpu time spent up to now is      149.7 secs

     per-process dynamical memory:  1754.1 Mb

     Self-consistent Calculation

     iteration #  1     ecut=    80.00 Ry     beta= 0.10
     Davidson diagonalization with overlap
     ethr =  1.00E-02,  avg # of iterations =  3.0

     negative rho (up, down):  4.555E-02 0.000E+00

     total cpu time spent up to now is      633.3 secs

     total energy              =  -11693.42749382 Ry
     estimated scf accuracy    <     114.85516551 Ry

     iteration #  2     ecut=    80.00 Ry     beta= 0.10
     Davidson diagonalization with overlap
     ethr =  6.14E-03,  avg # of iterations =  1.0

     negative rho (up, down):  4.725E-02 0.000E+00

     total cpu time spent up to now is      918.0 secs

     total energy              =  -11688.04727283 Ry
     estimated scf accuracy    <      92.04367720 Ry

     iteration #  3     ecut=    80.00 Ry     beta= 0.10
     Davidson diagonalization with overlap
     ethr =  4.92E-03,  avg # of iterations =  1.0

     negative rho (up, down):  4.909E-02 0.000E+00

     total cpu time spent up to now is     1202.1 secs

     total energy              =  -11680.33496459 Ry
     estimated scf accuracy    <      59.09264163 Ry

     iteration #  4     ecut=    80.00 Ry     beta= 0.10
     Davidson diagonalization with overlap
     ethr =  3.16E-03,  avg # of iterations =  2.0

     negative rho (up, down):  5.007E-02 0.000E+00

     total cpu time spent up to now is     1520.1 secs

     total energy              =  -11682.67260920 Ry
     estimated scf accuracy    <      61.88518956 Ry

     iteration #  5     ecut=    80.00 Ry     beta= 0.10
     Davidson diagonalization with overlap
     ethr =  3.16E-03,  avg # of iterations =  1.0

     negative rho (up, down):  5.114E-02 0.000E+00

     total cpu time spent up to now is     1804.3 secs

     total energy              =  -11682.28997768 Ry
     estimated scf accuracy    <      29.27038279 Ry

     iteration #  6     ecut=    80.00 Ry     beta= 0.10
     Davidson diagonalization with overlap
     ethr =  1.56E-03,  avg # of iterations =  1.0

     negative rho (up, down):  5.195E-02 0.000E+00

     total cpu time spent up to now is     2088.6 secs

     total energy              =  -11682.28021197 Ry
     estimated scf accuracy    <      22.53569359 Ry

     iteration #  7     ecut=    80.00 Ry     beta= 0.10
     Davidson diagonalization with overlap
     ethr =  1.20E-03,  avg # of iterations =  2.0

     negative rho (up, down):  5.272E-02 0.000E+00

     total cpu time spent up to now is     2407.7 secs

     total energy              =  -11682.31428608 Ry
     estimated scf accuracy    <      31.59494002 Ry

     iteration #  8     ecut=    80.00 Ry     beta= 0.10
     Davidson diagonalization with overlap
     ethr =  1.20E-03,  avg # of iterations =  2.0

     negative rho (up, down):  5.326E-02 0.000E+00

     total cpu time spent up to now is     2725.9 secs

     total energy              =  -11682.04508930 Ry
     estimated scf accuracy    <      33.52170441 Ry

     iteration #  9     ecut=    80.00 Ry     beta= 0.10
     Davidson diagonalization with overlap
     ethr =  1.20E-03,  avg # of iterations =  1.0

     negative rho (up, down):  5.381E-02 0.000E+00

     total cpu time spent up to now is     3011.0 secs

     total energy              =  -11682.12850581 Ry
     estimated scf accuracy    <      15.21531974 Ry

     iteration # 10     ecut=    80.00 Ry     beta= 0.10
     Davidson diagonalization with overlap
     ethr =  8.13E-04,  avg # of iterations =  2.0

     negative rho (up, down):  5.427E-02 0.000E+00

     total cpu time spent up to now is     3329.9 secs

     total energy              =  -11682.09880428 Ry
     estimated scf accuracy    <      13.48225711 Ry

     iteration # 11     ecut=    80.00 Ry     beta= 0.10
     Davidson diagonalization with overlap
     ethr =  7.20E-04,  avg # of iterations =  3.0

     negative rho (up, down):  5.466E-02 0.000E+00

     total cpu time spent up to now is     3650.4 secs

     total energy              =  -11682.23643221 Ry
     estimated scf accuracy    <       6.01905686 Ry

     iteration # 12     ecut=    80.00 Ry     beta= 0.10
     Davidson diagonalization with overlap
     ethr =  3.22E-04,  avg # of iterations = 17.0

     negative rho (up, down):  5.496E-02 0.000E+00

     total cpu time spent up to now is     4060.1 secs

     total energy              =  -11682.17891884 Ry
     estimated scf accuracy    <       3.99235946 Ry

     iteration # 13     ecut=    80.00 Ry     beta= 0.10
     Davidson diagonalization with overlap
     ethr =  2.13E-04,  avg # of iterations =  2.0

     negative rho (up, down):  5.533E-02 0.000E+00

     total cpu time spent up to now is     4381.1 secs

     total energy              =  -11682.17618916 Ry
     estimated scf accuracy    <       4.42240433 Ry

     iteration # 14     ecut=    80.00 Ry     beta= 0.10
     Davidson diagonalization with overlap
     ethr =  2.13E-04,  avg # of iterations =  1.0

     negative rho (up, down):  5.579E-02 0.000E+00

     total cpu time spent up to now is     4665.8 secs

     total energy              =  -11682.08699039 Ry
     estimated scf accuracy    <       3.34221550 Ry

     iteration # 15     ecut=    80.00 Ry     beta= 0.10
     Davidson diagonalization with overlap
     ethr =  1.79E-04,  avg # of iterations =  1.0

     negative rho (up, down):  5.588E-02 0.000E+00

     total cpu time spent up to now is     4951.8 secs

     total energy              =  -11681.92205403 Ry
     estimated scf accuracy    <      14.97040051 Ry

     iteration # 16     ecut=    80.00 Ry     beta= 0.10
     Davidson diagonalization with overlap
     ethr =  1.79E-04,  avg # of iterations =  2.0

     negative rho (up, down):  5.626E-02 0.000E+00

     total cpu time spent up to now is     5271.6 secs

     total energy              =  -11682.06126438 Ry
     estimated scf accuracy    <       5.86255665 Ry

     iteration # 17     ecut=    80.00 Ry     beta= 0.10
     Davidson diagonalization with overlap
     ethr =  1.79E-04,  avg # of iterations =  1.0

     negative rho (up, down):  5.676E-02 0.000E+00

     total cpu time spent up to now is     5557.2 secs

     total energy              =  -11682.00748800 Ry
     estimated scf accuracy    <       4.71253878 Ry

     iteration # 18     ecut=    80.00 Ry     beta= 0.10
     Davidson diagonalization with overlap
     ethr =  1.79E-04,  avg # of iterations =  1.0

     negative rho (up, down):  5.674E-02 0.000E+00

     total cpu time spent up to now is     5842.6 secs

     total energy              =  -11681.92008499 Ry
     estimated scf accuracy    <      12.93044544 Ry

     iteration # 19     ecut=    80.00 Ry     beta= 0.10
     Davidson diagonalization with overlap
     ethr =  1.79E-04,  avg # of iterations =  2.0

     negative rho (up, down):  5.687E-02 0.000E+00

     total cpu time spent up to now is     6161.1 secs

     total energy              =  -11682.06322788 Ry
     estimated scf accuracy    <       3.99556035 Ry

     iteration # 20     ecut=    80.00 Ry     beta= 0.10
     Davidson diagonalization with overlap
     ethr =  1.79E-04,  avg # of iterations =  1.0

     negative rho (up, down):  5.741E-02 0.000E+00

     total cpu time spent up to now is     6446.6 secs

     total energy              =  -11682.02972099 Ry
     estimated scf accuracy    <       3.72833101 Ry

     iteration # 21     ecut=    80.00 Ry     beta= 0.10
     Davidson diagonalization with overlap
     ethr =  1.79E-04,  avg # of iterations =  1.0

     negative rho (up, down):  5.779E-02 0.000E+00

     total cpu time spent up to now is     6732.0 secs

     total energy              =  -11682.01533025 Ry
     estimated scf accuracy    <       2.70283514 Ry

     iteration # 22     ecut=    80.00 Ry     beta= 0.10
     Davidson diagonalization with overlap
     ethr =  1.44E-04,  avg # of iterations =  1.0

     negative rho (up, down):  5.755E-02 0.000E+00

     total cpu time spent up to now is     7016.5 secs

     total energy              =  -11682.00554050 Ry
     estimated scf accuracy    <       3.57800554 Ry

     iteration # 23     ecut=    80.00 Ry     beta= 0.10
     Davidson diagonalization with overlap
     ethr =  1.44E-04,  avg # of iterations =  1.0

     negative rho (up, down):  5.774E-02 0.000E+00

     total cpu time spent up to now is     7301.6 secs

     total energy              =  -11682.03056106 Ry
     estimated scf accuracy    <       4.20437820 Ry

     iteration # 24     ecut=    80.00 Ry     beta= 0.10
     Davidson diagonalization with overlap
     ethr =  1.44E-04,  avg # of iterations =  1.0

     negative rho (up, down):  5.791E-02 0.000E+00

     total cpu time spent up to now is     7587.4 secs

     total energy              =  -11682.01371462 Ry
     estimated scf accuracy    <       4.90002073 Ry

     iteration # 25     ecut=    80.00 Ry     beta= 0.10
     Davidson diagonalization with overlap
     ethr =  1.44E-04,  avg # of iterations =  1.0

     negative rho (up, down):  5.825E-02 0.000E+00

     total cpu time spent up to now is     7872.8 secs

     total energy              =  -11682.04659646 Ry
     estimated scf accuracy    <       2.06580969 Ry

     iteration # 26     ecut=    80.00 Ry     beta= 0.10
     Davidson diagonalization with overlap
     ethr =  1.10E-04,  avg # of iterations =  1.0

     negative rho (up, down):  5.859E-02 0.000E+00

     total cpu time spent up to now is     8157.0 secs

     total energy              =  -11682.01611158 Ry
     estimated scf accuracy    <       3.77722838 Ry

     iteration # 27     ecut=    80.00 Ry     beta= 0.10
     Davidson diagonalization with overlap
     ethr =  1.10E-04,  avg # of iterations =  1.0

     negative rho (up, down):  5.879E-02 0.000E+00

     total cpu time spent up to now is     8441.3 secs

     total energy              =  -11682.02753670 Ry
     estimated scf accuracy    <       2.76890906 Ry

     iteration # 28     ecut=    80.00 Ry     beta= 0.10
     Davidson diagonalization with overlap
     ethr =  1.10E-04,  avg # of iterations =  1.0

     negative rho (up, down):  5.877E-02 0.000E+00

     total cpu time spent up to now is     8726.1 secs

     total energy              =  -11682.03275639 Ry
     estimated scf accuracy    <       1.40934778 Ry

     iteration # 29     ecut=    80.00 Ry     beta= 0.10
     Davidson diagonalization with overlap
     ethr =  7.53E-05,  avg # of iterations =  1.0

     negative rho (up, down):  5.870E-02 0.000E+00

     total cpu time spent up to now is     9012.9 secs

     total energy              =  -11681.99459754 Ry
     estimated scf accuracy    <       4.81807578 Ry

     iteration # 30     ecut=    80.00 Ry     beta= 0.10
     Davidson diagonalization with overlap
     ethr =  7.53E-05,  avg # of iterations =  1.0

     negative rho (up, down):  5.920E-02 0.000E+00

     total cpu time spent up to now is     9299.3 secs

     total energy              =  -11682.03323313 Ry
     estimated scf accuracy    <       4.06793331 Ry

     iteration # 31     ecut=    80.00 Ry     beta= 0.10
     Davidson diagonalization with overlap
     ethr =  7.53E-05,  avg # of iterations =  1.0

     negative rho (up, down):  5.937E-02 0.000E+00

     total cpu time spent up to now is     9584.4 secs

     total energy              =  -11682.04822390 Ry
     estimated scf accuracy    <       0.89618304 Ry

     iteration # 32     ecut=    80.00 Ry     beta= 0.10
     Davidson diagonalization with overlap
     ethr =  4.79E-05,  avg # of iterations =  1.0

     negative rho (up, down):  5.936E-02 0.000E+00

     total cpu time spent up to now is     9869.7 secs

     total energy              =  -11682.04925017 Ry
     estimated scf accuracy    <       0.37003715 Ry

     iteration # 33     ecut=    80.00 Ry     beta= 0.10
     Davidson diagonalization with overlap
     c_bands:  1 eigenvalues not converged
     ethr =  1.98E-05,  avg # of iterations = 20.0

     negative rho (up, down):  5.936E-02 0.000E+00

     total cpu time spent up to now is    10319.0 secs

     total energy              =  -11682.03956650 Ry
     estimated scf accuracy    <       1.82522970 Ry

     iteration # 34     ecut=    80.00 Ry     beta= 0.10
     Davidson diagonalization with overlap
     ethr =  1.98E-05,  avg # of iterations =  1.0

     negative rho (up, down):  5.959E-02 0.000E+00

     total cpu time spent up to now is    10604.1 secs

     total energy              =  -11682.05455583 Ry
     estimated scf accuracy    <       0.37701621 Ry

     iteration # 35     ecut=    80.00 Ry     beta= 0.10
     Davidson diagonalization with overlap
     ethr =  1.98E-05,  avg # of iterations =  1.0

     negative rho (up, down):  5.950E-02 0.000E+00

     total cpu time spent up to now is    10888.6 secs

     total energy              =  -11682.04879431 Ry
     estimated scf accuracy    <       1.22305324 Ry

     iteration # 36     ecut=    80.00 Ry     beta= 0.10
     Davidson diagonalization with overlap
     ethr =  1.98E-05,  avg # of iterations =  1.0

     negative rho (up, down):  5.969E-02 0.000E+00

     total cpu time spent up to now is    11172.6 secs

     total energy              =  -11682.05675888 Ry
     estimated scf accuracy    <       0.37538219 Ry

     iteration # 37     ecut=    80.00 Ry     beta= 0.10
     Davidson diagonalization with overlap
     ethr =  1.98E-05,  avg # of iterations =  1.0

     negative rho (up, down):  5.966E-02 0.000E+00

     total cpu time spent up to now is    11457.5 secs

     total energy              =  -11682.05657908 Ry
     estimated scf accuracy    <       0.11442468 Ry

     iteration # 38     ecut=    80.00 Ry     beta= 0.10
     Davidson diagonalization with overlap
     ethr =  6.11E-06,  avg # of iterations =  1.0

     negative rho (up, down):  5.977E-02 0.000E+00

     total cpu time spent up to now is    11740.9 secs

     total energy              =  -11682.05299725 Ry
     estimated scf accuracy    <       0.82267395 Ry

     iteration # 39     ecut=    80.00 Ry     beta= 0.10
     Davidson diagonalization with overlap
     ethr =  6.11E-06,  avg # of iterations =  1.0

     negative rho (up, down):  5.977E-02 0.000E+00

     total cpu time spent up to now is    12026.2 secs

     total energy              =  -11682.05347465 Ry
     estimated scf accuracy    <       0.33949921 Ry

     iteration # 40     ecut=    80.00 Ry     beta= 0.10
     Davidson diagonalization with overlap
     ethr =  6.11E-06,  avg # of iterations =  1.0

     negative rho (up, down):  5.979E-02 0.000E+00

     total cpu time spent up to now is    12310.2 secs

     total energy              =  -11682.04257615 Ry
     estimated scf accuracy    <       2.96509743 Ry

     iteration # 41     ecut=    80.00 Ry     beta= 0.10
     Davidson diagonalization with overlap
     ethr =  6.11E-06,  avg # of iterations =  1.0

     negative rho (up, down):  5.986E-02 0.000E+00

     total cpu time spent up to now is    12594.8 secs

     total energy              =  -11682.05872266 Ry
     estimated scf accuracy    <       0.10227983 Ry

     iteration # 42     ecut=    80.00 Ry     beta= 0.10
     Davidson diagonalization with overlap
     ethr =  5.46E-06,  avg # of iterations =  1.0

     negative rho (up, down):  5.989E-02 0.000E+00

     total cpu time spent up to now is    12879.8 secs

     total energy              =  -11682.05870441 Ry
     estimated scf accuracy    <       0.12018664 Ry

     iteration # 43     ecut=    80.00 Ry     beta= 0.10
     Davidson diagonalization with overlap
     ethr =  5.46E-06,  avg # of iterations =  1.0

     negative rho (up, down):  5.991E-02 0.000E+00

     total cpu time spent up to now is    13164.5 secs

     total energy              =  -11682.05940447 Ry
     estimated scf accuracy    <       0.04738688 Ry

     iteration # 44     ecut=    80.00 Ry     beta= 0.10
     Davidson diagonalization with overlap
     ethr =  2.53E-06,  avg # of iterations =  1.0

     negative rho (up, down):  6.001E-02 0.000E+00

     total cpu time spent up to now is    13448.8 secs

     total energy              =  -11682.05990567 Ry
     estimated scf accuracy    <       0.07671416 Ry

     iteration # 45     ecut=    80.00 Ry     beta= 0.10
     Davidson diagonalization with overlap
     ethr =  2.53E-06,  avg # of iterations =  1.0

     negative rho (up, down):  5.999E-02 0.000E+00

     total cpu time spent up to now is    13733.1 secs

     total energy              =  -11682.05899536 Ry
     estimated scf accuracy    <       0.05674086 Ry

     iteration # 46     ecut=    80.00 Ry     beta= 0.10
     Davidson diagonalization with overlap
     ethr =  2.53E-06,  avg # of iterations =  1.0

     negative rho (up, down):  6.001E-02 0.000E+00

     total cpu time spent up to now is    14017.6 secs

     total energy              =  -11682.05734481 Ry
     estimated scf accuracy    <       0.40042812 Ry

     iteration # 47     ecut=    80.00 Ry     beta= 0.10
     Davidson diagonalization with overlap
     ethr =  2.53E-06,  avg # of iterations =  1.0

     negative rho (up, down):  6.003E-02 0.000E+00

     total cpu time spent up to now is    14302.0 secs

     total energy              =  -11682.05964557 Ry
     estimated scf accuracy    <       0.12454480 Ry

     iteration # 48     ecut=    80.00 Ry     beta= 0.10
     Davidson diagonalization with overlap
     ethr =  2.53E-06,  avg # of iterations =  1.0

     negative rho (up, down):  6.008E-02 0.000E+00

     total cpu time spent up to now is    14585.8 secs

     total energy              =  -11682.06031114 Ry
     estimated scf accuracy    <       0.04585031 Ry

     iteration # 49     ecut=    80.00 Ry     beta= 0.10
     Davidson diagonalization with overlap
     ethr =  2.45E-06,  avg # of iterations =  1.0

     negative rho (up, down):  6.015E-02 0.000E+00

     total cpu time spent up to now is    14870.4 secs

     total energy              =  -11682.06058432 Ry
     estimated scf accuracy    <       0.04085647 Ry

     iteration # 50     ecut=    80.00 Ry     beta= 0.10
     Davidson diagonalization with overlap
     ethr =  2.18E-06,  avg # of iterations =  1.0

     negative rho (up, down):  6.013E-02 0.000E+00

     total cpu time spent up to now is    15154.4 secs

     total energy              =  -11682.05874197 Ry
     estimated scf accuracy    <       0.32430684 Ry

     iteration # 51     ecut=    80.00 Ry     beta= 0.10
     Davidson diagonalization with overlap
     ethr =  2.18E-06,  avg # of iterations =  1.0

     negative rho (up, down):  6.015E-02 0.000E+00

     total cpu time spent up to now is    15439.2 secs

     total energy              =  -11682.05992333 Ry
     estimated scf accuracy    <       0.10488477 Ry

     iteration # 52     ecut=    80.00 Ry     beta= 0.10
     Davidson diagonalization with overlap
     ethr =  2.18E-06,  avg # of iterations =  1.0

     negative rho (up, down):  6.015E-02 0.000E+00

     total cpu time spent up to now is    15723.5 secs

     total energy              =  -11682.06022716 Ry
     estimated scf accuracy    <       0.07208191 Ry

     iteration # 53     ecut=    80.00 Ry     beta= 0.10
     Davidson diagonalization with overlap
     ethr =  2.18E-06,  avg # of iterations =  1.0

     negative rho (up, down):  6.017E-02 0.000E+00

     total cpu time spent up to now is    16008.1 secs

     total energy              =  -11682.06074218 Ry
     estimated scf accuracy    <       0.03167899 Ry

     iteration # 54     ecut=    80.00 Ry     beta= 0.10
     Davidson diagonalization with overlap
     ethr =  1.69E-06,  avg # of iterations =  1.0

     negative rho (up, down):  6.024E-02 0.000E+00

     total cpu time spent up to now is    16292.2 secs

     total energy              =  -11682.06124162 Ry
     estimated scf accuracy    <       0.02634136 Ry

     iteration # 55     ecut=    80.00 Ry     beta= 0.10
     Davidson diagonalization with overlap
     ethr =  1.41E-06,  avg # of iterations =  1.0

     negative rho (up, down):  6.028E-02 0.000E+00

     total cpu time spent up to now is    16577.2 secs

     total energy              =  -11682.06126167 Ry
     estimated scf accuracy    <       0.01799870 Ry

     iteration # 56     ecut=    80.00 Ry     beta= 0.10
     Davidson diagonalization with overlap
     ethr =  9.61E-07,  avg # of iterations =  1.0

     negative rho (up, down):  6.024E-02 0.000E+00

     total cpu time spent up to now is    16861.9 secs

     total energy              =  -11682.06032860 Ry
     estimated scf accuracy    <       0.10146093 Ry

     iteration # 57     ecut=    80.00 Ry     beta= 0.10
     Davidson diagonalization with overlap
     ethr =  9.61E-07,  avg # of iterations =  1.0

     negative rho (up, down):  6.024E-02 0.000E+00

     total cpu time spent up to now is    17145.9 secs

     total energy              =  -11682.06060081 Ry
     estimated scf accuracy    <       0.12083911 Ry

     iteration # 58     ecut=    80.00 Ry     beta= 0.10
     Davidson diagonalization with overlap
     ethr =  9.61E-07,  avg # of iterations =  1.0

     negative rho (up, down):  6.027E-02 0.000E+00

     total cpu time spent up to now is    17429.8 secs

     total energy              =  -11682.06126097 Ry
     estimated scf accuracy    <       0.02919933 Ry

     iteration # 59     ecut=    80.00 Ry     beta= 0.10
     Davidson diagonalization with overlap
     ethr =  9.61E-07,  avg # of iterations =  1.0

     negative rho (up, down):  6.035E-02 0.000E+00

     total cpu time spent up to now is    17714.8 secs

     total energy              =  -11682.06169287 Ry
     estimated scf accuracy    <       0.01941393 Ry

     iteration # 60     ecut=    80.00 Ry     beta= 0.10
     Davidson diagonalization with overlap
     ethr =  9.61E-07,  avg # of iterations =  1.0

     negative rho (up, down):  6.036E-02 0.000E+00

     total cpu time spent up to now is    17999.2 secs

     total energy              =  -11682.06118356 Ry
     estimated scf accuracy    <       0.09160956 Ry

     iteration # 61     ecut=    80.00 Ry     beta= 0.10
     Davidson diagonalization with overlap
     ethr =  9.61E-07,  avg # of iterations =  1.0

     negative rho (up, down):  6.038E-02 0.000E+00

     total cpu time spent up to now is    18283.7 secs

     total energy              =  -11682.06139625 Ry
     estimated scf accuracy    <       0.05023201 Ry

     iteration # 62     ecut=    80.00 Ry     beta= 0.10
     Davidson diagonalization with overlap
     ethr =  9.61E-07,  avg # of iterations =  1.0

     negative rho (up, down):  6.033E-02 0.000E+00

     total cpu time spent up to now is    18568.9 secs

     total energy              =  -11682.06117524 Ry
     estimated scf accuracy    <       0.03865719 Ry

     iteration # 63     ecut=    80.00 Ry     beta= 0.10
     Davidson diagonalization with overlap
     ethr =  9.61E-07,  avg # of iterations =  1.0

     negative rho (up, down):  6.034E-02 0.000E+00

     total cpu time spent up to now is    18853.7 secs

     total energy              =  -11682.06138102 Ry
     estimated scf accuracy    <       0.03800078 Ry

     iteration # 64     ecut=    80.00 Ry     beta= 0.10
     Davidson diagonalization with overlap
     ethr =  9.61E-07,  avg # of iterations =  1.0

     negative rho (up, down):  6.040E-02 0.000E+00

     total cpu time spent up to now is    19145.2 secs

     total energy              =  -11682.06168790 Ry
     estimated scf accuracy    <       0.03253241 Ry

     iteration # 65     ecut=    80.00 Ry     beta= 0.10
     Davidson diagonalization with overlap
     ethr =  9.61E-07,  avg # of iterations =  1.0

     negative rho (up, down):  6.044E-02 0.000E+00

     total cpu time spent up to now is    19428.8 secs

     total energy              =  -11682.06194412 Ry
     estimated scf accuracy    <       0.01399298 Ry

     iteration # 66     ecut=    80.00 Ry     beta= 0.10
     Davidson diagonalization with overlap
     ethr =  7.47E-07,  avg # of iterations =  1.0

     negative rho (up, down):  6.042E-02 0.000E+00

     total cpu time spent up to now is    19713.2 secs

     total energy              =  -11682.06179419 Ry
     estimated scf accuracy    <       0.01864802 Ry

     iteration # 67     ecut=    80.00 Ry     beta= 0.10
     Davidson diagonalization with overlap
     ethr =  7.47E-07,  avg # of iterations =  1.0

     negative rho (up, down):  6.041E-02 0.000E+00

     total cpu time spent up to now is    19997.8 secs

     total energy              =  -11682.06154798 Ry
     estimated scf accuracy    <       0.05900400 Ry

     iteration # 68     ecut=    80.00 Ry     beta= 0.10
     Davidson diagonalization with overlap
     ethr =  7.47E-07,  avg # of iterations =  1.0

     negative rho (up, down):  6.042E-02 0.000E+00

     total cpu time spent up to now is    20282.5 secs

     total energy              =  -11682.06182298 Ry
     estimated scf accuracy    <       0.02316680 Ry

     iteration # 69     ecut=    80.00 Ry     beta= 0.10
     Davidson diagonalization with overlap
     ethr =  7.47E-07,  avg # of iterations =  1.0

     negative rho (up, down):  6.047E-02 0.000E+00

     total cpu time spent up to now is    20566.9 secs

     total energy              =  -11682.06211597 Ry
     estimated scf accuracy    <       0.00811151 Ry

     iteration # 70     ecut=    80.00 Ry     beta= 0.10
     Davidson diagonalization with overlap
     ethr =  4.33E-07,  avg # of iterations =  1.0

     negative rho (up, down):  6.048E-02 0.000E+00

     total cpu time spent up to now is    20850.9 secs

     total energy              =  -11682.06205429 Ry
     estimated scf accuracy    <       0.01504990 Ry

     iteration # 71     ecut=    80.00 Ry     beta= 0.10
     Davidson diagonalization with overlap
     ethr =  4.33E-07,  avg # of iterations =  1.0

     negative rho (up, down):  6.049E-02 0.000E+00

     total cpu time spent up to now is    21135.9 secs

     total energy              =  -11682.06207141 Ry
     estimated scf accuracy    <       0.01785563 Ry

     iteration # 72     ecut=    80.00 Ry     beta= 0.10
     Davidson diagonalization with overlap
     ethr =  4.33E-07,  avg # of iterations =  1.0

     negative rho (up, down):  6.047E-02 0.000E+00

     total cpu time spent up to now is    21420.8 secs

     total energy              =  -11682.06198360 Ry
     estimated scf accuracy    <       0.01102997 Ry

     iteration # 73     ecut=    80.00 Ry     beta= 0.10
     Davidson diagonalization with overlap
     ethr =  4.33E-07,  avg # of iterations =  1.0

     negative rho (up, down):  6.048E-02 0.000E+00

     total cpu time spent up to now is    21706.3 secs

     total energy              =  -11682.06195897 Ry
     estimated scf accuracy    <       0.02402291 Ry

     iteration # 74     ecut=    80.00 Ry     beta= 0.10
     Davidson diagonalization with overlap
     ethr =  4.33E-07,  avg # of iterations =  1.0

     negative rho (up, down):  6.052E-02 0.000E+00

     total cpu time spent up to now is    21991.3 secs

     total energy              =  -11682.06217390 Ry
     estimated scf accuracy    <       0.01196507 Ry

     iteration # 75     ecut=    80.00 Ry     beta= 0.10
     Davidson diagonalization with overlap
     ethr =  4.33E-07,  avg # of iterations =  1.0

     negative rho (up, down):  6.055E-02 0.000E+00

     total cpu time spent up to now is    22287.8 secs

     total energy              =  -11682.06226388 Ry
     estimated scf accuracy    <       0.00855626 Ry

     iteration # 76     ecut=    80.00 Ry     beta= 0.10
     Davidson diagonalization with overlap
     ethr =  4.33E-07,  avg # of iterations =  1.0

     negative rho (up, down):  6.055E-02 0.000E+00

     total cpu time spent up to now is    22572.0 secs

     total energy              =  -11682.06223473 Ry
     estimated scf accuracy    <       0.00700202 Ry

     iteration # 77     ecut=    80.00 Ry     beta= 0.10
     Davidson diagonalization with overlap
     ethr =  3.74E-07,  avg # of iterations =  1.0

     negative rho (up, down):  6.053E-02 0.000E+00

     total cpu time spent up to now is    22857.4 secs

     total energy              =  -11682.06205330 Ry
     estimated scf accuracy    <       0.03459025 Ry

     iteration # 78     ecut=    80.00 Ry     beta= 0.10
     Davidson diagonalization with overlap
     ethr =  3.74E-07,  avg # of iterations =  1.0

     negative rho (up, down):  6.053E-02 0.000E+00

     total cpu time spent up to now is    23142.2 secs

     total energy              =  -11682.06211624 Ry
     estimated scf accuracy    <       0.01983701 Ry

     iteration # 79     ecut=    80.00 Ry     beta= 0.10
     Davidson diagonalization with overlap
     ethr =  3.74E-07,  avg # of iterations =  1.0

     negative rho (up, down):  6.056E-02 0.000E+00

     total cpu time spent up to now is    23428.1 secs

     total energy              =  -11682.06231069 Ry
     estimated scf accuracy    <       0.00633771 Ry

     iteration # 80     ecut=    80.00 Ry     beta= 0.10
     Davidson diagonalization with overlap
     ethr =  3.39E-07,  avg # of iterations =  1.0

     negative rho (up, down):  6.058E-02 0.000E+00

     total cpu time spent up to now is    23713.7 secs

     total energy              =  -11682.06234610 Ry
     estimated scf accuracy    <       0.00456720 Ry

     iteration # 81     ecut=    80.00 Ry     beta= 0.10
     Davidson diagonalization with overlap
     ethr =  2.44E-07,  avg # of iterations =  1.0

     negative rho (up, down):  6.058E-02 0.000E+00

     total cpu time spent up to now is    23999.7 secs

     total energy              =  -11682.06235365 Ry
     estimated scf accuracy    <       0.00465586 Ry

     iteration # 82     ecut=    80.00 Ry     beta= 0.10
     Davidson diagonalization with overlap
     ethr =  2.44E-07,  avg # of iterations =  1.0

     negative rho (up, down):  6.058E-02 0.000E+00

     total cpu time spent up to now is    24284.3 secs

     total energy              =  -11682.06234552 Ry
     estimated scf accuracy    <       0.00316378 Ry

     iteration # 83     ecut=    80.00 Ry     beta= 0.10
     Davidson diagonalization with overlap
     ethr =  1.69E-07,  avg # of iterations =  1.0

     negative rho (up, down):  6.058E-02 0.000E+00

     total cpu time spent up to now is    24570.1 secs

     total energy              =  -11682.06227544 Ry
     estimated scf accuracy    <       0.01229614 Ry

     iteration # 84     ecut=    80.00 Ry     beta= 0.10
     Davidson diagonalization with overlap
     ethr =  1.69E-07,  avg # of iterations =  1.0

     negative rho (up, down):  6.060E-02 0.000E+00

     total cpu time spent up to now is    24854.0 secs

     total energy              =  -11682.06235775 Ry
     estimated scf accuracy    <       0.00857700 Ry

     iteration # 85     ecut=    80.00 Ry     beta= 0.10
     Davidson diagonalization with overlap
     ethr =  1.69E-07,  avg # of iterations =  1.0

     negative rho (up, down):  6.061E-02 0.000E+00

     total cpu time spent up to now is    25150.7 secs

     total energy              =  -11682.06242728 Ry
     estimated scf accuracy    <       0.00343259 Ry

     iteration # 86     ecut=    80.00 Ry     beta= 0.10
     Davidson diagonalization with overlap
     ethr =  1.69E-07,  avg # of iterations =  1.0

     negative rho (up, down):  6.062E-02 0.000E+00

     total cpu time spent up to now is    25435.8 secs

     total energy              =  -11682.06244212 Ry
     estimated scf accuracy    <       0.00284719 Ry

     iteration # 87     ecut=    80.00 Ry     beta= 0.10
     Davidson diagonalization with overlap
     ethr =  1.52E-07,  avg # of iterations =  1.0

     negative rho (up, down):  6.062E-02 0.000E+00

     total cpu time spent up to now is    25720.5 secs

     total energy              =  -11682.06240150 Ry
     estimated scf accuracy    <       0.00695583 Ry

     iteration # 88     ecut=    80.00 Ry     beta= 0.10
     Davidson diagonalization with overlap
     ethr =  1.52E-07,  avg # of iterations =  1.0

     negative rho (up, down):  6.061E-02 0.000E+00

     total cpu time spent up to now is    26005.8 secs

     total energy              =  -11682.06236015 Ry
     estimated scf accuracy    <       0.00899424 Ry

     iteration # 89     ecut=    80.00 Ry     beta= 0.10
     Davidson diagonalization with overlap
     ethr =  1.52E-07,  avg # of iterations =  1.0

     negative rho (up, down):  6.063E-02 0.000E+00

     total cpu time spent up to now is    26296.7 secs

     total energy              =  -11682.06242589 Ry
     estimated scf accuracy    <       0.00556479 Ry

     iteration # 90     ecut=    80.00 Ry     beta= 0.10
     Davidson diagonalization with overlap
     ethr =  1.52E-07,  avg # of iterations =  1.0

     negative rho (up, down):  6.064E-02 0.000E+00

     total cpu time spent up to now is    26581.5 secs

     total energy              =  -11682.06246817 Ry
     estimated scf accuracy    <       0.00227895 Ry

     iteration # 91     ecut=    80.00 Ry     beta= 0.10
     Davidson diagonalization with overlap
     ethr =  1.22E-07,  avg # of iterations =  1.0

     negative rho (up, down):  6.064E-02 0.000E+00

     total cpu time spent up to now is    26865.8 secs

     total energy              =  -11682.06247638 Ry
     estimated scf accuracy    <       0.00114463 Ry

     iteration # 92     ecut=    80.00 Ry     beta= 0.10
     Davidson diagonalization with overlap
     ethr =  6.11E-08,  avg # of iterations =  1.0

     negative rho (up, down):  6.065E-02 0.000E+00

     total cpu time spent up to now is    27150.1 secs

     total energy              =  -11682.06248793 Ry
     estimated scf accuracy    <       0.00135523 Ry

     iteration # 93     ecut=    80.00 Ry     beta= 0.10
     Davidson diagonalization with overlap
     ethr =  6.11E-08,  avg # of iterations =  1.0

     negative rho (up, down):  6.065E-02 0.000E+00

     total cpu time spent up to now is    27434.9 secs

     total energy              =  -11682.06247601 Ry
     estimated scf accuracy    <       0.00293714 Ry

     iteration # 94     ecut=    80.00 Ry     beta= 0.10
     Davidson diagonalization with overlap
     ethr =  6.11E-08,  avg # of iterations =  1.0

     negative rho (up, down):  6.065E-02 0.000E+00

     total cpu time spent up to now is    27719.4 secs

     total energy              =  -11682.06248086 Ry
     estimated scf accuracy    <       0.00323566 Ry

     iteration # 95     ecut=    80.00 Ry     beta= 0.10
     Davidson diagonalization with overlap
     ethr =  6.11E-08,  avg # of iterations =  1.0

     negative rho (up, down):  6.066E-02 0.000E+00

     total cpu time spent up to now is    28004.0 secs

     total energy              =  -11682.06250447 Ry
     estimated scf accuracy    <       0.00194032 Ry

     iteration # 96     ecut=    80.00 Ry     beta= 0.10
     Davidson diagonalization with overlap
     ethr =  6.11E-08,  avg # of iterations =  1.0

     negative rho (up, down):  6.067E-02 0.000E+00

     total cpu time spent up to now is    28289.0 secs

     total energy              =  -11682.06251882 Ry
     estimated scf accuracy    <       0.00113982 Ry

     iteration # 97     ecut=    80.00 Ry     beta= 0.10
     Davidson diagonalization with overlap
     ethr =  6.09E-08,  avg # of iterations =  1.0

     negative rho (up, down):  6.068E-02 0.000E+00

     total cpu time spent up to now is    28574.1 secs

     total energy              =  -11682.06251950 Ry
     estimated scf accuracy    <       0.00139718 Ry

     iteration # 98     ecut=    80.00 Ry     beta= 0.10
     Davidson diagonalization with overlap
     ethr =  6.09E-08,  avg # of iterations =  1.0

     negative rho (up, down):  6.067E-02 0.000E+00

     total cpu time spent up to now is    28858.4 secs

     total energy              =  -11682.06249648 Ry
     estimated scf accuracy    <       0.00359423 Ry

     iteration # 99     ecut=    80.00 Ry     beta= 0.10
     Davidson diagonalization with overlap
     ethr =  6.09E-08,  avg # of iterations =  1.0

     negative rho (up, down):  6.068E-02 0.000E+00

     total cpu time spent up to now is    29143.9 secs

     total energy              =  -11682.06250574 Ry
     estimated scf accuracy    <       0.00341306 Ry

     iteration #100     ecut=    80.00 Ry     beta= 0.10
     Davidson diagonalization with overlap
     ethr =  6.09E-08,  avg # of iterations =  1.0

     negative rho (up, down):  6.068E-02 0.000E+00

     total cpu time spent up to now is    29428.6 secs

     total energy              =  -11682.06253061 Ry
     estimated scf accuracy    <       0.00139048 Ry

     iteration #101     ecut=    80.00 Ry     beta= 0.10
     Davidson diagonalization with overlap
     ethr =  6.09E-08,  avg # of iterations =  1.0

     negative rho (up, down):  6.069E-02 0.000E+00

     total cpu time spent up to now is    29714.8 secs

     total energy              =  -11682.06253507 Ry
     estimated scf accuracy    <       0.00063343 Ry

     iteration #102     ecut=    80.00 Ry     beta= 0.10
     Davidson diagonalization with overlap
     ethr =  3.38E-08,  avg # of iterations =  1.0

     negative rho (up, down):  6.069E-02 0.000E+00

     total cpu time spent up to now is    29999.4 secs

     total energy              =  -11682.06254569 Ry
     estimated scf accuracy    <       0.00073565 Ry

     iteration #103     ecut=    80.00 Ry     beta= 0.10
     Davidson diagonalization with overlap
     ethr =  3.38E-08,  avg # of iterations =  1.0

     negative rho (up, down):  6.070E-02 0.000E+00

     total cpu time spent up to now is    30284.5 secs

     total energy              =  -11682.06254553 Ry
     estimated scf accuracy    <       0.00115598 Ry

     iteration #104     ecut=    80.00 Ry     beta= 0.10
     Davidson diagonalization with overlap
     ethr =  3.38E-08,  avg # of iterations =  1.0

     negative rho (up, down):  6.070E-02 0.000E+00

     total cpu time spent up to now is    30570.1 secs

     total energy              =  -11682.06253659 Ry
     estimated scf accuracy    <       0.00197042 Ry

     iteration #105     ecut=    80.00 Ry     beta= 0.10
     Davidson diagonalization with overlap
     ethr =  3.38E-08,  avg # of iterations =  1.0

     negative rho (up, down):  6.070E-02 0.000E+00

     total cpu time spent up to now is    30854.9 secs

     total energy              =  -11682.06254969 Ry
     estimated scf accuracy    <       0.00116299 Ry

     iteration #106     ecut=    80.00 Ry     beta= 0.10
     Davidson diagonalization with overlap
     ethr =  3.38E-08,  avg # of iterations =  1.0

     negative rho (up, down):  6.071E-02 0.000E+00

     total cpu time spent up to now is    31140.2 secs

     total energy              =  -11682.06255888 Ry
     estimated scf accuracy    <       0.00055540 Ry

     iteration #107     ecut=    80.00 Ry     beta= 0.10
     Davidson diagonalization with overlap
     ethr =  2.97E-08,  avg # of iterations =  1.0

     negative rho (up, down):  6.071E-02 0.000E+00

     total cpu time spent up to now is    31425.8 secs

     total energy              =  -11682.06256428 Ry
     estimated scf accuracy    <       0.00052161 Ry

     iteration #108     ecut=    80.00 Ry     beta= 0.10
     Davidson diagonalization with overlap
     ethr =  2.79E-08,  avg # of iterations =  1.0

     negative rho (up, down):  6.072E-02 0.000E+00

     total cpu time spent up to now is    31710.7 secs

     total energy              =  -11682.06256193 Ry
     estimated scf accuracy    <       0.00116601 Ry

     iteration #109     ecut=    80.00 Ry     beta= 0.10
     Davidson diagonalization with overlap
     ethr =  2.79E-08,  avg # of iterations =  1.0

     negative rho (up, down):  6.072E-02 0.000E+00

     total cpu time spent up to now is    31995.9 secs

     total energy              =  -11682.06255567 Ry
     estimated scf accuracy    <       0.00175266 Ry

     iteration #110     ecut=    80.00 Ry     beta= 0.10
     Davidson diagonalization with overlap
     ethr =  2.79E-08,  avg # of iterations =  1.0

     negative rho (up, down):  6.072E-02 0.000E+00

     total cpu time spent up to now is    32280.1 secs

     total energy              =  -11682.06256637 Ry
     estimated scf accuracy    <       0.00080332 Ry

     iteration #111     ecut=    80.00 Ry     beta= 0.10
     Davidson diagonalization with overlap
     ethr =  2.79E-08,  avg # of iterations =  1.0

     negative rho (up, down):  6.072E-02 0.000E+00

     total cpu time spent up to now is    32564.5 secs

     total energy              =  -11682.06256861 Ry
     estimated scf accuracy    <       0.00039463 Ry

     iteration #112     ecut=    80.00 Ry     beta= 0.10
     Davidson diagonalization with overlap
     ethr =  2.11E-08,  avg # of iterations =  1.0

     negative rho (up, down):  6.073E-02 0.000E+00

     total cpu time spent up to now is    32849.2 secs

     total energy              =  -11682.06257701 Ry
     estimated scf accuracy    <       0.00051170 Ry

     iteration #113     ecut=    80.00 Ry     beta= 0.10
     Davidson diagonalization with overlap
     ethr =  2.11E-08,  avg # of iterations =  1.0

     negative rho (up, down):  6.074E-02 0.000E+00

     total cpu time spent up to now is    33137.5 secs

     total energy              =  -11682.06257996 Ry
     estimated scf accuracy    <       0.00063483 Ry

     iteration #114     ecut=    80.00 Ry     beta= 0.10
     Davidson diagonalization with overlap
     ethr =  2.11E-08,  avg # of iterations =  1.0

     negative rho (up, down):  6.073E-02 0.000E+00

     total cpu time spent up to now is    33422.8 secs

     total energy              =  -11682.06257023 Ry
     estimated scf accuracy    <       0.00106514 Ry

     iteration #115     ecut=    80.00 Ry     beta= 0.10
     Davidson diagonalization with overlap
     ethr =  2.11E-08,  avg # of iterations =  1.0

     negative rho (up, down):  6.073E-02 0.000E+00

     total cpu time spent up to now is    33707.3 secs

     total energy              =  -11682.06257447 Ry
     estimated scf accuracy    <       0.00110595 Ry

     iteration #116     ecut=    80.00 Ry     beta= 0.10
     Davidson diagonalization with overlap
     ethr =  2.11E-08,  avg # of iterations =  1.0

     negative rho (up, down):  6.074E-02 0.000E+00

     total cpu time spent up to now is    33992.3 secs

     total energy              =  -11682.06258156 Ry
     estimated scf accuracy    <       0.00045387 Ry

     iteration #117     ecut=    80.00 Ry     beta= 0.10
     Davidson diagonalization with overlap
     ethr =  2.11E-08,  avg # of iterations =  1.0

     negative rho (up, down):  6.074E-02 0.000E+00

     total cpu time spent up to now is    34277.3 secs

     total energy              =  -11682.06258702 Ry
     estimated scf accuracy    <       0.00025061 Ry

     iteration #118     ecut=    80.00 Ry     beta= 0.10
     Davidson diagonalization with overlap
     ethr =  1.34E-08,  avg # of iterations =  1.0

     negative rho (up, down):  6.075E-02 0.000E+00

     total cpu time spent up to now is    34561.9 secs

     total energy              =  -11682.06258926 Ry
     estimated scf accuracy    <       0.00046886 Ry

     iteration #119     ecut=    80.00 Ry     beta= 0.10
     Davidson diagonalization with overlap
     ethr =  1.34E-08,  avg # of iterations =  1.0

     negative rho (up, down):  6.075E-02 0.000E+00

     total cpu time spent up to now is    34846.8 secs

     total energy              =  -11682.06258511 Ry
     estimated scf accuracy    <       0.00065425 Ry

     iteration #120     ecut=    80.00 Ry     beta= 0.10
     Davidson diagonalization with overlap
     ethr =  1.34E-08,  avg # of iterations =  1.0

     negative rho (up, down):  6.075E-02 0.000E+00

     total cpu time spent up to now is    35131.4 secs

     total energy              =  -11682.06258791 Ry
     estimated scf accuracy    <       0.00043262 Ry

     iteration #121     ecut=    80.00 Ry     beta= 0.10
     Davidson diagonalization with overlap
     ethr =  1.34E-08,  avg # of iterations =  1.0

     negative rho (up, down):  6.075E-02 0.000E+00

     total cpu time spent up to now is    35417.4 secs

     total energy              =  -11682.06258925 Ry
     estimated scf accuracy    <       0.00024829 Ry

     iteration #122     ecut=    80.00 Ry     beta= 0.10
     Davidson diagonalization with overlap
     ethr =  1.33E-08,  avg # of iterations =  1.0

     negative rho (up, down):  6.076E-02 0.000E+00

     total cpu time spent up to now is    35702.2 secs

     total energy              =  -11682.06259430 Ry
     estimated scf accuracy    <       0.00036412 Ry

     iteration #123     ecut=    80.00 Ry     beta= 0.10
     Davidson diagonalization with overlap
     ethr =  1.33E-08,  avg # of iterations =  1.0

     negative rho (up, down):  6.076E-02 0.000E+00

     total cpu time spent up to now is    35988.0 secs

     total energy              =  -11682.06259768 Ry
     estimated scf accuracy    <       0.00030911 Ry

     iteration #124     ecut=    80.00 Ry     beta= 0.10
     Davidson diagonalization with overlap
     ethr =  1.33E-08,  avg # of iterations =  1.0

     negative rho (up, down):  6.076E-02 0.000E+00

     total cpu time spent up to now is    36272.6 secs

     total energy              =  -11682.06259215 Ry
     estimated scf accuracy    <       0.00047271 Ry

     iteration #125     ecut=    80.00 Ry     beta= 0.10
     Davidson diagonalization with overlap
     ethr =  1.33E-08,  avg # of iterations =  1.0

     negative rho (up, down):  6.076E-02 0.000E+00

     total cpu time spent up to now is    36557.4 secs

     total energy              =  -11682.06259015 Ry
     estimated scf accuracy    <       0.00094825 Ry

     iteration #126     ecut=    80.00 Ry     beta= 0.10
     Davidson diagonalization with overlap
     ethr =  1.33E-08,  avg # of iterations =  1.0

     negative rho (up, down):  6.076E-02 0.000E+00

     total cpu time spent up to now is    36842.8 secs

     total energy              =  -11682.06259495 Ry
     estimated scf accuracy    <       0.00047245 Ry

     iteration #127     ecut=    80.00 Ry     beta= 0.10
     Davidson diagonalization with overlap
     ethr =  1.33E-08,  avg # of iterations =  1.0

     negative rho (up, down):  6.076E-02 0.000E+00

     total cpu time spent up to now is    37128.9 secs

     total energy              =  -11682.06259940 Ry
     estimated scf accuracy    <       0.00017372 Ry

     iteration #128     ecut=    80.00 Ry     beta= 0.10
     Davidson diagonalization with overlap
     ethr =  9.28E-09,  avg # of iterations =  1.0

     negative rho (up, down):  6.077E-02 0.000E+00

     total cpu time spent up to now is    37413.3 secs

     total energy              =  -11682.06260178 Ry
     estimated scf accuracy    <       0.00023827 Ry

     iteration #129     ecut=    80.00 Ry     beta= 0.10
     Davidson diagonalization with overlap
     ethr =  9.28E-09,  avg # of iterations =  1.0

     negative rho (up, down):  6.077E-02 0.000E+00

     total cpu time spent up to now is    37698.0 secs

     total energy              =  -11682.06260021 Ry
     estimated scf accuracy    <       0.00024531 Ry

     iteration #130     ecut=    80.00 Ry     beta= 0.10
     Davidson diagonalization with overlap
     ethr =  9.28E-09,  avg # of iterations =  1.0

     negative rho (up, down):  6.077E-02 0.000E+00

     total cpu time spent up to now is    37982.4 secs

     total energy              =  -11682.06260051 Ry
     estimated scf accuracy    <       0.00021511 Ry

     iteration #131     ecut=    80.00 Ry     beta= 0.10
     Davidson diagonalization with overlap
     ethr =  9.28E-09,  avg # of iterations =  1.0

     negative rho (up, down):  6.077E-02 0.000E+00

     total cpu time spent up to now is    38266.3 secs

     total energy              =  -11682.06260175 Ry
     estimated scf accuracy    <       0.00014167 Ry

     iteration #132     ecut=    80.00 Ry     beta= 0.10
     Davidson diagonalization with overlap
     ethr =  7.57E-09,  avg # of iterations =  1.0

     negative rho (up, down):  6.078E-02 0.000E+00

     total cpu time spent up to now is    38551.7 secs

     total energy              =  -11682.06260397 Ry
     estimated scf accuracy    <       0.00020499 Ry

     iteration #133     ecut=    80.00 Ry     beta= 0.10
     Davidson diagonalization with overlap
     ethr =  7.57E-09,  avg # of iterations =  1.0

     negative rho (up, down):  6.078E-02 0.000E+00

     total cpu time spent up to now is    38836.6 secs

     total energy              =  -11682.06260617 Ry
     estimated scf accuracy    <       0.00012289 Ry

     iteration #134     ecut=    80.00 Ry     beta= 0.10
     Davidson diagonalization with overlap
     ethr =  6.56E-09,  avg # of iterations =  1.0

     negative rho (up, down):  6.078E-02 0.000E+00

     total cpu time spent up to now is    39120.6 secs

     total energy              =  -11682.06260472 Ry
     estimated scf accuracy    <       0.00015911 Ry

     iteration #135     ecut=    80.00 Ry     beta= 0.10
     Davidson diagonalization with overlap
     ethr =  6.56E-09,  avg # of iterations =  1.0

     negative rho (up, down):  6.078E-02 0.000E+00

     total cpu time spent up to now is    39405.0 secs

     total energy              =  -11682.06260166 Ry
     estimated scf accuracy    <       0.00057784 Ry

     iteration #136     ecut=    80.00 Ry     beta= 0.10
     Davidson diagonalization with overlap
     ethr =  6.56E-09,  avg # of iterations =  1.0

     negative rho (up, down):  6.078E-02 0.000E+00

     total cpu time spent up to now is    39689.7 secs

     total energy              =  -11682.06260312 Ry
     estimated scf accuracy    <       0.00041900 Ry

     iteration #137     ecut=    80.00 Ry     beta= 0.10
     Davidson diagonalization with overlap
     ethr =  6.56E-09,  avg # of iterations =  1.0

     negative rho (up, down):  6.078E-02 0.000E+00

     total cpu time spent up to now is    39974.6 secs

     total energy              =  -11682.06260641 Ry
     estimated scf accuracy    <       0.00014569 Ry

     iteration #138     ecut=    80.00 Ry     beta= 0.10
     Davidson diagonalization with overlap
     ethr =  6.56E-09,  avg # of iterations =  1.0

     negative rho (up, down):  6.079E-02 0.000E+00

     total cpu time spent up to now is    40259.1 secs

     total energy              =  -11682.06260805 Ry
     estimated scf accuracy    <       0.00013350 Ry

     iteration #139     ecut=    80.00 Ry     beta= 0.10
     Davidson diagonalization with overlap
     ethr =  6.56E-09,  avg # of iterations =  1.0

     negative rho (up, down):  6.079E-02 0.000E+00

     total cpu time spent up to now is    40543.7 secs

     total energy              =  -11682.06260776 Ry
     estimated scf accuracy    <       0.00010453 Ry

     iteration #140     ecut=    80.00 Ry     beta= 0.10
     Davidson diagonalization with overlap
     ethr =  5.58E-09,  avg # of iterations =  1.0

     negative rho (up, down):  6.078E-02 0.000E+00

     total cpu time spent up to now is    40828.1 secs

     total energy              =  -11682.06260746 Ry
     estimated scf accuracy    <       0.00010465 Ry

     iteration #141     ecut=    80.00 Ry     beta= 0.10
     Davidson diagonalization with overlap
     ethr =  5.58E-09,  avg # of iterations =  1.0

     negative rho (up, down):  6.079E-02 0.000E+00

     total cpu time spent up to now is    41114.2 secs

     total energy              =  -11682.06260836 Ry
     estimated scf accuracy    <       0.00007237 Ry

     iteration #142     ecut=    80.00 Ry     beta= 0.10
     Davidson diagonalization with overlap
     ethr =  3.87E-09,  avg # of iterations =  1.0

     negative rho (up, down):  6.079E-02 0.000E+00

     total cpu time spent up to now is    41398.7 secs

     total energy              =  -11682.06260914 Ry
     estimated scf accuracy    <       0.00009513 Ry

     iteration #143     ecut=    80.00 Ry     beta= 0.10
     Davidson diagonalization with overlap
     ethr =  3.87E-09,  avg # of iterations =  1.0

     negative rho (up, down):  6.079E-02 0.000E+00

     total cpu time spent up to now is    41684.1 secs

     total energy              =  -11682.06261026 Ry
     estimated scf accuracy    <       0.00004593 Ry

     iteration #144     ecut=    80.00 Ry     beta= 0.10
     Davidson diagonalization with overlap
     ethr =  2.45E-09,  avg # of iterations =  1.0

     negative rho (up, down):  6.079E-02 0.000E+00

     total cpu time spent up to now is    41969.0 secs

     total energy              =  -11682.06261039 Ry
     estimated scf accuracy    <       0.00004634 Ry

     iteration #145     ecut=    80.00 Ry     beta= 0.10
     Davidson diagonalization with overlap
     ethr =  2.45E-09,  avg # of iterations =  1.0

     negative rho (up, down):  6.079E-02 0.000E+00

     total cpu time spent up to now is    42253.6 secs

     total energy              =  -11682.06260909 Ry
     estimated scf accuracy    <       0.00022071 Ry

     iteration #146     ecut=    80.00 Ry     beta= 0.10
     Davidson diagonalization with overlap
     ethr =  2.45E-09,  avg # of iterations =  1.0

     negative rho (up, down):  6.079E-02 0.000E+00

     total cpu time spent up to now is    42538.5 secs

     total energy              =  -11682.06260883 Ry
     estimated scf accuracy    <       0.00023934 Ry

     iteration #147     ecut=    80.00 Ry     beta= 0.10
     Davidson diagonalization with overlap
     ethr =  2.45E-09,  avg # of iterations =  1.0

     negative rho (up, down):  6.079E-02 0.000E+00

     total cpu time spent up to now is    42822.5 secs

     total energy              =  -11682.06261032 Ry
     estimated scf accuracy    <       0.00010240 Ry

     iteration #148     ecut=    80.00 Ry     beta= 0.10
     Davidson diagonalization with overlap
     ethr =  2.45E-09,  avg # of iterations =  1.0

     negative rho (up, down):  6.080E-02 0.000E+00

     total cpu time spent up to now is    43106.0 secs

     total energy              =  -11682.06261124 Ry
     estimated scf accuracy    <       0.00007819 Ry

     iteration #149     ecut=    80.00 Ry     beta= 0.10
     Davidson diagonalization with overlap
     ethr =  2.45E-09,  avg # of iterations =  1.0

     negative rho (up, down):  6.080E-02 0.000E+00

     total cpu time spent up to now is    43390.5 secs

     total energy              =  -11682.06261142 Ry
     estimated scf accuracy    <       0.00004550 Ry

     iteration #150     ecut=    80.00 Ry     beta= 0.10
     Davidson diagonalization with overlap
     ethr =  2.43E-09,  avg # of iterations =  1.0

     negative rho (up, down):  6.080E-02 0.000E+00

     total cpu time spent up to now is    43675.5 secs

     total energy              =  -11682.06261112 Ry
     estimated scf accuracy    <       0.00005209 Ry

     iteration #151     ecut=    80.00 Ry     beta= 0.10
     Davidson diagonalization with overlap
     ethr =  2.43E-09,  avg # of iterations =  1.0

     negative rho (up, down):  6.080E-02 0.000E+00

     total cpu time spent up to now is    43960.5 secs

     total energy              =  -11682.06261164 Ry
     estimated scf accuracy    <       0.00004346 Ry

     iteration #152     ecut=    80.00 Ry     beta= 0.10
     Davidson diagonalization with overlap
     ethr =  2.32E-09,  avg # of iterations =  1.0

     negative rho (up, down):  6.080E-02 0.000E+00

     total cpu time spent up to now is    44245.3 secs

     total energy              =  -11682.06261184 Ry
     estimated scf accuracy    <       0.00004997 Ry

     iteration #153     ecut=    80.00 Ry     beta= 0.10
     Davidson diagonalization with overlap
     ethr =  2.32E-09,  avg # of iterations =  1.0

     negative rho (up, down):  6.080E-02 0.000E+00

     total cpu time spent up to now is    44530.0 secs

     total energy              =  -11682.06261239 Ry
     estimated scf accuracy    <       0.00002160 Ry

     iteration #154     ecut=    80.00 Ry     beta= 0.10
     Davidson diagonalization with overlap
     ethr =  1.15E-09,  avg # of iterations =  1.0

     negative rho (up, down):  6.080E-02 0.000E+00

     total cpu time spent up to now is    44814.4 secs

     total energy              =  -11682.06261273 Ry
     estimated scf accuracy    <       0.00001528 Ry

     iteration #155     ecut=    80.00 Ry     beta= 0.10
     Davidson diagonalization with overlap
     ethr =  8.16E-10,  avg # of iterations =  1.0

     negative rho (up, down):  6.080E-02 0.000E+00

     total cpu time spent up to now is    45098.2 secs

     total energy              =  -11682.06261251 Ry
     estimated scf accuracy    <       0.00006438 Ry

     iteration #156     ecut=    80.00 Ry     beta= 0.10
     Davidson diagonalization with overlap
     ethr =  8.16E-10,  avg # of iterations =  1.0

     negative rho (up, down):  6.080E-02 0.000E+00

     total cpu time spent up to now is    45382.6 secs

     total energy              =  -11682.06261220 Ry
     estimated scf accuracy    <       0.00009075 Ry

     iteration #157     ecut=    80.00 Ry     beta= 0.10
     Davidson diagonalization with overlap
     ethr =  8.16E-10,  avg # of iterations =  1.0

     negative rho (up, down):  6.080E-02 0.000E+00

     total cpu time spent up to now is    45667.0 secs

     total energy              =  -11682.06261259 Ry
     estimated scf accuracy    <       0.00005383 Ry

     iteration #158     ecut=    80.00 Ry     beta= 0.10
     Davidson diagonalization with overlap
     ethr =  8.16E-10,  avg # of iterations =  1.0

     negative rho (up, down):  6.080E-02 0.000E+00

     total cpu time spent up to now is    45950.4 secs

     total energy              =  -11682.06261298 Ry
     estimated scf accuracy    <       0.00004128 Ry

     iteration #159     ecut=    80.00 Ry     beta= 0.10
     Davidson diagonalization with overlap
     ethr =  8.16E-10,  avg # of iterations =  1.0

     negative rho (up, down):  6.081E-02 0.000E+00

     total cpu time spent up to now is    46235.5 secs

     total energy              =  -11682.06261323 Ry
     estimated scf accuracy    <       0.00002058 Ry

     iteration #160     ecut=    80.00 Ry     beta= 0.10
     Davidson diagonalization with overlap
     ethr =  8.16E-10,  avg # of iterations =  1.0

     negative rho (up, down):  6.081E-02 0.000E+00

     total cpu time spent up to now is    46521.0 secs

     total energy              =  -11682.06261309 Ry
     estimated scf accuracy    <       0.00002728 Ry

     iteration #161     ecut=    80.00 Ry     beta= 0.10
     Davidson diagonalization with overlap
     ethr =  8.16E-10,  avg # of iterations =  1.0

     negative rho (up, down):  6.081E-02 0.000E+00

     total cpu time spent up to now is    46805.7 secs

     total energy              =  -11682.06261334 Ry
     estimated scf accuracy    <       0.00003082 Ry

     iteration #162     ecut=    80.00 Ry     beta= 0.10
     Davidson diagonalization with overlap
     ethr =  8.16E-10,  avg # of iterations =  1.0

     negative rho (up, down):  6.081E-02 0.000E+00

     total cpu time spent up to now is    47090.1 secs

     total energy              =  -11682.06261328 Ry
     estimated scf accuracy    <       0.00003324 Ry

     iteration #163     ecut=    80.00 Ry     beta= 0.10
     Davidson diagonalization with overlap
     ethr =  8.16E-10,  avg # of iterations =  1.0

     negative rho (up, down):  6.081E-02 0.000E+00

     total cpu time spent up to now is    47374.6 secs

     total energy              =  -11682.06261358 Ry
     estimated scf accuracy    <       0.00001598 Ry

     iteration #164     ecut=    80.00 Ry     beta= 0.10
     Davidson diagonalization with overlap
     ethr =  8.16E-10,  avg # of iterations =  1.0

     negative rho (up, down):  6.081E-02 0.000E+00

     total cpu time spent up to now is    47659.3 secs

     total energy              =  -11682.06261385 Ry
     estimated scf accuracy    <       0.00000775 Ry

     iteration #165     ecut=    80.00 Ry     beta= 0.10
     Davidson diagonalization with overlap
     ethr =  4.14E-10,  avg # of iterations =  1.0

     negative rho (up, down):  6.081E-02 0.000E+00

     total cpu time spent up to now is    47943.6 secs

     total energy              =  -11682.06261389 Ry
     estimated scf accuracy    <       0.00001897 Ry

     iteration #166     ecut=    80.00 Ry     beta= 0.10
     Davidson diagonalization with overlap
     ethr =  4.14E-10,  avg # of iterations =  1.0

     negative rho (up, down):  6.081E-02 0.000E+00

     total cpu time spent up to now is    48228.5 secs

     total energy              =  -11682.06261379 Ry
     estimated scf accuracy    <       0.00003096 Ry

     iteration #167     ecut=    80.00 Ry     beta= 0.10
     Davidson diagonalization with overlap
     ethr =  4.14E-10,  avg # of iterations =  1.0

     negative rho (up, down):  6.081E-02 0.000E+00

     total cpu time spent up to now is    48514.9 secs

     total energy              =  -11682.06261383 Ry
     estimated scf accuracy    <       0.00002516 Ry

     iteration #168     ecut=    80.00 Ry     beta= 0.10
     Davidson diagonalization with overlap
     ethr =  4.14E-10,  avg # of iterations =  1.0

     negative rho (up, down):  6.081E-02 0.000E+00

     total cpu time spent up to now is    48800.1 secs

     total energy              =  -11682.06261396 Ry
     estimated scf accuracy    <       0.00002131 Ry

     iteration #169     ecut=    80.00 Ry     beta= 0.10
     Davidson diagonalization with overlap
     ethr =  4.14E-10,  avg # of iterations =  1.0

     negative rho (up, down):  6.081E-02 0.000E+00

     total cpu time spent up to now is    49083.5 secs

     total energy              =  -11682.06261415 Ry
     estimated scf accuracy    <       0.00001004 Ry

     iteration #170     ecut=    80.00 Ry     beta= 0.10
     Davidson diagonalization with overlap
     ethr =  4.14E-10,  avg # of iterations =  1.0

     negative rho (up, down):  6.081E-02 0.000E+00

     total cpu time spent up to now is    49368.3 secs

     total energy              =  -11682.06261418 Ry
     estimated scf accuracy    <       0.00001417 Ry

     iteration #171     ecut=    80.00 Ry     beta= 0.10
     Davidson diagonalization with overlap
     ethr =  4.14E-10,  avg # of iterations =  1.0

     negative rho (up, down):  6.081E-02 0.000E+00

     total cpu time spent up to now is    49652.7 secs

     total energy              =  -11682.06261429 Ry
     estimated scf accuracy    <       0.00001958 Ry

     iteration #172     ecut=    80.00 Ry     beta= 0.10
     Davidson diagonalization with overlap
     ethr =  4.14E-10,  avg # of iterations =  1.0

     negative rho (up, down):  6.081E-02 0.000E+00

     total cpu time spent up to now is    49936.8 secs

     total energy              =  -11682.06261415 Ry
     estimated scf accuracy    <       0.00001963 Ry

     iteration #173     ecut=    80.00 Ry     beta= 0.10
     Davidson diagonalization with overlap
     ethr =  4.14E-10,  avg # of iterations =  1.0

     negative rho (up, down):  6.081E-02 0.000E+00

     total cpu time spent up to now is    50221.4 secs

     total energy              =  -11682.06261424 Ry
     estimated scf accuracy    <       0.00001478 Ry

     iteration #174     ecut=    80.00 Ry     beta= 0.10
     Davidson diagonalization with overlap
     ethr =  4.14E-10,  avg # of iterations =  1.0

     negative rho (up, down):  6.081E-02 0.000E+00

     total cpu time spent up to now is    50506.5 secs

     total energy              =  -11682.06261447 Ry
     estimated scf accuracy    <       0.00000661 Ry

     iteration #175     ecut=    80.00 Ry     beta= 0.10
     Davidson diagonalization with overlap
     ethr =  3.53E-10,  avg # of iterations =  1.0

     negative rho (up, down):  6.081E-02 0.000E+00

     total cpu time spent up to now is    50790.9 secs

     total energy              =  -11682.06261453 Ry
     estimated scf accuracy    <       0.00000862 Ry

     iteration #176     ecut=    80.00 Ry     beta= 0.10
     Davidson diagonalization with overlap
     ethr =  3.53E-10,  avg # of iterations =  1.0

     negative rho (up, down):  6.081E-02 0.000E+00

     total cpu time spent up to now is    51074.7 secs

     total energy              =  -11682.06261451 Ry
     estimated scf accuracy    <       0.00001340 Ry

     iteration #177     ecut=    80.00 Ry     beta= 0.10
     Davidson diagonalization with overlap
     ethr =  3.53E-10,  avg # of iterations =  1.0

     negative rho (up, down):  6.081E-02 0.000E+00

     total cpu time spent up to now is    51360.1 secs

     total energy              =  -11682.06261450 Ry
     estimated scf accuracy    <       0.00001296 Ry

     iteration #178     ecut=    80.00 Ry     beta= 0.10
     Davidson diagonalization with overlap
     ethr =  3.53E-10,  avg # of iterations =  1.0

     negative rho (up, down):  6.081E-02 0.000E+00

     total cpu time spent up to now is    51644.4 secs

     total energy              =  -11682.06261452 Ry
     estimated scf accuracy    <       0.00001252 Ry

     iteration #179     ecut=    80.00 Ry     beta= 0.10
     Davidson diagonalization with overlap
     ethr =  3.53E-10,  avg # of iterations =  1.0

     negative rho (up, down):  6.082E-02 0.000E+00

     total cpu time spent up to now is    51928.8 secs

     total energy              =  -11682.06261466 Ry
     estimated scf accuracy    <       0.00000553 Ry

     iteration #180     ecut=    80.00 Ry     beta= 0.10
     Davidson diagonalization with overlap
     ethr =  2.96E-10,  avg # of iterations =  1.0

     negative rho (up, down):  6.082E-02 0.000E+00

     total cpu time spent up to now is    52214.0 secs

     total energy              =  -11682.06261473 Ry
     estimated scf accuracy    <       0.00000686 Ry

     iteration #181     ecut=    80.00 Ry     beta= 0.10
     Davidson diagonalization with overlap
     ethr =  2.96E-10,  avg # of iterations =  1.0

     negative rho (up, down):  6.082E-02 0.000E+00

     total cpu time spent up to now is    52498.6 secs

     total energy              =  -11682.06261478 Ry
     estimated scf accuracy    <       0.00000921 Ry

     iteration #182     ecut=    80.00 Ry     beta= 0.10
     Davidson diagonalization with overlap
     ethr =  2.96E-10,  avg # of iterations =  1.0

     negative rho (up, down):  6.082E-02 0.000E+00

     total cpu time spent up to now is    52784.6 secs

     total energy              =  -11682.06261470 Ry
     estimated scf accuracy    <       0.00000827 Ry

     iteration #183     ecut=    80.00 Ry     beta= 0.10
     Davidson diagonalization with overlap
     ethr =  2.96E-10,  avg # of iterations =  1.0

     negative rho (up, down):  6.082E-02 0.000E+00

     total cpu time spent up to now is    53069.5 secs

     total energy              =  -11682.06261464 Ry
     estimated scf accuracy    <       0.00001192 Ry

     iteration #184     ecut=    80.00 Ry     beta= 0.10
     Davidson diagonalization with overlap
     ethr =  2.96E-10,  avg # of iterations =  1.0

     negative rho (up, down):  6.082E-02 0.000E+00

     total cpu time spent up to now is    53354.0 secs

     total energy              =  -11682.06261480 Ry
     estimated scf accuracy    <       0.00000753 Ry

     iteration #185     ecut=    80.00 Ry     beta= 0.10
     Davidson diagonalization with overlap
     ethr =  2.96E-10,  avg # of iterations =  1.0

     negative rho (up, down):  6.082E-02 0.000E+00

     total cpu time spent up to now is    53638.9 secs

     total energy              =  -11682.06261487 Ry
     estimated scf accuracy    <       0.00000588 Ry

     iteration #186     ecut=    80.00 Ry     beta= 0.10
     Davidson diagonalization with overlap
     ethr =  2.96E-10,  avg # of iterations =  1.0

     negative rho (up, down):  6.082E-02 0.000E+00

     total cpu time spent up to now is    53924.1 secs

     total energy              =  -11682.06261487 Ry
     estimated scf accuracy    <       0.00000767 Ry

     iteration #187     ecut=    80.00 Ry     beta= 0.10
     Davidson diagonalization with overlap
     ethr =  2.96E-10,  avg # of iterations =  1.0

     negative rho (up, down):  6.082E-02 0.000E+00

     total cpu time spent up to now is    54208.9 secs

     total energy              =  -11682.06261486 Ry
     estimated scf accuracy    <       0.00000722 Ry

     iteration #188     ecut=    80.00 Ry     beta= 0.10
     Davidson diagonalization with overlap
     ethr =  2.96E-10,  avg # of iterations =  1.0

     negative rho (up, down):  6.082E-02 0.000E+00

     total cpu time spent up to now is    54493.9 secs

     total energy              =  -11682.06261485 Ry
     estimated scf accuracy    <       0.00000797 Ry

     iteration #189     ecut=    80.00 Ry     beta= 0.10
     Davidson diagonalization with overlap
     ethr =  2.96E-10,  avg # of iterations =  1.0

     negative rho (up, down):  6.082E-02 0.000E+00

     total cpu time spent up to now is    54778.7 secs

     total energy              =  -11682.06261493 Ry
     estimated scf accuracy    <       0.00000347 Ry

     iteration #190     ecut=    80.00 Ry     beta= 0.10
     Davidson diagonalization with overlap
     ethr =  1.85E-10,  avg # of iterations =  1.0

     negative rho (up, down):  6.082E-02 0.000E+00

     total cpu time spent up to now is    55063.6 secs

     total energy              =  -11682.06261498 Ry
     estimated scf accuracy    <       0.00000314 Ry

     iteration #191     ecut=    80.00 Ry     beta= 0.10
     Davidson diagonalization with overlap
     ethr =  1.68E-10,  avg # of iterations =  1.0

     negative rho (up, down):  6.082E-02 0.000E+00

     total cpu time spent up to now is    55348.1 secs

     total energy              =  -11682.06261501 Ry
     estimated scf accuracy    <       0.00000329 Ry

     iteration #192     ecut=    80.00 Ry     beta= 0.10
     Davidson diagonalization with overlap
     ethr =  1.68E-10,  avg # of iterations =  1.0

     negative rho (up, down):  6.082E-02 0.000E+00

     total cpu time spent up to now is    55633.4 secs

     total energy              =  -11682.06261499 Ry
     estimated scf accuracy    <       0.00000274 Ry

     iteration #193     ecut=    80.00 Ry     beta= 0.10
     Davidson diagonalization with overlap
     ethr =  1.47E-10,  avg # of iterations =  1.0

     negative rho (up, down):  6.082E-02 0.000E+00

     total cpu time spent up to now is    55917.7 secs

     total energy              =  -11682.06261491 Ry
     estimated scf accuracy    <       0.00000666 Ry

     iteration #194     ecut=    80.00 Ry     beta= 0.10
     Davidson diagonalization with overlap
     ethr =  1.47E-10,  avg # of iterations =  1.0

     negative rho (up, down):  6.082E-02 0.000E+00

     total cpu time spent up to now is    56202.7 secs

     total energy              =  -11682.06261499 Ry
     estimated scf accuracy    <       0.00000779 Ry

     iteration #195     ecut=    80.00 Ry     beta= 0.10
     Davidson diagonalization with overlap
     ethr =  1.47E-10,  avg # of iterations =  1.0

     negative rho (up, down):  6.082E-02 0.000E+00

     total cpu time spent up to now is    56489.0 secs

     total energy              =  -11682.06261504 Ry
     estimated scf accuracy    <       0.00000406 Ry

     iteration #196     ecut=    80.00 Ry     beta= 0.10
     Davidson diagonalization with overlap
     ethr =  1.47E-10,  avg # of iterations =  1.0

     negative rho (up, down):  6.082E-02 0.000E+00

     total cpu time spent up to now is    56774.3 secs

     total energy              =  -11682.06261505 Ry
     estimated scf accuracy    <       0.00000422 Ry

     iteration #197     ecut=    80.00 Ry     beta= 0.10
     Davidson diagonalization with overlap
     ethr =  1.47E-10,  avg # of iterations =  1.0

     negative rho (up, down):  6.082E-02 0.000E+00

     total cpu time spent up to now is    57059.1 secs

     total energy              =  -11682.06261505 Ry
     estimated scf accuracy    <       0.00000354 Ry

     iteration #198     ecut=    80.00 Ry     beta= 0.10
     Davidson diagonalization with overlap
     ethr =  1.47E-10,  avg # of iterations =  1.0

     negative rho (up, down):  6.082E-02 0.000E+00

     total cpu time spent up to now is    57344.1 secs

     total energy              =  -11682.06261503 Ry
     estimated scf accuracy    <       0.00000460 Ry

     iteration #199     ecut=    80.00 Ry     beta= 0.10
     Davidson diagonalization with overlap
     ethr =  1.47E-10,  avg # of iterations =  1.0

     negative rho (up, down):  6.082E-02 0.000E+00

     total cpu time spent up to now is    57628.9 secs

     total energy              =  -11682.06261506 Ry
     estimated scf accuracy    <       0.00000235 Ry

     iteration #200     ecut=    80.00 Ry     beta= 0.10
     Davidson diagonalization with overlap
     ethr =  1.26E-10,  avg # of iterations =  1.0

     negative rho (up, down):  6.082E-02 0.000E+00

     total cpu time spent up to now is    57913.7 secs

     total energy              =  -11682.06261510 Ry
     estimated scf accuracy    <       0.00000166 Ry

     iteration #201     ecut=    80.00 Ry     beta= 0.10
     Davidson diagonalization with overlap
     ethr =  8.88E-11,  avg # of iterations =  1.0

     negative rho (up, down):  6.082E-02 0.000E+00

     total cpu time spent up to now is    58199.6 secs

     total energy              =  -11682.06261511 Ry
     estimated scf accuracy    <       0.00000113 Ry

     iteration #202     ecut=    80.00 Ry     beta= 0.10
     Davidson diagonalization with overlap
     ethr =  6.02E-11,  avg # of iterations =  1.0

     negative rho (up, down):  6.082E-02 0.000E+00

     total cpu time spent up to now is    58484.8 secs

     total energy              =  -11682.06261511 Ry
     estimated scf accuracy    <       0.00000087 Ry

     iteration #203     ecut=    80.00 Ry     beta= 0.10
     Davidson diagonalization with overlap
     ethr =  4.64E-11,  avg # of iterations =  1.0

     negative rho (up, down):  6.082E-02 0.000E+00

     total cpu time spent up to now is    58769.7 secs

     total energy              =  -11682.06261508 Ry
     estimated scf accuracy    <       0.00000251 Ry

     iteration #204     ecut=    80.00 Ry     beta= 0.10
     Davidson diagonalization with overlap
     ethr =  4.64E-11,  avg # of iterations =  1.0

     negative rho (up, down):  6.082E-02 0.000E+00

     total cpu time spent up to now is    59054.8 secs

     total energy              =  -11682.06261509 Ry
     estimated scf accuracy    <       0.00000521 Ry

     iteration #205     ecut=    80.00 Ry     beta= 0.10
     Davidson diagonalization with overlap
     ethr =  4.64E-11,  avg # of iterations =  1.0

     negative rho (up, down):  6.082E-02 0.000E+00

     total cpu time spent up to now is    59339.4 secs

     total energy              =  -11682.06261512 Ry
     estimated scf accuracy    <       0.00000215 Ry

     iteration #206     ecut=    80.00 Ry     beta= 0.10
     Davidson diagonalization with overlap
     ethr =  4.64E-11,  avg # of iterations =  1.0

     negative rho (up, down):  6.082E-02 0.000E+00

     total cpu time spent up to now is    59625.6 secs

     total energy              =  -11682.06261513 Ry
     estimated scf accuracy    <       0.00000186 Ry

     iteration #207     ecut=    80.00 Ry     beta= 0.10
     Davidson diagonalization with overlap
     ethr =  4.64E-11,  avg # of iterations =  1.0

     negative rho (up, down):  6.082E-02 0.000E+00

     total cpu time spent up to now is    59910.6 secs

     total energy              =  -11682.06261513 Ry
     estimated scf accuracy    <       0.00000150 Ry

     iteration #208     ecut=    80.00 Ry     beta= 0.10
     Davidson diagonalization with overlap
     ethr =  4.64E-11,  avg # of iterations =  1.0

     negative rho (up, down):  6.082E-02 0.000E+00

     total cpu time spent up to now is    60196.9 secs

     total energy              =  -11682.06261512 Ry
     estimated scf accuracy    <       0.00000229 Ry

     iteration #209     ecut=    80.00 Ry     beta= 0.10
     Davidson diagonalization with overlap
     ethr =  4.64E-11,  avg # of iterations =  1.0

     negative rho (up, down):  6.082E-02 0.000E+00

     total cpu time spent up to now is    60481.5 secs

     total energy              =  -11682.06261513 Ry
     estimated scf accuracy    <       0.00000169 Ry

     iteration #210     ecut=    80.00 Ry     beta= 0.10
     Davidson diagonalization with overlap
     ethr =  4.64E-11,  avg # of iterations =  1.0

     negative rho (up, down):  6.082E-02 0.000E+00

     total cpu time spent up to now is    60766.8 secs

     total energy              =  -11682.06261515 Ry
     estimated scf accuracy    <       0.00000122 Ry

     iteration #211     ecut=    80.00 Ry     beta= 0.10
     Davidson diagonalization with overlap
     ethr =  4.64E-11,  avg # of iterations =  1.0

     negative rho (up, down):  6.082E-02 0.000E+00

     total cpu time spent up to now is    61051.9 secs

     total energy              =  -11682.06261515 Ry
     estimated scf accuracy    <       0.00000053 Ry

     iteration #212     ecut=    80.00 Ry     beta= 0.10
     Davidson diagonalization with overlap
     ethr =  2.85E-11,  avg # of iterations =  1.0

     negative rho (up, down):  6.082E-02 0.000E+00

     total cpu time spent up to now is    61336.7 secs

     total energy              =  -11682.06261516 Ry
     estimated scf accuracy    <       0.00000034 Ry

     iteration #213     ecut=    80.00 Ry     beta= 0.10
     Davidson diagonalization with overlap
     ethr =  1.84E-11,  avg # of iterations =  1.0

     negative rho (up, down):  6.082E-02 0.000E+00

     total cpu time spent up to now is    61622.2 secs

     total energy              =  -11682.06261516 Ry
     estimated scf accuracy    <       0.00000079 Ry

     iteration #214     ecut=    80.00 Ry     beta= 0.10
     Davidson diagonalization with overlap
     ethr =  1.84E-11,  avg # of iterations =  1.0

     negative rho (up, down):  6.082E-02 0.000E+00

     total cpu time spent up to now is    61906.9 secs

     total energy              =  -11682.06261515 Ry
     estimated scf accuracy    <       0.00000220 Ry

     iteration #215     ecut=    80.00 Ry     beta= 0.10
     Davidson diagonalization with overlap
     ethr =  1.84E-11,  avg # of iterations =  1.0

     negative rho (up, down):  6.082E-02 0.000E+00

     total cpu time spent up to now is    62191.7 secs

     total energy              =  -11682.06261516 Ry
     estimated scf accuracy    <       0.00000098 Ry

     iteration #216     ecut=    80.00 Ry     beta= 0.10
     Davidson diagonalization with overlap
     ethr =  1.84E-11,  avg # of iterations =  1.0

     negative rho (up, down):  6.082E-02 0.000E+00

     total cpu time spent up to now is    62477.2 secs

     total energy              =  -11682.06261517 Ry
     estimated scf accuracy    <       0.00000075 Ry

     iteration #217     ecut=    80.00 Ry     beta= 0.10
     Davidson diagonalization with overlap
     ethr =  1.84E-11,  avg # of iterations =  1.0

     negative rho (up, down):  6.082E-02 0.000E+00

     total cpu time spent up to now is    62762.0 secs

     total energy              =  -11682.06261517 Ry
     estimated scf accuracy    <       0.00000059 Ry

     iteration #218     ecut=    80.00 Ry     beta= 0.10
     Davidson diagonalization with overlap
     ethr =  1.84E-11,  avg # of iterations =  1.0

     negative rho (up, down):  6.082E-02 0.000E+00

     total cpu time spent up to now is    63046.4 secs

     total energy              =  -11682.06261516 Ry
     estimated scf accuracy    <       0.00000104 Ry

     iteration #219     ecut=    80.00 Ry     beta= 0.10
     Davidson diagonalization with overlap
     ethr =  1.84E-11,  avg # of iterations =  1.0

     negative rho (up, down):  6.082E-02 0.000E+00

     total cpu time spent up to now is    63332.4 secs

     total energy              =  -11682.06261516 Ry
     estimated scf accuracy    <       0.00000112 Ry

     iteration #220     ecut=    80.00 Ry     beta= 0.10
     Davidson diagonalization with overlap
     ethr =  1.84E-11,  avg # of iterations =  1.0

     negative rho (up, down):  6.082E-02 0.000E+00

     total cpu time spent up to now is    63617.8 secs

     total energy              =  -11682.06261517 Ry
     estimated scf accuracy    <       0.00000105 Ry

     iteration #221     ecut=    80.00 Ry     beta= 0.10
     Davidson diagonalization with overlap
     ethr =  1.84E-11,  avg # of iterations =  1.0

     negative rho (up, down):  6.082E-02 0.000E+00

     total cpu time spent up to now is    63901.9 secs

     total energy              =  -11682.06261517 Ry
     estimated scf accuracy    <       0.00000036 Ry

     iteration #222     ecut=    80.00 Ry     beta= 0.10
     Davidson diagonalization with overlap
     ethr =  1.84E-11,  avg # of iterations =  1.0

     negative rho (up, down):  6.082E-02 0.000E+00

     total cpu time spent up to now is    64186.0 secs

     total energy              =  -11682.06261518 Ry
     estimated scf accuracy    <       0.00000019 Ry

     iteration #223     ecut=    80.00 Ry     beta= 0.10
     Davidson diagonalization with overlap
     ethr =  1.03E-11,  avg # of iterations =  1.0

     negative rho (up, down):  6.083E-02 0.000E+00

     total cpu time spent up to now is    64472.1 secs

     total energy              =  -11682.06261518 Ry
     estimated scf accuracy    <       0.00000030 Ry

     iteration #224     ecut=    80.00 Ry     beta= 0.10
     Davidson diagonalization with overlap
     ethr =  1.03E-11,  avg # of iterations =  1.0

     negative rho (up, down):  6.083E-02 0.000E+00

     total cpu time spent up to now is    64757.0 secs

     total energy              =  -11682.06261517 Ry
     estimated scf accuracy    <       0.00000084 Ry

     iteration #225     ecut=    80.00 Ry     beta= 0.10
     Davidson diagonalization with overlap
     ethr =  1.03E-11,  avg # of iterations =  1.0

     negative rho (up, down):  6.083E-02 0.000E+00

     total cpu time spent up to now is    65041.3 secs

     total energy              =  -11682.06261518 Ry
     estimated scf accuracy    <       0.00000052 Ry

     iteration #226     ecut=    80.00 Ry     beta= 0.10
     Davidson diagonalization with overlap
     ethr =  1.03E-11,  avg # of iterations =  1.0

     negative rho (up, down):  6.083E-02 0.000E+00

     total cpu time spent up to now is    65326.4 secs

     total energy              =  -11682.06261518 Ry
     estimated scf accuracy    <       0.00000034 Ry

     iteration #227     ecut=    80.00 Ry     beta= 0.10
     Davidson diagonalization with overlap
     ethr =  1.03E-11,  avg # of iterations =  1.0

     negative rho (up, down):  6.083E-02 0.000E+00

     total cpu time spent up to now is    65610.5 secs

     total energy              =  -11682.06261518 Ry
     estimated scf accuracy    <       0.00000025 Ry

     iteration #228     ecut=    80.00 Ry     beta= 0.10
     Davidson diagonalization with overlap
     ethr =  1.03E-11,  avg # of iterations =  1.0

     negative rho (up, down):  6.083E-02 0.000E+00

     total cpu time spent up to now is    65895.2 secs

     total energy              =  -11682.06261518 Ry
     estimated scf accuracy    <       0.00000045 Ry

     iteration #229     ecut=    80.00 Ry     beta= 0.10
     Davidson diagonalization with overlap
     ethr =  1.03E-11,  avg # of iterations =  1.0

     negative rho (up, down):  6.083E-02 0.000E+00

     total cpu time spent up to now is    66180.8 secs

     total energy              =  -11682.06261518 Ry
     estimated scf accuracy    <       0.00000058 Ry

     iteration #230     ecut=    80.00 Ry     beta= 0.10
     Davidson diagonalization with overlap
     ethr =  1.03E-11,  avg # of iterations =  1.0

     negative rho (up, down):  6.083E-02 0.000E+00

     total cpu time spent up to now is    66465.9 secs

     total energy              =  -11682.06261518 Ry
     estimated scf accuracy    <       0.00000075 Ry

     iteration #231     ecut=    80.00 Ry     beta= 0.10
     Davidson diagonalization with overlap
     ethr =  1.03E-11,  avg # of iterations =  1.0

     negative rho (up, down):  6.083E-02 0.000E+00

     total cpu time spent up to now is    66750.2 secs

     total energy              =  -11682.06261518 Ry
     estimated scf accuracy    <       0.00000026 Ry

     iteration #232     ecut=    80.00 Ry     beta= 0.10
     Davidson diagonalization with overlap
     ethr =  1.03E-11,  avg # of iterations =  1.0

     negative rho (up, down):  6.083E-02 0.000E+00

     total cpu time spent up to now is    67035.8 secs

     total energy              =  -11682.06261518 Ry
     estimated scf accuracy    <       0.00000015 Ry

     iteration #233     ecut=    80.00 Ry     beta= 0.10
     Davidson diagonalization with overlap
     ethr =  8.17E-12,  avg # of iterations =  1.0

     negative rho (up, down):  6.083E-02 0.000E+00

     total cpu time spent up to now is    67321.1 secs

     total energy              =  -11682.06261518 Ry
     estimated scf accuracy    <       0.00000018 Ry

     iteration #234     ecut=    80.00 Ry     beta= 0.10
     Davidson diagonalization with overlap
     ethr =  8.17E-12,  avg # of iterations =  1.0

     negative rho (up, down):  6.083E-02 0.000E+00

     total cpu time spent up to now is    67606.1 secs

     total energy              =  -11682.06261518 Ry
     estimated scf accuracy    <       0.00000038 Ry

     iteration #235     ecut=    80.00 Ry     beta= 0.10
     Davidson diagonalization with overlap
     ethr =  8.17E-12,  avg # of iterations =  1.0

     negative rho (up, down):  6.083E-02 0.000E+00

     total cpu time spent up to now is    67890.8 secs

     total energy              =  -11682.06261518 Ry
     estimated scf accuracy    <       0.00000039 Ry

     iteration #236     ecut=    80.00 Ry     beta= 0.10
     Davidson diagonalization with overlap
     ethr =  8.17E-12,  avg # of iterations =  1.0

     negative rho (up, down):  6.083E-02 0.000E+00

     total cpu time spent up to now is    68175.7 secs

     total energy              =  -11682.06261518 Ry
     estimated scf accuracy    <       0.00000022 Ry

     iteration #237     ecut=    80.00 Ry     beta= 0.10
     Davidson diagonalization with overlap
     ethr =  8.17E-12,  avg # of iterations =  1.0

     negative rho (up, down):  6.083E-02 0.000E+00

     total cpu time spent up to now is    68459.6 secs

     total energy              =  -11682.06261519 Ry
     estimated scf accuracy    <       0.00000013 Ry

     iteration #238     ecut=    80.00 Ry     beta= 0.10
     Davidson diagonalization with overlap
     ethr =  6.78E-12,  avg # of iterations =  1.0

     negative rho (up, down):  6.083E-02 0.000E+00

     total cpu time spent up to now is    68743.9 secs

     total energy              =  -11682.06261518 Ry
     estimated scf accuracy    <       0.00000019 Ry

     iteration #239     ecut=    80.00 Ry     beta= 0.10
     Davidson diagonalization with overlap
     ethr =  6.78E-12,  avg # of iterations =  1.0

     negative rho (up, down):  6.083E-02 0.000E+00

     total cpu time spent up to now is    69028.2 secs

     total energy              =  -11682.06261518 Ry
     estimated scf accuracy    <       0.00000023 Ry

     iteration #240     ecut=    80.00 Ry     beta= 0.10
     Davidson diagonalization with overlap
     ethr =  6.78E-12,  avg # of iterations =  1.0

     negative rho (up, down):  6.083E-02 0.000E+00

     total cpu time spent up to now is    69313.2 secs

     total energy              =  -11682.06261518 Ry
     estimated scf accuracy    <       0.00000038 Ry

     iteration #241     ecut=    80.00 Ry     beta= 0.10
     Davidson diagonalization with overlap
     ethr =  6.78E-12,  avg # of iterations =  1.0

     negative rho (up, down):  6.083E-02 0.000E+00

     total cpu time spent up to now is    69597.6 secs

     total energy              =  -11682.06261519 Ry
     estimated scf accuracy    <       0.00000017 Ry

     iteration #242     ecut=    80.00 Ry     beta= 0.10
     Davidson diagonalization with overlap
     ethr =  6.78E-12,  avg # of iterations =  1.0

     negative rho (up, down):  6.083E-02 0.000E+00

     total cpu time spent up to now is    69882.4 secs

     total energy              =  -11682.06261519 Ry
     estimated scf accuracy    <       0.00000014 Ry

     iteration #243     ecut=    80.00 Ry     beta= 0.10
     Davidson diagonalization with overlap
     ethr =  6.78E-12,  avg # of iterations =  1.0

     negative rho (up, down):  6.083E-02 0.000E+00

     total cpu time spent up to now is    70167.4 secs

     total energy              =  -11682.06261518 Ry
     estimated scf accuracy    <       0.00000013 Ry

     iteration #244     ecut=    80.00 Ry     beta= 0.10
     Davidson diagonalization with overlap
     ethr =  6.78E-12,  avg # of iterations =  1.0

     negative rho (up, down):  6.083E-02 0.000E+00

     total cpu time spent up to now is    70451.7 secs

     total energy              =  -11682.06261518 Ry
     estimated scf accuracy    <       0.00000018 Ry

     iteration #245     ecut=    80.00 Ry     beta= 0.10
     Davidson diagonalization with overlap
     ethr =  6.78E-12,  avg # of iterations =  1.0

     negative rho (up, down):  6.083E-02 0.000E+00

     total cpu time spent up to now is    70735.9 secs

     total energy              =  -11682.06261518 Ry
     estimated scf accuracy    <       0.00000032 Ry

     iteration #246     ecut=    80.00 Ry     beta= 0.10
     Davidson diagonalization with overlap
     ethr =  6.78E-12,  avg # of iterations =  1.0

     negative rho (up, down):  6.083E-02 0.000E+00

     total cpu time spent up to now is    71020.9 secs

     total energy              =  -11682.06261518 Ry
     estimated scf accuracy    <       0.00000019 Ry

     iteration #247     ecut=    80.00 Ry     beta= 0.10
     Davidson diagonalization with overlap
     ethr =  6.78E-12,  avg # of iterations =  1.0

     negative rho (up, down):  6.083E-02 0.000E+00

     total cpu time spent up to now is    71305.8 secs

     total energy              =  -11682.06261518 Ry
     estimated scf accuracy    <       0.00000009 Ry

     iteration #248     ecut=    80.00 Ry     beta= 0.10
     Davidson diagonalization with overlap
     ethr =  4.65E-12,  avg # of iterations =  1.0

     negative rho (up, down):  6.083E-02 0.000E+00

     total cpu time spent up to now is    71590.9 secs

     total energy              =  -11682.06261518 Ry
     estimated scf accuracy    <       0.00000009 Ry

     iteration #249     ecut=    80.00 Ry     beta= 0.10
     Davidson diagonalization with overlap
     ethr =  4.65E-12,  avg # of iterations =  1.0

     negative rho (up, down):  6.083E-02 0.000E+00

     total cpu time spent up to now is    71875.5 secs

     total energy              =  -11682.06261518 Ry
     estimated scf accuracy    <       0.00000008 Ry

     iteration #250     ecut=    80.00 Ry     beta= 0.10
     Davidson diagonalization with overlap
     ethr =  4.48E-12,  avg # of iterations =  1.0

     negative rho (up, down):  6.083E-02 0.000E+00

     total cpu time spent up to now is    72160.9 secs

     total energy              =  -11682.06261518 Ry
     estimated scf accuracy    <       0.00000014 Ry

     iteration #251     ecut=    80.00 Ry     beta= 0.10
     Davidson diagonalization with overlap
     ethr =  4.48E-12,  avg # of iterations =  1.0

     negative rho (up, down):  6.083E-02 0.000E+00

     total cpu time spent up to now is    72444.9 secs

     total energy              =  -11682.06261518 Ry
     estimated scf accuracy    <       0.00000009 Ry

     iteration #252     ecut=    80.00 Ry     beta= 0.10
     Davidson diagonalization with overlap
     ethr =  4.48E-12,  avg # of iterations =  1.0

     negative rho (up, down):  6.083E-02 0.000E+00

     total cpu time spent up to now is    72731.0 secs

     total energy              =  -11682.06261518 Ry
     estimated scf accuracy    <       0.00000011 Ry

     iteration #253     ecut=    80.00 Ry     beta= 0.10
     Davidson diagonalization with overlap
     ethr =  4.48E-12,  avg # of iterations =  1.0

     negative rho (up, down):  6.083E-02 0.000E+00

     total cpu time spent up to now is    73015.4 secs

     total energy              =  -11682.06261518 Ry
     estimated scf accuracy    <       0.00000008 Ry

     iteration #254     ecut=    80.00 Ry     beta= 0.10
     Davidson diagonalization with overlap
     ethr =  4.12E-12,  avg # of iterations =  1.0

     negative rho (up, down):  6.083E-02 0.000E+00

     total cpu time spent up to now is    73300.2 secs

     total energy              =  -11682.06261518 Ry
     estimated scf accuracy    <       0.00000007 Ry

     iteration #255     ecut=    80.00 Ry     beta= 0.10
     Davidson diagonalization with overlap
     ethr =  3.67E-12,  avg # of iterations =  1.0

     negative rho (up, down):  6.083E-02 0.000E+00

     total cpu time spent up to now is    73585.3 secs

     total energy              =  -11682.06261518 Ry
     estimated scf accuracy    <       0.00000022 Ry

     iteration #256     ecut=    80.00 Ry     beta= 0.10
     Davidson diagonalization with overlap
     ethr =  3.67E-12,  avg # of iterations =  1.0

     negative rho (up, down):  6.083E-02 0.000E+00

     total cpu time spent up to now is    73869.3 secs

     total energy              =  -11682.06261518 Ry
     estimated scf accuracy    <       0.00000016 Ry

     iteration #257     ecut=    80.00 Ry     beta= 0.10
     Davidson diagonalization with overlap
     ethr =  3.67E-12,  avg # of iterations =  1.0

     negative rho (up, down):  6.083E-02 0.000E+00

     total cpu time spent up to now is    74154.3 secs

     total energy              =  -11682.06261518 Ry
     estimated scf accuracy    <       0.00000007 Ry

     iteration #258     ecut=    80.00 Ry     beta= 0.10
     Davidson diagonalization with overlap
     ethr =  3.67E-12,  avg # of iterations =  1.0

     negative rho (up, down):  6.083E-02 0.000E+00

     total cpu time spent up to now is    74439.8 secs

     total energy              =  -11682.06261518 Ry
     estimated scf accuracy    <       0.00000005 Ry

     iteration #259     ecut=    80.00 Ry     beta= 0.10
     Davidson diagonalization with overlap
     ethr =  2.62E-12,  avg # of iterations =  1.0

     negative rho (up, down):  6.083E-02 0.000E+00

     total cpu time spent up to now is    74725.1 secs

     total energy              =  -11682.06261518 Ry
     estimated scf accuracy    <       0.00000003 Ry

     iteration #260     ecut=    80.00 Ry     beta= 0.10
     Davidson diagonalization with overlap
     ethr =  1.81E-12,  avg # of iterations =  1.0

     negative rho (up, down):  6.083E-02 0.000E+00

     total cpu time spent up to now is    75010.3 secs

     total energy              =  -11682.06261518 Ry
     estimated scf accuracy    <       0.00000004 Ry

     iteration #261     ecut=    80.00 Ry     beta= 0.10
     Davidson diagonalization with overlap
     ethr =  1.81E-12,  avg # of iterations =  1.0

     negative rho (up, down):  6.083E-02 0.000E+00

     total cpu time spent up to now is    75295.7 secs

     total energy              =  -11682.06261518 Ry
     estimated scf accuracy    <       0.00000004 Ry

     iteration #262     ecut=    80.00 Ry     beta= 0.10
     Davidson diagonalization with overlap
     ethr =  1.81E-12,  avg # of iterations =  1.0

     negative rho (up, down):  6.083E-02 0.000E+00

     total cpu time spent up to now is    75581.1 secs

     total energy              =  -11682.06261518 Ry
     estimated scf accuracy    <       0.00000006 Ry

     iteration #263     ecut=    80.00 Ry     beta= 0.10
     Davidson diagonalization with overlap
     ethr =  1.81E-12,  avg # of iterations =  1.0

     negative rho (up, down):  6.083E-02 0.000E+00

     total cpu time spent up to now is    75866.0 secs

     total energy              =  -11682.06261518 Ry
     estimated scf accuracy    <       0.00000003 Ry

     iteration #264     ecut=    80.00 Ry     beta= 0.10
     Davidson diagonalization with overlap
     ethr =  1.81E-12,  avg # of iterations =  1.0

     negative rho (up, down):  6.083E-02 0.000E+00

     total cpu time spent up to now is    76151.1 secs

     total energy              =  -11682.06261518 Ry
     estimated scf accuracy    <       0.00000002 Ry

     iteration #265     ecut=    80.00 Ry     beta= 0.10
     Davidson diagonalization with overlap
     ethr =  1.22E-12,  avg # of iterations =  1.0

     negative rho (up, down):  6.083E-02 0.000E+00

     total cpu time spent up to now is    76435.6 secs

     total energy              =  -11682.06261518 Ry
     estimated scf accuracy    <       0.00000010 Ry

     iteration #266     ecut=    80.00 Ry     beta= 0.10
     Davidson diagonalization with overlap
     ethr =  1.22E-12,  avg # of iterations =  1.0

     negative rho (up, down):  6.083E-02 0.000E+00

     total cpu time spent up to now is    76720.9 secs

     total energy              =  -11682.06261518 Ry
     estimated scf accuracy    <       0.00000009 Ry

     iteration #267     ecut=    80.00 Ry     beta= 0.10
     Davidson diagonalization with overlap
     ethr =  1.22E-12,  avg # of iterations =  1.0

     negative rho (up, down):  6.083E-02 0.000E+00

     total cpu time spent up to now is    77006.2 secs

     total energy              =  -11682.06261518 Ry
     estimated scf accuracy    <       0.00000006 Ry

     iteration #268     ecut=    80.00 Ry     beta= 0.10
     Davidson diagonalization with overlap
     ethr =  1.22E-12,  avg # of iterations =  1.0

     negative rho (up, down):  6.083E-02 0.000E+00

     total cpu time spent up to now is    77292.1 secs

     total energy              =  -11682.06261518 Ry
     estimated scf accuracy    <       0.00000003 Ry

     iteration #269     ecut=    80.00 Ry     beta= 0.10
     Davidson diagonalization with overlap
     ethr =  1.22E-12,  avg # of iterations =  1.0

     negative rho (up, down):  6.083E-02 0.000E+00

     total cpu time spent up to now is    77577.4 secs

     total energy              =  -11682.06261518 Ry
     estimated scf accuracy    <       0.00000002 Ry

     iteration #270     ecut=    80.00 Ry     beta= 0.10
     Davidson diagonalization with overlap
     ethr =  9.07E-13,  avg # of iterations =  1.0

     negative rho (up, down):  6.083E-02 0.000E+00

     total cpu time spent up to now is    77862.6 secs

     total energy              =  -11682.06261518 Ry
     estimated scf accuracy    <       0.00000002 Ry

     iteration #271     ecut=    80.00 Ry     beta= 0.10
     Davidson diagonalization with overlap
     ethr =  8.26E-13,  avg # of iterations =  1.0

     negative rho (up, down):  6.083E-02 0.000E+00

     total cpu time spent up to now is    78147.2 secs

     total energy              =  -11682.06261518 Ry
     estimated scf accuracy    <       0.00000002 Ry

     iteration #272     ecut=    80.00 Ry     beta= 0.10
     Davidson diagonalization with overlap
     ethr =  8.26E-13,  avg # of iterations =  1.0

     negative rho (up, down):  6.083E-02 0.000E+00

     total cpu time spent up to now is    78432.1 secs

     total energy              =  -11682.06261518 Ry
     estimated scf accuracy    <       0.00000003 Ry

     iteration #273     ecut=    80.00 Ry     beta= 0.10
     Davidson diagonalization with overlap
     ethr =  8.26E-13,  avg # of iterations =  1.0

     negative rho (up, down):  6.083E-02 0.000E+00

     total cpu time spent up to now is    78716.4 secs

     total energy              =  -11682.06261518 Ry
     estimated scf accuracy    <       0.00000001 Ry

     iteration #274     ecut=    80.00 Ry     beta= 0.10
     Davidson diagonalization with overlap
     ethr =  7.89E-13,  avg # of iterations =  1.0

     negative rho (up, down):  6.083E-02 0.000E+00

     total cpu time spent up to now is    79001.1 secs

     End of self-consistent calculation

          k = 0.0000 0.0000 0.0000 (****** PWs)   bands (ev):

   -58.2093 -56.3461 -56.1585 -55.9599 -55.7325 -55.6975 -55.1372 -55.0726
   -54.8803 -54.6133 -53.9546 -30.1367 -30.1189 -30.0802 -28.2968 -28.2546
   -28.2128 -28.0975 -28.0749 -28.0535 -27.8932 -27.8856 -27.8457 -27.7004
   -27.6342 -27.6306 -27.6063 -27.6030 -27.5656 -27.2204 -27.1081 -27.0479
   -27.0253 -27.0131 -26.9647 -26.9442 -26.8776 -26.8213 -26.7800 -26.5920
   -26.5510 -26.4952 -26.3505 -26.2999 -25.9489 -25.9186 -25.9054 -25.8774
   -25.8641 -25.8595 -25.8278 -25.6779 -25.6645 -25.6472 -25.5593 -25.4560
   -25.4276 -25.3476 -25.2969 -25.2854 -25.2362 -25.2065 -25.1754 -25.1503
   -25.1377 -25.1084 -25.0967 -25.0834 -25.0395 -25.0287 -25.0056 -24.9701
   -24.9461 -24.9246 -24.9087 -24.9032 -24.8767 -24.8289 -24.8190 -24.7681
   -24.7487 -24.7356 -24.7058 -24.6816 -24.6740 -24.6435 -24.6291 -24.6215
   -24.5876 -24.5727 -24.5472 -24.5045 -24.4906 -24.4739 -24.4574 -24.4344
   -24.4088 -24.4009 -24.3814 -24.3617 -24.3593 -24.3383 -24.3047 -24.2927
   -24.2730 -24.2675 -24.2340 -24.2202 -24.1984 -24.1834 -24.1703 -24.1459
   -24.1303 -24.0963 -24.0784 -24.0680 -24.0475 -24.0221 -24.0090 -23.9878
   -23.9742 -23.9530 -23.9231 -23.9055 -23.8960 -23.8772 -23.8532 -23.8458
   -23.8358 -23.8272 -23.8204 -23.8160 -23.7965 -23.7921 -23.7770 -23.7605
   -23.7426 -23.7357 -23.7307 -23.7123 -23.7020 -23.6784 -23.6484 -23.6463
   -23.6314 -23.6179 -23.5947 -23.5899 -23.5695 -23.5419 -23.5258 -23.5059
   -23.4956 -23.4712 -23.4567 -23.4519 -23.4401 -23.4316 -23.4137 -23.4015
   -23.3790 -23.3759 -23.3405 -23.3235 -23.3195 -23.3049 -23.2971 -23.2942
   -23.2675 -23.2533 -23.2441 -23.2263 -23.2111 -23.1971 -23.1888 -23.1808
   -23.1779 -23.1608 -23.1347 -23.1270 -23.1057 -23.1021 -23.0777 -23.0316
   -23.0175 -23.0065 -22.9858 -22.9745 -22.9531 -22.9310 -22.9255 -22.8993
   -22.8982 -22.8903 -22.8565 -22.8272 -22.8178 -22.7994 -22.7899 -22.7817
   -22.7433 -22.7367 -22.7054 -22.6620 -22.6404 -22.5803 -22.5533 -22.5452
   -22.5214 -22.4891 -22.4781 -22.4194 -22.3816 -22.3609 -22.3468 -22.3366
   -22.3073 -22.2732 -22.2139 -22.1365 -22.0908 -22.0726 -22.0256 -21.9964
   -21.7462 -21.7048 -21.6966 -21.6747 -21.6418 -21.6036 -21.5568 -21.5359
   -21.5049 -21.5030 -21.4098 -20.7285 -20.6820 -20.6489 -20.6398 -20.6384
   -20.6116 -20.6091 -20.5572 -20.5531 -20.4507 -20.2564 -20.1971 -20.1693
   -20.1655 -20.0981 -19.9137 -19.8190 -19.8157 -19.8137 -19.8037 -19.7982
   -19.7974 -19.7780 -19.7668 -19.7575 -19.7519 -19.6875 -19.0477 -18.6083
   -18.1464 -17.4395 -15.5281 -15.3354 -15.2596 -15.2410 -15.2065 -15.0652
   -15.0006 -14.9594 -14.9223 -14.9034 -14.8534 -14.7609 -14.7539 -14.7122
   -14.6951 -14.6649 -14.6465 -14.6058 -14.5745 -14.5318 -14.4607 -14.3995
   -14.3555 -14.2732 -14.1995 -14.1649 -14.1332 -14.0901 -14.0692 -14.0449
   -13.9926 -13.9621 -13.9309 -13.8800 -13.8642 -13.8090 -13.7949 -13.7230
   -13.6883 -13.6551 -13.6226 -13.5777 -13.5605 -13.5372 -13.4550 -13.4482
   -13.4125 -13.3575 -13.3323 -13.2740 -13.2624 -13.2232 -13.2097 -13.1885
   -13.1676 -13.1463 -13.0890 -13.0659 -13.0386 -13.0024 -12.9757 -12.9433
   -12.9337 -12.9093 -12.8957 -12.8624 -12.8327 -12.7667 -12.7434 -12.7000
   -12.6663 -12.6525 -12.6248 -12.5930 -12.5578 -12.5239 -12.5048 -12.4766
   -12.4588 -12.4423 -12.4224 -12.4059 -12.3513 -12.3344 -12.2939 -12.2779
   -12.2618 -12.2370 -12.1982 -12.1535 -12.1163 -12.1075 -12.0762 -12.0658
   -12.0444 -12.0103 -11.9833 -11.9756 -11.9658 -11.9431 -11.9147 -11.8942
   -11.8586 -11.8551 -11.8331 -11.8052 -11.7997 -11.7727 -11.7611 -11.7539
   -11.7186 -11.7003 -11.6827 -11.6684 -11.6516 -11.6378 -11.6213 -11.6097
   -11.5798 -11.5615 -11.5555 -11.5506 -11.5336 -11.5206 -11.4935 -11.4788
   -11.4719 -11.4565 -11.4350 -11.4002 -11.3946 -11.3659 -11.3565 -11.3166
   -11.3010 -11.2920 -11.2747 -11.2630 -11.2537 -11.2396 -11.2228 -11.1947
   -11.1868 -11.1730 -11.1665 -11.1596 -11.1125 -11.1014 -11.0771 -11.0568
   -11.0297 -11.0074 -10.9963 -10.9831 -10.9776 -10.9598 -10.9443 -10.9387
   -10.9193 -10.9078 -10.8918 -10.8851 -10.8676 -10.8272 -10.8112 -10.7894
   -10.7780 -10.7654 -10.7308 -10.7189 -10.7055 -10.6944 -10.6677 -10.6423
   -10.6161 -10.5932 -10.5803 -10.5662 -10.5302 -10.5242 -10.4907 -10.4576
   -10.4453 -10.4218 -10.3898 -10.3828 -10.3299 -10.3081 -10.2983 -10.2736
   -10.2661 -10.2179 -10.1885 -10.1723 -10.1656 -10.1461 -10.0833 -10.0169
   -10.0113 -10.0012  -9.9823  -9.9665  -9.9556  -9.9484  -9.9258  -9.9142
    -9.8996  -9.8794  -9.8598  -9.8291  -9.8225  -9.8082  -9.7616  -9.7219
    -9.6992  -9.6676  -9.6546  -9.6443  -9.6248  -9.6204  -9.6084  -9.5939
    -9.5861  -9.5677  -9.5543  -9.5172  -9.4997  -9.4952  -9.4604  -9.4431
    -9.4364  -9.4266  -9.4251  -9.4111  -9.3935  -9.3704  -9.3528  -9.3299
    -9.3083  -9.2979  -9.2960  -9.2625  -9.2558  -9.2269  -9.2060  -9.1753
    -9.1480  -9.1393  -9.1296  -9.1196  -9.1054  -9.0933  -9.0503  -9.0333
    -9.0054  -8.9792  -8.9741  -8.9667  -8.9458  -8.9291  -8.9165  -8.8999
    -8.8904  -8.8786  -8.8707  -8.8618  -8.8386  -8.8196  -8.8144  -8.8045
    -8.7885  -8.7792  -8.7693  -8.7508  -8.7417  -8.7368  -8.7101  -8.7067
    -8.6957  -8.6898  -8.6759  -8.6655  -8.6500  -8.6434  -8.6417  -8.6345
    -8.6204  -8.6066  -8.5982  -8.5899  -8.5738  -8.5729  -8.5604  -8.5552
    -8.5494  -8.5361  -8.5186  -8.5144  -8.5035  -8.4937  -8.4840  -8.4790
    -8.4712  -8.4511  -8.4429  -8.4310  -8.4151  -8.4101  -8.4018  -8.3916
    -8.3809  -8.3742  -8.3634  -8.3395  -8.3339  -8.3158  -8.3076  -8.2981
    -8.2839  -8.2798  -8.2634  -8.2530  -8.2526  -8.2406  -8.2294  -8.2153
    -8.2108  -8.1987  -8.1815  -8.1653  -8.1596  -8.1513  -8.1416  -8.1406
    -8.1241  -8.1089  -8.1070  -8.0951  -8.0909  -8.0721  -8.0650  -8.0594
    -8.0486  -8.0362  -8.0196  -8.0080  -7.9958  -7.9884  -7.9768  -7.9697
    -7.9582  -7.9535  -7.9436  -7.9396  -7.9304  -7.9210  -7.9058  -7.9018
    -7.8944  -7.8872  -7.8748  -7.8698  -7.8583  -7.8531  -7.8391  -7.8239
    -7.8209  -7.8175  -7.8108  -7.7929  -7.7863  -7.7816  -7.7718  -7.7664
    -7.7531  -7.7433  -7.7347  -7.7184  -7.7131  -7.7051  -7.6961  -7.6936
    -7.6826  -7.6796  -7.6756  -7.6659  -7.6629  -7.6588  -7.6430  -7.6331
    -7.6232  -7.6159  -7.6065  -7.6010  -7.5908  -7.5839  -7.5759  -7.5617
    -7.5542  -7.5406  -7.5365  -7.5184  -7.5114  -7.4927  -7.4908  -7.4836
    -7.4769  -7.4751  -7.4644  -7.4498  -7.4360  -7.4166  -7.4116  -7.3951
    -7.3926  -7.3790  -7.3752  -7.3608  -7.3453  -7.3364  -7.3229  -7.3138
    -7.3074  -7.2988  -7.2899  -7.2754  -7.2576  -7.2525  -7.2476  -7.2411
    -7.2319  -7.2230  -7.2128  -7.1955  -7.1906  -7.1863  -7.1651  -7.1613
    -7.1489  -7.1417  -7.1378  -7.1324  -7.1215  -7.1110  -7.1015  -7.0940
    -7.0899  -7.0723  -7.0638  -7.0605  -7.0423  -7.0325  -7.0229  -7.0169
    -7.0011  -6.9970  -6.9914  -6.9822  -6.9775  -6.9546  -6.9466  -6.9386
    -6.9253  -6.9120  -6.8911  -6.8861  -6.8637  -6.8602  -6.8576  -6.8419
    -6.8323  -6.8243  -6.8148  -6.8039  -6.7934  -6.7840  -6.7723  -6.7678
    -6.7593  -6.7506  -6.7401  -6.7290  -6.7263  -6.7201  -6.7074  -6.6916
    -6.6839  -6.6729  -6.6555  -6.6513  -6.6386  -6.6284  -6.6062  -6.6004
    -6.5889  -6.5815  -6.5580  -6.5533  -6.5464  -6.5446  -6.5226  -6.5187
    -6.5043  -6.4986  -6.4913  -6.4834  -6.4722  -6.4645  -6.4466  -6.4349
    -6.4227  -6.4156  -6.4014  -6.3926  -6.3822  -6.3665  -6.3563  -6.3464
    -6.3280  -6.3208  -6.3192  -6.3113  -6.3056  -6.2878  -6.2657  -6.2600
    -6.2308  -6.2014  -6.1971  -6.1881  -6.1750  -6.1721  -6.1654  -6.1566
    -6.1451  -6.1256  -6.1178  -6.0996  -6.0874  -6.0825  -6.0724  -6.0664
    -6.0492  -6.0371  -6.0366  -6.0288  -6.0119  -5.9981  -5.9930  -5.9793
    -5.9735  -5.9537  -5.9448  -5.9428  -5.9168  -5.9092  -5.8897  -5.8827
    -5.8796  -5.8570  -5.8463  -5.8313  -5.8191  -5.8168  -5.8097  -5.7934
    -5.7842  -5.7742  -5.7552  -5.7469  -5.7434  -5.7312  -5.7227  -5.7132
    -5.6930  -5.6669  -5.6547  -5.6289  -5.6163  -5.6041  -5.5895  -5.5592
    -5.5495  -5.5408  -5.5325  -5.5233  -5.4899  -5.4773  -5.4540  -5.4426
    -5.4404  -5.4294  -5.4280  -5.4135  -5.4106  -5.3697  -5.3598  -5.3384
    -5.3212  -5.3122  -5.2716  -5.2481  -5.2274  -5.2008  -5.1682  -5.1529
    -5.1470  -5.1256  -5.0990  -5.0697  -4.9533  -4.9426  -4.9302  -4.9211
    -4.9197  -4.9103  -4.8471  -4.8121  -4.8083  -4.7873  -4.7765  -4.7325
    -4.7099  -4.6914  -4.5992  -4.5677  -4.5667  -4.5657  -4.5402  -4.5304
    -4.5253  -4.4345  -4.3403  -4.3268  -4.2902  -4.2538  -4.2093  -4.1316
    -4.1294  -4.1252  -4.0951  -4.0625  -4.0408  -4.0255  -4.0053  -3.9970
    -3.9876  -3.9861  -3.9700  -3.9488  -3.9334  -3.9328  -3.9265  -3.9154
    -3.9025  -3.9000  -3.8968  -3.8889  -3.8852  -3.8818  -3.8778  -3.8720
    -3.8665  -3.8620  -3.8469  -3.8324  -3.8194  -3.8116  -3.8096  -3.8055
    -3.7964  -3.7953  -3.7623  -3.7533  -3.7343  -3.7153  -3.7141  -3.7040
    -3.6314  -3.5379  -3.4728  -3.4709  -3.4248  -3.3663  -3.2706  -3.2182
    -2.8141  -2.7233  -2.4234  -2.1713  -1.9557  -1.8024  -1.6354  -0.7287
    -0.6481  -0.5246  -0.5124  -0.4208  -0.3596  -0.3317  -0.2834  -0.2414
    -0.2003  -0.1715  -0.1043  -0.0122   0.1443   0.2528   0.3039   0.3455
     0.4722   0.5071   0.5398   0.5598   0.6085   0.6162   0.6514   0.6814
     0.7523   0.7910   0.8165   0.8374   0.8796   0.9331   0.9729   0.9804
     1.0266   1.0343   1.0748   1.0956   1.1410   1.1481   1.1813   1.2053
     1.2288   1.2361   1.2512   1.2742   1.3109   1.3270   1.3776   1.3828
     1.4150   1.4219   1.4299   1.4555   1.4919   1.4996   1.5336   1.5478
     1.5701   1.5945   1.6086   1.6310   1.6782   1.6856   1.7041   1.7168
     1.7420   1.7522   1.7749   1.7851   1.8156   1.8297   1.8421   1.8553
     1.8730   1.8929   1.9109   1.9297   1.9332   1.9430   1.9620   1.9732
     1.9899   1.9987   2.0232   2.0359   2.0511   2.0653   2.0787   2.0886
     2.0971   2.1144   2.1376   2.1384   2.1607   2.1804   2.1893   2.2116
     2.2256   2.2314   2.2473   2.2607   2.2674   2.2779   2.2843   2.2925
     2.3139   2.3330   2.3436   2.3524   2.3676   2.3801   2.3991   2.4104
     2.4196   2.4308   2.4423   2.4503   2.4602   2.4689   2.4789   2.5004
     2.5054   2.5124   2.5178   2.5292   2.5402   2.5588   2.5675   2.5683
     2.5755   2.5897   2.5985   2.6184   2.6275   2.6326   2.6442   2.6528
     2.6566   2.6682   2.6725   2.6786   2.6938   2.7133   2.7235   2.7248
     2.7332   2.7416   2.7461   2.7642   2.7687   2.7808   2.7850   2.7989
     2.8074   2.8105   2.8233   2.8375   2.8451   2.8559   2.8635   2.8718
     2.8825   2.8872   2.9107

     the Fermi energy is    -3.7705 ev

!    total energy              =  -11682.06261516 Ry
     estimated scf accuracy    <          7.7E-09 Ry
     smearing contrib. (-TS)   =      -0.11103118 Ry
     internal energy E=F+TS    =  -11681.95158399 Ry

     The total energy is F=E-TS. E is the sum of the following terms:
     one-electron contribution = -376427.39603283 Ry
     hartree contribution      =  188666.03048977 Ry
     xc contribution           =   -2471.07585140 Ry
     ewald contribution        =  180910.19275491 Ry
     one-center paw contrib.   =   -2359.70294444 Ry

     convergence has been achieved in 274 iterations

     negative rho (up, down):  6.083E-02 0.000E+00

     Forces acting on atoms (cartesian axes, Ry/au):

     atom    1 type  1   force =     0.01206871    0.01301829    0.05573732
     atom    2 type  1   force =     0.02835730    0.02473799   -0.00007930
     atom    3 type  1   force =     0.00770901    0.00112519   -0.00298180
     atom    4 type  1   force =    -0.01241786   -0.01530114   -0.01019074
     atom    5 type  1   force =     0.01488425   -0.02344701   -0.02641577
     atom    6 type  1   force =     0.00194627   -0.00276505    0.00608927
     atom    7 type  1   force =    -0.00852192    0.01192079    0.01216585
     atom    8 type  1   force =    -0.01189122   -0.03211414    0.00377318
     atom    9 type  1   force =    -0.00133723    0.00625585    0.01390536
     atom   10 type  1   force =     0.01823531   -0.00179970    0.01777218
     atom   11 type  1   force =    -0.01213961   -0.00421370   -0.00855850
     atom   12 type  2   force =     0.00659991    0.12358011   -0.04030715
     atom   13 type  2   force =     0.13678194    0.10079321   -0.00098522
     atom   14 type  2   force =     0.08187209    0.03199437   -0.06335578
     atom   15 type  2   force =     0.14685715   -0.03943314   -0.15255088
     atom   16 type  2   force =     0.02140184    0.04230174    0.04010715
     atom   17 type  2   force =     0.15348669    0.02080061    0.25473383
     atom   18 type  2   force =    -0.01318683   -0.04587409   -0.04886143
     atom   19 type  2   force =    -0.01062319    0.03805363   -0.10126314
     atom   20 type  2   force =    -0.02584088   -0.01292511   -0.04075439
     atom   21 type  2   force =    -0.05498292    0.13518702   -0.03914944
     atom   22 type  2   force =     0.03285088   -0.12990233    0.08933283
     atom   23 type  2   force =    -0.03918221   -0.06720730   -0.05682340
     atom   24 type  2   force =     0.03242772    0.02645789    0.01040612
     atom   25 type  2   force =     0.06620644    0.00755086    0.07227367
     atom   26 type  2   force =    -0.02854220   -0.01780021    0.00378611
     atom   27 type  2   force =     0.04118307    0.11482780   -0.07183308
     atom   28 type  2   force =    -0.00252130   -0.05898274   -0.00772045
     atom   29 type  2   force =    -0.03158882   -0.05071020    0.08191240
     atom   30 type  2   force =     0.03234852   -0.03178975   -0.03921471
     atom   31 type  2   force =     0.05089079    0.03296156    0.01528358
     atom   32 type  2   force =    -0.00993412   -0.06664029    0.08850818
     atom   33 type  2   force =    -0.05590187    0.01787874   -0.05524496
     atom   34 type  2   force =     0.06057564   -0.02806214   -0.02159419
     atom   35 type  3   force =    -0.01364307   -0.08003437    0.00719277
     atom   36 type  3   force =    -0.16588732    0.08903309   -0.04968069
     atom   37 type  3   force =    -0.06739947    0.03578353   -0.01433703
     atom   38 type  3   force =    -0.05400742   -0.00049101   -0.00876232
     atom   39 type  3   force =     0.07415815    0.00731380    0.01080481
     atom   40 type  3   force =     0.08618703    0.02276308   -0.04239546
     atom   41 type  3   force =    -0.10961756   -0.09012071   -0.13323354
     atom   42 type  3   force =     0.00933040   -0.05771615    0.06508782
     atom   43 type  3   force =     0.01847244   -0.02171705   -0.04908061
     atom   44 type  3   force =     0.06031038    0.10738323    0.04267328
     atom   45 type  3   force =    -0.03229303   -0.00092826   -0.03131757
     atom   46 type  3   force =    -0.03629181    0.12447504    0.06001929
     atom   47 type  3   force =    -0.05593304    0.00761193   -0.14693112
     atom   48 type  3   force =    -0.02871277   -0.12427319   -0.13821454
     atom   49 type  3   force =     0.06187112    0.18254600    0.05260115
     atom   50 type  3   force =     0.04006355   -0.01152350   -0.09690760
     atom   51 type  3   force =    -0.02039166    0.04250488    0.07800695
     atom   52 type  3   force =    -0.12112951   -0.10579727    0.11970975
     atom   53 type  3   force =    -0.12322593   -0.10995033   -0.05448720
     atom   54 type  3   force =    -0.03661567   -0.02304721    0.10071922
     atom   55 type  3   force =    -0.14474219    0.02233056    0.02852383
     atom   56 type  3   force =    -0.02270681    0.01104938    0.12233741
     atom   57 type  3   force =     0.00695859   -0.09540331   -0.04873720
     atom   58 type  3   force =     0.06097035   -0.00847021    0.04793211
     atom   59 type  3   force =    -0.03571759   -0.01078326    0.03919826
     atom   60 type  3   force =     0.07916961   -0.07434887   -0.00266048
     atom   61 type  3   force =     0.01663437    0.18862382    0.03856158
     atom   62 type  3   force =    -0.01921186   -0.01708148   -0.00522637
     atom   63 type  3   force =     0.01613072    0.01075438   -0.00503630
     atom   64 type  3   force =     0.00316539    0.05904546    0.08356815
     atom   65 type  3   force =     0.00124936    0.02240853    0.01018941
     atom   66 type  3   force =    -0.01455389    0.00053846   -0.01547955
     atom   67 type  3   force =     0.05152234    0.01342558    0.08899017
     atom   68 type  3   force =    -0.06496390   -0.03457496    0.08034112
     atom   69 type  3   force =     0.04521544    0.03735265    0.03270231
     atom   70 type  3   force =    -0.05006362   -0.06653444   -0.05627067
     atom   71 type  3   force =     0.04840007   -0.03757621    0.05316778
     atom   72 type  3   force =     0.01351678    0.11137367    0.20185361
     atom   73 type  3   force =    -0.07874205    0.05096257   -0.07598371
     atom   74 type  3   force =     0.00648817   -0.06741705   -0.04811461
     atom   75 type  3   force =    -0.06300464    0.00856647   -0.00202048
     atom   76 type  3   force =     0.04406819   -0.10657277   -0.06073811
     atom   77 type  3   force =    -0.02990755    0.07951084    0.03358146
     atom   78 type  3   force =    -0.09887433   -0.02043296   -0.06782982
     atom   79 type  3   force =     0.00283066   -0.04082923    0.04532782
     atom   80 type  3   force =    -0.03160700    0.03979370   -0.00583062
     atom   81 type  3   force =     0.03108497    0.01818531   -0.04068557
     atom   82 type  3   force =    -0.04356219    0.01923147   -0.05325762
     atom   83 type  3   force =    -0.05117102    0.09463833    0.02504553
     atom   84 type  3   force =    -0.02500260    0.04010767   -0.04020831
     atom   85 type  3   force =    -0.01116156   -0.09874878    0.07745939
     atom   86 type  3   force =    -0.02854600   -0.07908649   -0.10417297
     atom   87 type  3   force =     0.00535877   -0.00330349    0.00756896
     atom   88 type  3   force =    -0.00062563    0.05406729   -0.11945822
     atom   89 type  3   force =    -0.03204645   -0.02239506    0.10061932
     atom   90 type  3   force =     0.05384088   -0.04778337   -0.04608155
     atom   91 type  3   force =     0.06673886    0.04110548   -0.01444036
     atom   92 type  3   force =    -0.00872944   -0.00665431   -0.02088633
     atom   93 type  3   force =    -0.08711380   -0.10446796   -0.00561553
     atom   94 type  3   force =     0.07108744    0.09529461    0.05925923
     atom   95 type  3   force =    -0.01089795   -0.01086187   -0.06861390
     atom   96 type  3   force =    -0.09377573   -0.01186764    0.15330734
     atom   97 type  3   force =    -0.02844208   -0.04644858   -0.00152683
     atom   98 type  3   force =     0.10437960    0.01088679    0.09578264
     atom   99 type  3   force =    -0.05536952   -0.00648941    0.03685625
     atom  100 type  3   force =     0.02088386   -0.07763260    0.07716218
     atom  101 type  3   force =    -0.05983636    0.02842672   -0.01134430
     atom  102 type  3   force =     0.03045446    0.01706573    0.03181733
     atom  103 type  3   force =     0.04746782    0.03100993    0.09816556
     atom  104 type  3   force =    -0.08263876   -0.07725304   -0.00430108
     atom  105 type  3   force =     0.02943751    0.05394936   -0.00620150
     atom  106 type  3   force =     0.05203963    0.12589274   -0.01019056
     atom  107 type  3   force =    -0.02829719   -0.00299643    0.02852098
     atom  108 type  3   force =     0.04726286   -0.01997861    0.04124051
     atom  109 type  3   force =     0.10915982    0.02058400   -0.03963199
     atom  110 type  3   force =     0.13949043    0.00804138   -0.06090625
     atom  111 type  3   force =    -0.02206165   -0.01764333    0.02065049
     atom  112 type  3   force =    -0.06922921    0.09484709   -0.00922102
     atom  113 type  3   force =     0.02135377   -0.01955080   -0.05566438
     atom  114 type  3   force =    -0.03919002    0.02197916    0.08204847
     atom  115 type  3   force =     0.01478821   -0.02781753    0.07846055
     atom  116 type  3   force =     0.08478499    0.00791980   -0.04822232
     atom  117 type  3   force =    -0.07021443    0.00132108    0.03842441
     atom  118 type  3   force =    -0.11616790    0.11031359    0.02523161
     atom  119 type  3   force =     0.06926329   -0.00303365    0.03301957
     atom  120 type  3   force =     0.00998875    0.03048208    0.10910191
     atom  121 type  3   force =     0.12415834    0.07399169    0.02125009
     atom  122 type  4   force =     0.03932982    0.01289967    0.02848251
     atom  123 type  4   force =    -0.06150605   -0.04000910   -0.00957683
     atom  124 type  4   force =     0.00368486    0.02433816   -0.04653449
     atom  125 type  4   force =     0.01805218   -0.00603842   -0.00406163
     atom  126 type  4   force =    -0.13024715   -0.14687384   -0.01257050
     atom  127 type  4   force =    -0.09958415   -0.12874044   -0.07569624
     atom  128 type  4   force =     0.01061978   -0.04951676    0.05928111
     atom  129 type  4   force =     0.00820113   -0.06006555   -0.01205025
     atom  130 type  4   force =     0.00894092   -0.02175915    0.00902912
     atom  131 type  4   force =     0.00173661   -0.02134369   -0.02799802
     atom  132 type  4   force =     0.04926489   -0.03884051   -0.01752495
     atom  133 type  4   force =    -0.03660659   -0.05916375    0.03621805
     atom  134 type  4   force =    -0.09365939    0.00764074   -0.04014386
     atom  135 type  4   force =     0.02244720   -0.02726477    0.12361827
     atom  136 type  4   force =     0.01811655   -0.01010022   -0.01879907
     atom  137 type  4   force =     0.05385849    0.04132307   -0.03427700
     atom  138 type  4   force =     0.01416714    0.00385841   -0.01758404
     atom  139 type  4   force =    -0.00656424    0.02850030   -0.02184902
     atom  140 type  4   force =     0.02168717   -0.06873054    0.02146700
     atom  141 type  4   force =     0.05982852   -0.00979714    0.00143280
     atom  142 type  4   force =    -0.10531644   -0.05309378    0.04695674
     atom  143 type  4   force =    -0.15560452   -0.03962718   -0.09655596
     atom  144 type  4   force =    -0.00540903   -0.01766822    0.02968551
     atom  145 type  4   force =    -0.04007850    0.03664513    0.01584553
     atom  146 type  4   force =    -0.02193757    0.01697380   -0.02263723
     atom  147 type  4   force =    -0.13167271   -0.04973745    0.03190350
     atom  148 type  4   force =     0.01376964   -0.02009978   -0.01319000
     atom  149 type  4   force =     0.06869157    0.03555676    0.01722620
     atom  150 type  4   force =    -0.07554878   -0.05939649   -0.02199494
     atom  151 type  4   force =     0.05095281    0.03687335    0.02437749
     atom  152 type  4   force =    -0.05806912    0.02455433    0.01490349
     atom  153 type  4   force =     0.07622557    0.01902063    0.07624697
     atom  154 type  4   force =    -0.09642025    0.00600377    0.00622256
     atom  155 type  4   force =    -0.01447282   -0.00987495   -0.01269411
     atom  156 type  4   force =    -0.05077517    0.04088120   -0.02335470
     atom  157 type  4   force =     0.04238645   -0.01069563   -0.00397078
     atom  158 type  4   force =     0.01333735    0.01219387   -0.02450110
     atom  159 type  4   force =     0.06701487    0.00761317   -0.05922341
     atom  160 type  4   force =     0.03931067   -0.08922715    0.01370673
     atom  161 type  4   force =     0.00330470   -0.02859306    0.07156552
     atom  162 type  4   force =     0.05274813    0.09511149    0.01487688
     atom  163 type  4   force =    -0.01545045    0.05830600   -0.01565545
     atom  164 type  4   force =     0.00936414    0.01901725    0.04464897
     atom  165 type  4   force =    -0.07481198    0.00942485    0.04928168
     atom  166 type  4   force =    -0.00165073   -0.10201167    0.00481780
     atom  167 type  4   force =    -0.03960422   -0.04077398   -0.01538252
     atom  168 type  4   force =     0.01713919   -0.18163933    0.05644494
     atom  169 type  4   force =     0.05239646    0.04502426   -0.09540933
     atom  170 type  4   force =     0.02873088   -0.04585524   -0.03701784
     atom  171 type  4   force =     0.01260451   -0.01698423    0.00343130
     atom  172 type  4   force =    -0.06811524    0.00835133   -0.04354881
     atom  173 type  4   force =    -0.03875030    0.00991711   -0.02609477
     atom  174 type  4   force =     0.05691888    0.08602688    0.01825723
     atom  175 type  4   force =     0.01254230    0.03926409    0.00054334
     atom  176 type  4   force =     0.03788893   -0.00547367    0.02538629
     atom  177 type  4   force =     0.06602229   -0.00648707   -0.01047435
     atom  178 type  4   force =    -0.00290104    0.03784203    0.04489911
     atom  179 type  4   force =    -0.01192844    0.02836078    0.00284832
     atom  180 type  4   force =    -0.05577299    0.00453857   -0.00640608
     atom  181 type  4   force =    -0.00004202   -0.00053626    0.09565159
     atom  182 type  4   force =    -0.02452799   -0.06131792    0.05002820
     atom  183 type  4   force =    -0.03213108    0.10363975   -0.05724694
     atom  184 type  4   force =     0.01821755   -0.01128772    0.05188286
     atom  185 type  4   force =     0.04922580   -0.03555495   -0.01663993
     atom  186 type  4   force =    -0.01017247   -0.01958669    0.00026671
     atom  187 type  4   force =    -0.02759739   -0.01186685    0.05015891
     atom  188 type  4   force =    -0.02043018   -0.01687959   -0.04878797
     atom  189 type  4   force =    -0.02167028    0.04019005    0.00208693
     atom  190 type  4   force =     0.05757872   -0.03661346    0.00668630
     atom  191 type  4   force =    -0.01853404   -0.00334637   -0.00673308
     atom  192 type  4   force =    -0.03506594    0.02410948   -0.03110496
     atom  193 type  4   force =     0.03621696   -0.06459139    0.02152699
     atom  194 type  4   force =    -0.04963342    0.00128321   -0.00695988
     atom  195 type  4   force =    -0.01028894   -0.00637558    0.01826237
     atom  196 type  4   force =     0.00031253   -0.02495912   -0.06297963
     atom  197 type  4   force =     0.00976177    0.01542463   -0.00085219
     atom  198 type  4   force =    -0.03848417    0.04218011   -0.01719860
     atom  199 type  4   force =     0.00745295   -0.02664821    0.00640263
     atom  200 type  4   force =    -0.00962019   -0.03603455    0.05776253
     atom  201 type  4   force =    -0.01101957   -0.04867535   -0.02868523
     atom  202 type  4   force =     0.01548485    0.01513867    0.04034192
     atom  203 type  4   force =    -0.05707066   -0.05980400   -0.10745364
     atom  204 type  4   force =    -0.00273812    0.01902080    0.06106774
     atom  205 type  4   force =     0.01024754    0.07348890   -0.01349513
     atom  206 type  4   force =    -0.04090339   -0.03131063   -0.04498450
     atom  207 type  4   force =    -0.00460916   -0.03032027    0.03523717
     atom  208 type  4   force =    -0.00102174    0.01149992   -0.00908015
     atom  209 type  4   force =    -0.04460752    0.03185937   -0.05118193
     atom  210 type  4   force =    -0.01119788    0.01343263   -0.05120777
     atom  211 type  4   force =    -0.00058261   -0.03491554   -0.05666305
     atom  212 type  4   force =     0.03898156   -0.03542305   -0.03499559
     atom  213 type  4   force =     0.04259628   -0.14789785   -0.08380608
     atom  214 type  4   force =     0.05146999    0.06514989   -0.05699392
     atom  215 type  4   force =    -0.02661427   -0.02920813    0.00491966
     atom  216 type  4   force =    -0.02201450    0.07541094    0.04052505
     atom  217 type  4   force =    -0.02415653    0.03768524   -0.04202004
     atom  218 type  4   force =     0.01598394    0.02440334   -0.00839778
     atom  219 type  4   force =    -0.04358234   -0.04027851   -0.00995704
     atom  220 type  4   force =     0.01231126   -0.04194531    0.02354512
     atom  221 type  4   force =    -0.00427502    0.03028184    0.06542996
     atom  222 type  4   force =     0.10393366   -0.01653622    0.00572645
     atom  223 type  4   force =     0.02164361    0.08449680   -0.05116907
     atom  224 type  4   force =     0.03969364    0.02484108   -0.01353597
     atom  225 type  4   force =     0.06195597    0.04993599   -0.00510828
     atom  226 type  4   force =     0.01964796   -0.02451160    0.02001410
     atom  227 type  4   force =    -0.02055853    0.05234500    0.03790462
     atom  228 type  4   force =     0.00319377   -0.01752627   -0.02729408
     atom  229 type  4   force =     0.01399546   -0.00059707    0.05392812
     atom  230 type  4   force =     0.05318543    0.05304150    0.00032343
     atom  231 type  4   force =     0.03956622   -0.02705606    0.07732796
     atom  232 type  4   force =     0.04294350   -0.06422728   -0.00888515
     atom  233 type  4   force =     0.03882420    0.05825198    0.02876263
     atom  234 type  4   force =    -0.03309827   -0.05989684   -0.11474812
     atom  235 type  4   force =    -0.01943196    0.16072144   -0.01615068
     atom  236 type  4   force =     0.08827866   -0.01619356   -0.04630659
     atom  237 type  4   force =     0.00616724    0.00682683    0.01185390
     atom  238 type  4   force =    -0.01108351   -0.01274094    0.04246490
     atom  239 type  4   force =     0.01768185   -0.03481288    0.00858117
     atom  240 type  4   force =     0.07773668    0.03093499    0.02805578
     atom  241 type  4   force =     0.03216530   -0.01985620   -0.00497905
     atom  242 type  4   force =    -0.20412595   -0.02975489    0.07881615
     atom  243 type  4   force =     0.03000776    0.00103707    0.01942100
     atom  244 type  4   force =    -0.05075659   -0.00220084   -0.04643262
     atom  245 type  4   force =    -0.01907394   -0.02921220   -0.09498140
     atom  246 type  4   force =     0.02483012   -0.00901974   -0.03104227
     atom  247 type  4   force =    -0.00850235   -0.01537789   -0.07109308
     atom  248 type  4   force =    -0.01647754    0.03018703    0.05862045
     atom  249 type  4   force =     0.03770738    0.02662813   -0.06226680
     atom  250 type  4   force =    -0.08141854   -0.01734549    0.00399051
     atom  251 type  4   force =    -0.00794809   -0.00415946   -0.01974895
     atom  252 type  4   force =    -0.07012635    0.01616800   -0.04678091
     atom  253 type  4   force =     0.00111286   -0.04523453   -0.11103351
     atom  254 type  4   force =    -0.09183482    0.01300386   -0.01442771
     atom  255 type  4   force =     0.01593829   -0.01867033    0.02011704
     atom  256 type  4   force =     0.03197185   -0.00788968    0.03507024
     atom  257 type  4   force =     0.02662127   -0.02482244    0.03378177
     atom  258 type  4   force =     0.00074329    0.01290931   -0.02933451
     atom  259 type  4   force =     0.04791066    0.01496879   -0.00917753
     atom  260 type  4   force =    -0.04564833   -0.01196933   -0.06138186
     atom  261 type  4   force =     0.04154334    0.02788269   -0.03946659
     atom  262 type  4   force =    -0.05492011   -0.01082143    0.04579999
     atom  263 type  4   force =     0.09637495   -0.02625726    0.01758106
     atom  264 type  4   force =    -0.04552695    0.04277994   -0.02248365
     atom  265 type  4   force =     0.02362405    0.02374955   -0.03987039
     atom  266 type  4   force =     0.02704527    0.02042509   -0.04794393
     atom  267 type  4   force =     0.07695930   -0.00448542   -0.04037691
     atom  268 type  4   force =     0.02722880   -0.04396513   -0.03147450
     atom  269 type  4   force =    -0.01669886   -0.06729592    0.00513738
     atom  270 type  4   force =    -0.07076710   -0.01668795   -0.03091019
     atom  271 type  4   force =     0.06953265    0.01179565    0.00860152
     atom  272 type  4   force =     0.02762548    0.05475972   -0.01280857
     atom  273 type  4   force =     0.00236659   -0.00615208    0.04730390
     atom  274 type  4   force =    -0.02436381    0.00264376    0.02683227
     atom  275 type  4   force =    -0.01116110   -0.01979852    0.01743545
     atom  276 type  4   force =     0.04370957    0.07936457    0.06954251
     atom  277 type  4   force =     0.02649850   -0.01174756   -0.07686822
     atom  278 type  4   force =    -0.01521549    0.05798397    0.03860498
     atom  279 type  4   force =    -0.01197006   -0.02133868    0.00412019
     atom  280 type  4   force =    -0.02503436    0.05638050    0.00615438
     atom  281 type  4   force =     0.04150622    0.03262995    0.04291254
     atom  282 type  4   force =     0.03705249   -0.05189862    0.01557919
     atom  283 type  4   force =     0.00383698   -0.06496730   -0.03319498
     atom  284 type  4   force =     0.07192462   -0.05361131   -0.03080959
     atom  285 type  4   force =     0.01866485   -0.01667288    0.01419524
     atom  286 type  4   force =    -0.11852156   -0.02988720   -0.06955230
     atom  287 type  4   force =    -0.01605107   -0.00148163    0.04433000
     atom  288 type  4   force =     0.04294442   -0.01955629   -0.05689036
     atom  289 type  4   force =     0.02103127    0.09123492   -0.02703680
     atom  290 type  4   force =     0.10280221   -0.06005008   -0.11020642
     atom  291 type  4   force =    -0.03031241    0.01413134   -0.01578198
     atom  292 type  4   force =    -0.00962525   -0.00569877   -0.00337314
     atom  293 type  4   force =    -0.00672288   -0.02634502   -0.04993773
     atom  294 type  4   force =     0.08045804   -0.02988022    0.16738408
     atom  295 type  4   force =    -0.05432458    0.06540837    0.06785756
     atom  296 type  4   force =    -0.05999874    0.01957381    0.03731385
     atom  297 type  4   force =    -0.01160517    0.01580632   -0.02790731
     atom  298 type  4   force =     0.01259768    0.01440289    0.01864205
     atom  299 type  4   force =    -0.06670867   -0.14477905   -0.02716901
     atom  300 type  4   force =    -0.01305726   -0.05708337   -0.04650634
     atom  301 type  4   force =    -0.07367726    0.03981592    0.02569138
     atom  302 type  4   force =     0.00589435    0.12613284    0.11014836
     atom  303 type  4   force =    -0.01451945   -0.02436834   -0.04000874
     atom  304 type  4   force =    -0.03896878   -0.00171277    0.01101429
     atom  305 type  4   force =    -0.03620574   -0.01642150    0.00689500
     atom  306 type  4   force =     0.00814898    0.01600609   -0.05873094
     atom  307 type  4   force =     0.02309913    0.01935695    0.04160968
     atom  308 type  4   force =     0.00958449    0.00084995   -0.05160605
     atom  309 type  4   force =     0.00194297   -0.01982998    0.01366267
     atom  310 type  4   force =     0.09245607   -0.00447088    0.11098633
     atom  311 type  4   force =    -0.03674484   -0.01828073    0.00973859
     atom  312 type  4   force =    -0.02373684    0.02059733    0.01359810
     atom  313 type  4   force =     0.01443861   -0.08748946    0.01929326
     atom  314 type  4   force =    -0.04551594    0.01301626   -0.02423634
     atom  315 type  4   force =    -0.01786857   -0.00346817   -0.02862326
     atom  316 type  4   force =    -0.00786320   -0.00605777    0.01733058
     atom  317 type  4   force =    -0.00055989    0.07032109    0.04174611
     atom  318 type  4   force =     0.04057767    0.00261513   -0.01776864
     atom  319 type  4   force =    -0.02993488   -0.01555129   -0.06168259
     atom  320 type  4   force =     0.04281925   -0.01854509   -0.02713297
     atom  321 type  4   force =    -0.02612978    0.12878903    0.03798784
     atom  322 type  4   force =     0.02392058    0.01086434   -0.06612560
     atom  323 type  4   force =     0.03523431   -0.03551997    0.04970497
     atom  324 type  4   force =     0.05191050    0.00483230   -0.02344637
     atom  325 type  4   force =     0.03437071   -0.02352290   -0.02845693
     atom  326 type  4   force =    -0.00811336    0.11699728    0.05596596
     atom  327 type  4   force =     0.04742597    0.04970195   -0.03999356
     atom  328 type  4   force =     0.02047146    0.00101039   -0.02002690
     atom  329 type  4   force =     0.10553541    0.01046147    0.01863514
     atom  330 type  4   force =     0.02312899   -0.03377194   -0.05080626
     atom  331 type  4   force =     0.03232641    0.04212103   -0.00775810
     atom  332 type  4   force =     0.02255331    0.05175780   -0.01173673
     atom  333 type  4   force =    -0.05385119   -0.05606109    0.02724408
     atom  334 type  4   force =     0.02410706    0.05111253   -0.03489880
     atom  335 type  4   force =     0.06541674    0.01691007   -0.02387518
     atom  336 type  4   force =    -0.03733334   -0.03121254   -0.04416348
     atom  337 type  4   force =    -0.01342815   -0.00582909   -0.02237077
     atom  338 type  4   force =    -0.05718092    0.04301391   -0.01893909
     atom  339 type  5   force =    -0.02058864    0.02340423    0.03449042
     atom  340 type  5   force =     0.01177908   -0.03413706    0.03421096
     atom  341 type  6   force =     0.01267686    0.01377604   -0.00120187
     atom  342 type  6   force =    -0.00819087   -0.02090208   -0.02237851
     atom  343 type  6   force =    -0.00607980   -0.03952492    0.01071018
     atom  344 type  6   force =     0.00632620   -0.03617883    0.00433569
     atom  345 type  6   force =    -0.00891002    0.04312656   -0.00093303
     atom  346 type  6   force =    -0.01067078    0.03644786   -0.00335211
     atom  347 type  6   force =     0.02750002    0.01155736    0.00808447
     atom  348 type  6   force =    -0.02838822    0.01273993   -0.00632386
     atom  349 type  6   force =     0.02818458   -0.00888363    0.00129171
     atom  350 type  6   force =    -0.00685079   -0.00374894   -0.02624838
     atom  351 type  7   force =     0.01303434    0.00148789   -0.02339826
     atom  352 type  7   force =    -0.00369851    0.00413345    0.00025275
     atom  353 type  7   force =     0.00447920   -0.00207962   -0.00181557
     atom  354 type  7   force =    -0.00125927   -0.00652330   -0.00525039
     atom  355 type  7   force =     0.00297564   -0.00355721    0.00214273
     atom  356 type  7   force =    -0.00202024   -0.00394111   -0.00136595
     atom  357 type  7   force =     0.00280622    0.00351036    0.00141773
     atom  358 type  7   force =    -0.00351218    0.00321300   -0.00043921

     Total force =     1.688217     Total SCF correction =     0.000143


     Computing stress (Cartesian axis) and pressure


     negative rho (up, down):  6.083E-02 0.000E+00
          total   stress  (Ry/bohr**3)                   (kbar)     P=        8.15
   0.00005298   0.00000137  -0.00000338            7.79        0.20       -0.50
   0.00000137   0.00006204   0.00000301            0.20        9.13        0.44
  -0.00000338   0.00000301   0.00005122           -0.50        0.44        7.53


     Writing all to output data dir ./outputs/pwscf.save/ :
     XML data file, charge density, pseudopotentials, collected wavefunctions
 
     init_run     :    146.19s CPU    149.30s WALL (       1 calls)
     electrons    :  77606.46s CPU  78853.74s WALL (       1 calls)
     forces       :     93.47s CPU     96.36s WALL (       1 calls)
     stress       :    352.65s CPU    357.65s WALL (       1 calls)

     Called by init_run:
     wfcinit      :    130.31s CPU    132.11s WALL (       1 calls)
     potinit      :      1.22s CPU      1.32s WALL (       1 calls)
     hinit0       :      1.40s CPU      1.45s WALL (       1 calls)

     Called by electrons:
     c_bands      :  64878.40s CPU  65551.04s WALL (     274 calls)
     sum_band     :  11433.67s CPU  11754.07s WALL (     274 calls)
     v_of_rho     :    123.99s CPU    130.12s WALL (     275 calls)
     newd         :    928.91s CPU   1171.03s WALL (     275 calls)
     PAW_pot      :    155.76s CPU    156.83s WALL (     275 calls)
     mix_rho      :     69.16s CPU     72.39s WALL (     274 calls)

     Called by c_bands:
     init_us_2    :    602.17s CPU    610.59s WALL (     550 calls)
     cegterg      :  64063.43s CPU  64723.52s WALL (     274 calls)

     Called by *egterg:
     cdiaghg      :    918.39s CPU    925.94s WALL (     594 calls)
     h_psi        :  35800.35s CPU  36148.01s WALL (     595 calls)
     s_psi        :  10582.99s CPU  10657.14s WALL (     595 calls)
     g_psi        :     41.49s CPU     42.03s WALL (     320 calls)

     Called by h_psi:
     h_psi:calbec :  10721.22s CPU  10789.47s WALL (     595 calls)
     vloc_psi     :  14436.46s CPU  14576.27s WALL (     595 calls)
                                        0.00s GPU  (     595 calls)
     add_vuspsi   :  10575.24s CPU  10651.23s WALL (     595 calls)

     General routines
     calbec       :  16368.69s CPU  16473.00s WALL (     886 calls)
     fft          :    129.00s CPU    137.12s WALL (    3598 calls)
     ffts         :     11.03s CPU     11.77s WALL (     549 calls)
     fftw         :  14065.97s CPU  14189.74s WALL ( 1546366 calls)
     interpolate  :     15.41s CPU     16.40s WALL (     275 calls)
 
     Parallel routines
 
     PWSCF        :     21h43m CPU     22h 5m WALL

 
   This run was terminated on:  13:24: 6   3Mar2026            

=------------------------------------------------------------------------------=
   JOB DONE.
=------------------------------------------------------------------------------=
