
     Program PWSCF v.7.5 starts on  8Mar2026 at  6:56: 4 

     This program is part of the open-source Quantum ESPRESSO suite
     for quantum simulation of materials; please cite
         "P. Giannozzi et al., J. Phys.:Condens. Matter 21 395502 (2009);
         "P. Giannozzi et al., J. Phys.:Condens. Matter 29 465901 (2017);
         "P. Giannozzi et al., J. Chem. Phys. 152 154105 (2020);
          URL http://www.quantum-espresso.org", 
     in publications or presentations arising from this work. More details at
     http://www.quantum-espresso.org/quote

     Parallel version (MPI), running on    80 processors

     MPI processes distributed on     4 nodes
     79854 MiB available memory on the printing compute node when the environment starts
 
     Reading input from NaphthaleneOnGlassSite2Snapshot24.in
Warning: card &CELL ignored
Warning: card &FCP ignored
Warning: card &RISM ignored

     Current dimensions of program PWSCF are:
     Max number of different atomic species (ntypx) = 10
     Max number of k-points (npk) =  40000
     Max angular momentum in pseudopotentials (lmaxx) =  4
     file Na.paw.z_9.ld1.psl.v1.0.0-low.upf: wavefunction(s)  2P renormalized
     file O.pbe-n-kjpaw_psl.0.1.UPF: wavefunction(s)  2P renormalized
     file Al.pbe-n-kjpaw_psl.1.0.0.UPF: wavefunction(s)  3S 3P renormalized
     file C.pbe-n-kjpaw_psl.1.0.0.UPF: wavefunction(s)  2S 2P renormalized
 
     R & G space division:  proc/nbgrp/npool/nimage =      80
     Subspace diagonalization in iterative solution of the eigenvalue problem:
     one sub-group per band group will be used
     custom distributed-memory algorithm (size of sub-group:  8*  8 procs)

 
     Parallelization info
     --------------------
     sticks:   dense  smooth     PW     G-vecs:    dense   smooth      PW
     Min         450     400    100               199276   167008   20874
     Max         451     401    101               199303   167021   20885
     Sum       36073   32057   8021             15943719 13361281 1670237
 
     Using Slab Decomposition
 


     bravais-lattice index     =            0
     lattice parameter (alat)  =      35.4885  a.u.
     unit-cell volume          =  138228.4306 (a.u.)^3
     number of atoms/cell      =          358
     number of atomic types    =            7
     number of electrons       =      1872.00
     number of Kohn-Sham states=         1123
     kinetic-energy cutoff     =      80.0000  Ry
     charge density cutoff     =     360.0000  Ry
     scf convergence threshold =      1.0E-08
     mixing beta               =       0.1000
     number of iterations used =            8  plain     mixing
     Exchange-correlation= PBE
                           (   1   4   3   4   0   0   0)

     celldm(1)=  35.488539  celldm(2)=   0.000000  celldm(3)=   0.000000
     celldm(4)=   0.000000  celldm(5)=   0.000000  celldm(6)=   0.000000

     crystal axes: (cart. coord. in units of alat)
               a(1) = (   1.000000   0.000000   0.000000 )  
               a(2) = (   0.000000   1.000000   0.000000 )  
               a(3) = (   0.000000   0.000000   3.092666 )  

     reciprocal axes: (cart. coord. in units 2 pi/alat)
               b(1) = (  1.000000  0.000000  0.000000 )  
               b(2) = (  0.000000  1.000000  0.000000 )  
               b(3) = (  0.000000  0.000000  0.323346 )  


     PseudoPot. # 1 for Na read from file:
     /home/sabeel/VOCC_Simulation/pseudopotentials/SSSP_Precision/Na.paw.z_9.ld1.psl.v1.0.0-low.upf
     MD5 check sum: 32bccecb13d7399e6c7dae6fe6685ff0
     Pseudo is Projector augmented-wave + core cor, Zval =  9.0
     Generated using &quot;atomic&quot; code by A. Dal Corso  v.6.3MaX
     Shape of augmentation charge: PSQ
     Using radial grid of 1121 points,  4 beta functions with: 
                l(1) =   0
                l(2) =   0
                l(3) =   1
                l(4) =   1
     Q(r) pseudized with 0 coefficients 


     PseudoPot. # 2 for B  read from file:
     /home/sabeel/VOCC_Simulation/pseudopotentials/SSSP_Precision/B_pbe_v1.01.uspp.F.UPF
     MD5 check sum: d081ebb89d0c768e112975f650467a00
     Pseudo is Ultrasoft + core correction, Zval =  3.0
     Generated by new atomic code, or converted to UPF format
     Using radial grid of  781 points,  4 beta functions with: 
                l(1) =   0
                l(2) =   0
                l(3) =   1
                l(4) =   1
     Q(r) pseudized with  8 coefficients,  rinner =    1.100   1.100   1.100


     PseudoPot. # 3 for Si read from file:
     /home/sabeel/VOCC_Simulation/pseudopotentials/SSSP_Precision/Si.pbe-n-rrkjus_psl.1.0.0.UPF
     MD5 check sum: 0b0bb1205258b0d07b9f9672cf965d36
     Pseudo is Ultrasoft + core correction, Zval =  4.0
     Generated using "atomic" code by A. Dal Corso  v.5.1
     Using radial grid of 1141 points,  6 beta functions with: 
                l(1) =   0
                l(2) =   0
                l(3) =   1
                l(4) =   1
                l(5) =   2
                l(6) =   2
     Q(r) pseudized with 0 coefficients 


     PseudoPot. # 4 for O  read from file:
     /home/sabeel/VOCC_Simulation/pseudopotentials/SSSP_Precision/O.pbe-n-kjpaw_psl.0.1.UPF
     MD5 check sum: 0234752ac141de4415c5fc33072bef88
     Pseudo is Projector augmented-wave + core cor, Zval =  6.0
     Generated using "atomic" code by A. Dal Corso  v.5.0.99 svn rev. 10869
     Shape of augmentation charge: BESSEL
     Using radial grid of 1095 points,  4 beta functions with: 
                l(1) =   0
                l(2) =   0
                l(3) =   1
                l(4) =   1
     Q(r) pseudized with 0 coefficients 


     PseudoPot. # 5 for Al read from file:
     /home/sabeel/VOCC_Simulation/pseudopotentials/SSSP_Precision/Al.pbe-n-kjpaw_psl.1.0.0.UPF
     MD5 check sum: cfc449ca30b5f3223ec38ddd88ac046d
     Pseudo is Projector augmented-wave + core cor, Zval =  3.0
     Generated using "atomic" code by A. Dal Corso  v.5.1
     Shape of augmentation charge: PSQ
     Using radial grid of 1135 points,  6 beta functions with: 
                l(1) =   0
                l(2) =   0
                l(3) =   1
                l(4) =   1
                l(5) =   2
                l(6) =   2
     Q(r) pseudized with 0 coefficients 


     PseudoPot. # 6 for C  read from file:
     /home/sabeel/VOCC_Simulation/pseudopotentials/SSSP_Precision/C.pbe-n-kjpaw_psl.1.0.0.UPF
     MD5 check sum: 5d2aebdfa2cae82b50a7e79e9516da0f
     Pseudo is Projector augmented-wave + core cor, Zval =  4.0
     Generated using "atomic" code by A. Dal Corso  v.5.1
     Shape of augmentation charge: PSQ
     Using radial grid of 1073 points,  4 beta functions with: 
                l(1) =   0
                l(2) =   0
                l(3) =   1
                l(4) =   1
     Q(r) pseudized with 0 coefficients 


     PseudoPot. # 7 for H  read from file:
     /home/sabeel/VOCC_Simulation/pseudopotentials/SSSP_Precision/H_ONCV_PBE-1.0.oncvpsp.upf
     MD5 check sum: 1790becc920ee074925cf490c71280fe
     Pseudo is Norm-conserving, Zval =  1.0
     Generated using ONCVPSP code by D. R. Hamann
     Using radial grid of 1166 points,  2 beta functions with: 
                l(1) =   0
                l(2) =   0

     atomic species   valence    mass     pseudopotential
     Na                9.00    22.98977     Na( 1.00)
     B                 3.00    10.81000     B ( 1.00)
     Si                4.00    28.08500     Si( 1.00)
     O                 6.00    15.99900     O ( 1.00)
     Al                3.00    26.98154     Al( 1.00)
     C                 4.00    12.01100     C ( 1.00)
     H                 1.00     1.00800     H ( 1.00)

     No symmetry found



   Cartesian axes

     site n.     atom                  positions (alat units)
         1        Na     tau(   1) = (   0.2476327   0.1287261   1.4401902  )
         2        Na     tau(   2) = (   0.2347070   0.3964799   1.8357059  )
         3        Na     tau(   3) = (   0.2580766   0.4457236   1.6551511  )
         4        Na     tau(   4) = (   0.0484944   0.0277893   1.6277847  )
         5        Na     tau(   5) = (   0.2352313   0.0813062   1.2863150  )
         6        Na     tau(   6) = (   0.0747243   0.2371463   1.1982473  )
         7        Na     tau(   7) = (   0.1133306   0.7698962   1.8611434  )
         8        Na     tau(   8) = (   0.9037110   0.1954209   1.2700780  )
         9        Na     tau(   9) = (   0.5181841   0.1014052   1.4940734  )
        10        Na     tau(  10) = (   0.3803624   0.0140251   1.8302637  )
        11        Na     tau(  11) = (   0.3545179   0.4989222   1.3772145  )
        12        B      tau(  12) = (   0.9565860   0.6559989   1.4661680  )
        13        B      tau(  13) = (   0.3779039   0.3190213   1.8506233  )
        14        B      tau(  14) = (   0.6357433   0.7757670   1.3375748  )
        15        B      tau(  15) = (   0.9958362   0.0827877   1.8476266  )
        16        B      tau(  16) = (   0.6987179   0.5586979   1.3943070  )
        17        B      tau(  17) = (   0.0903279   0.5997535   1.2200041  )
        18        B      tau(  18) = (   0.9460845   0.5017876   1.4754679  )
        19        B      tau(  19) = (   0.0032347   0.0527127   1.2839437  )
        20        B      tau(  20) = (   0.1241012   0.5940167   1.6016841  )
        21        B      tau(  21) = (   0.4174729   0.9198072   1.5541475  )
        22        B      tau(  22) = (   0.4638227   0.9107282   1.2322731  )
        23        B      tau(  23) = (   0.5096053   0.7092947   1.5000083  )
        24        B      tau(  24) = (   0.4035376   0.9367665   1.6900270  )
        25        B      tau(  25) = (   0.7132674   0.8560217   1.2558196  )
        26        B      tau(  26) = (   0.2579773   0.4217781   1.2874388  )
        27        B      tau(  27) = (   0.1862793   0.2338812   1.3576537  )
        28        B      tau(  28) = (   0.2134919   0.3664862   1.5073156  )
        29        B      tau(  29) = (   0.3546252   0.0462610   1.5293894  )
        30        B      tau(  30) = (   0.8082206   0.9504483   1.6218439  )
        31        B      tau(  31) = (   0.4915043   0.5408159   1.2913026  )
        32        B      tau(  32) = (   0.2471486   0.9450605   1.4099193  )
        33        B      tau(  33) = (   0.7089246   0.1566090   1.6669558  )
        34        B      tau(  34) = (   0.4858908   0.1745693   1.3498737  )
        35        Si     tau(  35) = (   0.5740761   0.3686341   1.4981594  )
        36        Si     tau(  36) = (   0.9600416   0.6521543   1.2713743  )
        37        Si     tau(  37) = (   0.8029666   0.9237355   1.4090604  )
        38        Si     tau(  38) = (   0.6589027   0.0111466   1.4303706  )
        39        Si     tau(  39) = (   0.7148031   0.8518694   1.6658713  )
        40        Si     tau(  40) = (   0.4062844   0.4370669   1.7000479  )
        41        Si     tau(  41) = (   0.8652299   0.0194200   1.2866760  )
        42        Si     tau(  42) = (   0.8792462   0.4724358   1.3313926  )
        43        Si     tau(  43) = (   0.9761010   0.8191325   1.3004490  )
        44        Si     tau(  44) = (   0.0927580   0.6000365   1.4532062  )
        45        Si     tau(  45) = (   0.8492038   0.6801733   1.8429896  )
        46        Si     tau(  46) = (   0.7648638   0.9759642   1.8781504  )
        47        Si     tau(  47) = (   0.8282769   0.9005504   1.7531841  )
        48        Si     tau(  48) = (   0.2400871   0.2615564   1.6009290  )
        49        Si     tau(  49) = (   0.0782160   0.8578516   1.7113893  )
        50        Si     tau(  50) = (   0.1793983   0.5421597   1.3229395  )
        51        Si     tau(  51) = (   0.3045589   0.3154693   1.3856788  )
        52        Si     tau(  52) = (   0.1868342   0.9496617   1.8144358  )
        53        Si     tau(  53) = (   0.5597482   0.9942014   1.8563540  )
        54        Si     tau(  54) = (   0.3283405   0.8654915   1.7979255  )
        55        Si     tau(  55) = (   0.3944303   0.1342286   1.2558232  )
        56        Si     tau(  56) = (   0.5556116   0.4029995   1.7688172  )
        57        Si     tau(  57) = (   0.8886951   0.0519111   1.5515978  )
        58        Si     tau(  58) = (   0.9177874   0.8266438   1.8602018  )
        59        Si     tau(  59) = (   0.5141592   0.7513592   1.7304853  )
        60        Si     tau(  60) = (   0.6200680   0.7296116   1.5975635  )
        61        Si     tau(  61) = (   0.4531771   0.2653855   1.4551164  )
        62        Si     tau(  62) = (   0.9530092   0.1910999   1.6203079  )
        63        Si     tau(  63) = (   0.9806318   0.2594417   1.4695044  )
        64        Si     tau(  64) = (   0.1810221   0.5658568   1.7318917  )
        65        Si     tau(  65) = (   0.2276537   0.6624309   1.2309086  )
        66        Si     tau(  66) = (   0.7086066   0.3068958   1.4624957  )
        67        Si     tau(  67) = (   0.7573617   0.5008676   1.2102682  )
        68        Si     tau(  68) = (   0.0630774   0.5052222   1.8068999  )
        69        Si     tau(  69) = (   0.9531780   0.4208941   1.7332624  )
        70        Si     tau(  70) = (   0.8429520   0.6341042   1.3864806  )
        71        Si     tau(  71) = (   0.8255070   0.2513717   1.7092992  )
        72        Si     tau(  72) = (   0.4660404   0.3166643   1.5999861  )
        73        Si     tau(  73) = (   0.3218087   0.1696541   1.7095271  )
        74        Si     tau(  74) = (   0.6054871   0.0864265   1.2929813  )
        75        Si     tau(  75) = (   0.4402609   0.0821865   1.6559030  )
        76        Si     tau(  76) = (   0.3770531   0.0317907   1.3941734  )
        77        Si     tau(  77) = (   0.5059912   0.8072476   1.3243503  )
        78        Si     tau(  78) = (   0.6069382   0.5044701   1.6609957  )
        79        Si     tau(  79) = (   0.6370349   0.4244534   1.3741369  )
        80        Si     tau(  80) = (   0.6855674   0.7078304   1.8645318  )
        81        Si     tau(  81) = (   0.0765130   0.9298841   1.2314627  )
        82        Si     tau(  82) = (   0.9863684   0.4054382   1.2235204  )
        83        Si     tau(  83) = (   0.4950631   0.2585395   1.7548401  )
        84        Si     tau(  84) = (   0.5719431   0.1160579   1.7357262  )
        85        Si     tau(  85) = (   0.3566442   0.7389475   1.7027041  )
        86        Si     tau(  86) = (   0.5887626   0.6478135   1.7482870  )
        87        Si     tau(  87) = (   0.3778403   0.4701707   1.1981005  )
        88        Si     tau(  88) = (   0.7705746   0.7745811   1.3546535  )
        89        Si     tau(  89) = (   0.6353056   0.3899359   1.2194797  )
        90        Si     tau(  90) = (   0.3199297   0.6027545   1.8036004  )
        91        Si     tau(  91) = (   0.6901246   0.5787282   1.5496775  )
        92        Si     tau(  92) = (   0.1108815   0.9857043   1.4484254  )
        93        Si     tau(  93) = (   0.0087222   0.8101075   1.4596435  )
        94        Si     tau(  94) = (   0.4662737   0.5842118   1.4387730  )
        95        Si     tau(  95) = (   0.1497603   0.1150345   1.8191784  )
        96        Si     tau(  96) = (   0.9119816   0.9073773   1.5284091  )
        97        Si     tau(  97) = (   0.5081777   0.9347421   1.4393654  )
        98        Si     tau(  98) = (   0.9733658   0.9480751   1.7929925  )
        99        Si     tau(  99) = (   0.2449909   0.7736475   1.5958723  )
       100        Si     tau( 100) = (   0.2568298   0.7840856   1.3334763  )
       101        Si     tau( 101) = (   0.1600543   0.7576293   1.4557816  )
       102        Si     tau( 102) = (   0.9190690   0.2974838   1.8287833  )
       103        Si     tau( 103) = (   0.8499270   0.3745654   1.6104514  )
       104        Si     tau( 104) = (   0.8444491   0.5369054   1.7673517  )
       105        Si     tau( 105) = (   0.1203187   0.1732756   1.6597012  )
       106        Si     tau( 106) = (   0.6321686   0.6005607   1.2681838  )
       107        Si     tau( 107) = (   0.6235724   0.8470731   1.8048529  )
       108        Si     tau( 108) = (   0.7501132   0.1202716   1.2309056  )
       109        Si     tau( 109) = (   0.2746484   0.2046900   1.8670863  )
       110        Si     tau( 110) = (   0.2273259   0.0646953   1.6216725  )
       111        Si     tau( 111) = (   0.0729274   0.4042159   1.4579120  )
       112        Si     tau( 112) = (   0.6640697   0.1601480   1.5162335  )
       113        Si     tau( 113) = (   0.1226817   0.7031938   1.6887692  )
       114        Si     tau( 114) = (   0.8406300   0.5276586   1.5875131  )
       115        Si     tau( 115) = (   0.8389500   0.3149315   1.3901795  )
       116        Si     tau( 116) = (   0.1722727   0.9211130   1.5953570  )
       117        Si     tau( 117) = (   0.0763504   0.1375521   1.3930086  )
       118        Si     tau( 118) = (   0.3256209   0.9115638   1.2548481  )
       119        Si     tau( 119) = (   0.3955849   0.7224945   1.4035300  )
       120        Si     tau( 120) = (   0.4652418   0.5499611   1.5942954  )
       121        Si     tau( 121) = (   0.1212618   0.3651412   1.3045003  )
       122        O      tau( 122) = (   0.0295168   0.4481121   1.8630498  )
       123        O      tau( 123) = (   0.8632305   0.7660730   1.8351295  )
       124        O      tau( 124) = (   0.7865379   0.5198677   1.8292109  )
       125        O      tau( 125) = (   0.7687039   0.8065522   1.2712216  )
       126        O      tau( 126) = (   0.2613316   0.2462125   1.3627201  )
       127        O      tau( 127) = (   0.4383841   0.2721051   1.5384261  )
       128        O      tau( 128) = (   0.4075804   0.9041606   1.6244717  )
       129        O      tau( 129) = (   0.2891632   0.9821156   1.2266374  )
       130        O      tau( 130) = (   0.3003666   0.1796727   1.7902854  )
       131        O      tau( 131) = (   0.5973279   0.4225163   1.2949590  )
       132        O      tau( 132) = (   0.5334428   0.5020140   1.6146071  )
       133        O      tau( 133) = (   0.2755656   0.1058719   1.6786020  )
       134        O      tau( 134) = (   0.1545595   0.1075181   1.6150265  )
       135        O      tau( 135) = (   0.1198242   0.5723265   1.5291309  )
       136        O      tau( 136) = (   0.5826608   0.7211316   1.6806210  )
       137        O      tau( 137) = (   0.4384820   0.7620469   1.6969890  )
       138        O      tau( 138) = (   0.3813441   0.2977472   1.4178316  )
       139        O      tau( 139) = (   0.9518571   0.2429557   1.5505285  )
       140        O      tau( 140) = (   0.6668767   0.5177678   1.6031137  )
       141        O      tau( 141) = (   0.1520770   0.1695411   1.3620472  )
       142        O      tau( 142) = (   0.6925009   0.7509516   1.3753791  )
       143        O      tau( 143) = (   0.1434568   0.6580895   1.2139172  )
       144        O      tau( 144) = (   0.4761486   0.9028411   1.5138988  )
       145        O      tau( 145) = (   0.0631356   0.5782061   1.8492954  )
       146        O      tau( 146) = (   0.5876332   0.4146284   1.8503125  )
       147        O      tau( 147) = (   0.1071621   0.8902567   1.6361869  )
       148        O      tau( 148) = (   0.0331486   0.1967754   1.4407710  )
       149        O      tau( 149) = (   0.9443941   0.9810288   1.5588672  )
       150        O      tau( 150) = (   0.5485694   0.5774714   1.2625723  )
       151        O      tau( 151) = (   0.6090489   0.9225244   1.8421140  )
       152        O      tau( 152) = (   0.3184350   0.7927686   1.7545505  )
       153        O      tau( 153) = (   0.2965868   0.2359092   1.6579206  )
       154        O      tau( 154) = (   0.3399948   0.4149078   1.7451441  )
       155        O      tau( 155) = (   0.6583099   0.3076783   1.2358723  )
       156        O      tau( 156) = (   0.5620926   0.7442927   1.5385442  )
       157        O      tau( 157) = (   0.5556976   0.3175372   1.7688381  )
       158        O      tau( 158) = (   0.3525972   0.6632019   1.7471104  )
       159        O      tau( 159) = (   0.9620412   0.3446718   1.7697440  )
       160        O      tau( 160) = (   0.5313272   0.1848172   1.7709556  )
       161        O      tau( 161) = (   0.9429693   0.0183272   1.3239474  )
       162        O      tau( 162) = (   0.4858005   0.9533180   1.8755890  )
       163        O      tau( 163) = (   0.3657073   0.5328581   1.8345358  )
       164        O      tau( 164) = (   0.4406081   0.5066782   1.2484323  )
       165        O      tau( 165) = (   0.3135028   0.2834622   1.8690668  )
       166        O      tau( 166) = (   0.7907911   0.8360261   1.7119523  )
       167        O      tau( 167) = (   0.7289290   0.9234833   1.2340123  )
       168        O      tau( 168) = (   0.1454692   0.2885690   1.3267456  )
       169        O      tau( 169) = (   0.3914991   0.9066251   1.7575926  )
       170        O      tau( 170) = (   0.7079875   0.2222935   1.4707635  )
       171        O      tau( 171) = (   0.9743698   0.8515159   1.5269402  )
       172        O      tau( 172) = (   0.1330105   0.5361140   1.2470617  )
       173        O      tau( 173) = (   0.5827735   0.0420994   1.2254729  )
       174        O      tau( 174) = (   0.8602910   0.6220068   1.7811976  )
       175        O      tau( 175) = (   0.5252483   0.6418342   1.4684534  )
       176        O      tau( 176) = (   0.6556139   0.6691234   1.7930720  )
       177        O      tau( 177) = (   0.9478947   0.4555202   1.2814895  )
       178        O      tau( 178) = (   0.9699578   0.0766966   1.2188133  )
       179        O      tau( 179) = (   0.5480526   0.8088247   1.7836236  )
       180        O      tau( 180) = (   0.3152477   0.7447790   1.3880620  )
       181        O      tau( 181) = (   0.1477991   0.6460434   1.7450578  )
       182        O      tau( 182) = (   0.4226375   0.0083615   1.6949577  )
       183        O      tau( 183) = (   0.5004654   0.8461638   1.2447985  )
       184        O      tau( 184) = (   0.7864920   0.8423242   1.4036977  )
       185        O      tau( 185) = (   0.9046070   0.6136339   1.3286598  )
       186        O      tau( 186) = (   0.1308852   0.5564651   1.3912596  )
       187        O      tau( 187) = (   0.0181193   0.9388870   1.8632981  )
       188        O      tau( 188) = (   0.5236768   0.3172741   1.4469420  )
       189        O      tau( 189) = (   0.6771903   0.1363695   1.2729556  )
       190        O      tau( 190) = (   0.5668565   0.7520726   1.3411952  )
       191        O      tau( 191) = (   0.4390184   0.1054952   1.8920128  )
       192        O      tau( 192) = (   0.2801127   0.0556319   1.5537880  )
       193        O      tau( 193) = (   0.9517833   0.2240015   1.8530263  )
       194        O      tau( 194) = (   0.4078786   0.5134087   1.6517908  )
       195        O      tau( 195) = (   0.6735166   0.7941076   1.8547702  )
       196        O      tau( 196) = (   0.7896414   0.2674110   1.3392843  )
       197        O      tau( 197) = (   0.9136500   0.5214282   1.5392122  )
       198        O      tau( 198) = (   0.5881526   0.4350093   1.4460280  )
       199        O      tau( 199) = (   0.7745755   0.5842257   1.3844862  )
       200        O      tau( 200) = (   0.2034896   0.9862494   1.6415920  )
       201        O      tau( 201) = (   0.1233221   0.6813655   1.4530684  )
       202        O      tau( 202) = (   0.7937827   0.3272627   1.4639956  )
       203        O      tau( 203) = (   0.4473563   0.5396589   1.5104804  )
       204        O      tau( 204) = (   0.6542799   0.3403998   1.5182787  )
       205        O      tau( 205) = (   0.8234572   0.7113307   1.3622509  )
       206        O      tau( 206) = (   0.8127487   0.4431771   1.5824090  )
       207        O      tau( 207) = (   0.5134106   0.6764784   1.7758121  )
       208        O      tau( 208) = (   0.1836556   0.7783442   1.3761575  )
       209        O      tau( 209) = (   0.8104766   0.3105590   1.6473803  )
       210        O      tau( 210) = (   0.3044033   0.9850075   1.3843284  )
       211        O      tau( 211) = (   0.1301504   0.8965179   1.7717389  )
       212        O      tau( 212) = (   0.3197141   0.1653364   1.2298596  )
       213        O      tau( 213) = (   0.4699233   0.1934200   1.4196372  )
       214        O      tau( 214) = (   0.2809558   0.8612246   1.3097159  )
       215        O      tau( 215) = (   0.4264163   0.2824703   1.8051299  )
       216        O      tau( 216) = (   0.6599679   0.6539216   1.5790006  )
       217        O      tau( 217) = (   0.7349642   0.9291111   1.6364595  )
       218        O      tau( 218) = (   0.0099961   0.4612132   1.4800917  )
       219        O      tau( 219) = (   0.5892025   0.1978638   1.5290320  )
       220        O      tau( 220) = (   0.0485841   0.8646896   1.2765110  )
       221        O      tau( 221) = (   0.9732948   0.8322736   1.3845405  )
       222        O      tau( 222) = (   0.4005127   0.1467648   1.7001924  )
       223        O      tau( 223) = (   0.8561165   0.3880932   1.3551362  )
       224        O      tau( 224) = (   0.1908703   0.7320545   1.6493092  )
       225        O      tau( 225) = (   0.5316561   0.3624401   1.5720686  )
       226        O      tau( 226) = (   0.6407674   0.0341441   1.3503554  )
       227        O      tau( 227) = (   0.2507360   0.3493753   1.4464087  )
       228        O      tau( 228) = (   0.5138994   0.8709061   1.3834646  )
       229        O      tau( 229) = (   0.9079300   0.5013233   1.4088368  )
       230        O      tau( 230) = (   0.4395504   0.1937154   1.2966161  )
       231        O      tau( 231) = (   0.2308999   0.6103161   1.2990312  )
       232        O      tau( 232) = (   0.3685013   0.9700313   1.5258447  )
       233        O      tau( 233) = (   0.8514985   0.9494698   1.6877232  )
       234        O      tau( 234) = (   0.0187499   0.4824011   1.7364241  )
       235        O      tau( 235) = (   0.2414021   0.3421124   1.5740169  )
       236        O      tau( 236) = (   0.6097970   0.4413714   1.7163163  )
       237        O      tau( 237) = (   0.4788214   0.4352721   1.7472383  )
       238        O      tau( 238) = (   0.1395403   0.9630524   1.5257738  )
       239        O      tau( 239) = (   0.3787358   0.0784353   1.3203646  )
       240        O      tau( 240) = (   0.5839692   0.9685892   1.4551464  )
       241        O      tau( 241) = (   0.9110607   0.6557788   1.2003494  )
       242        O      tau( 242) = (   0.0686474   0.1043740   1.8437037  )
       243        O      tau( 243) = (   0.1460976   0.3999842   1.5060950  )
       244        O      tau( 244) = (   0.4166165   0.3782170   1.6358330  )
       245        O      tau( 245) = (   0.0075933   0.9084354   1.7265037  )
       246        O      tau( 246) = (   0.8482460   0.9888286   1.2074661  )
       247        O      tau( 247) = (   0.6787187   0.3475581   1.3906861  )
       248        O      tau( 248) = (   0.2793975   0.6318760   1.8700688  )
       249        O      tau( 249) = (   0.1753735   0.9662414   1.3957977  )
       250        O      tau( 250) = (   0.0079684   0.6039592   1.4520956  )
       251        O      tau( 251) = (   0.6799702   0.7916690   1.6137563  )
       252        O      tau( 252) = (   0.8228944   0.4963375   1.2716413  )
       253        O      tau( 253) = (   0.1652982   0.5553089   1.6491463  )
       254        O      tau( 254) = (   0.6527640   0.8346788   1.2935381  )
       255        O      tau( 255) = (   0.0358116   0.1810737   1.6422342  )
       256        O      tau( 256) = (   0.5638762   0.0484964   1.7892635  )
       257        O      tau( 257) = (   0.7314789   0.9670683   1.4359075  )
       258        O      tau( 258) = (   0.2559548   0.8899428   1.4535926  )
       259        O      tau( 259) = (   0.7774448   0.5773609   1.5598674  )
       260        O      tau( 260) = (   0.0868638   0.6515873   1.6288983  )
       261        O      tau( 261) = (   0.2614827   0.9212168   1.7891965  )
       262        O      tau( 262) = (   0.1954831   0.1735609   1.8664394  )
       263        O      tau( 263) = (   0.9906684   0.7948073   1.8435173  )
       264        O      tau( 264) = (   0.4575167   0.9955248   1.4051103  )
       265        O      tau( 265) = (   0.7735858   0.2011661   1.2118609  )
       266        O      tau( 266) = (   0.8814090   0.9281431   1.4499689  )
       267        O      tau( 267) = (   0.4072071   0.9256292   1.2771435  )
       268        O      tau( 268) = (   0.8399764   0.8937974   1.5751596  )
       269        O      tau( 269) = (   0.9802476   0.7272430   1.4739436  )
       270        O      tau( 270) = (   0.4029974   0.6353892   1.4077172  )
       271        O      tau( 271) = (   0.5236271   0.0940762   1.6637713  )
       272        O      tau( 272) = (   0.2291142   0.8566340   1.6031926  )
       273        O      tau( 273) = (   0.1369597   0.1529802   1.7410824  )
       274        O      tau( 274) = (   0.8956842   0.4684356   1.7728116  )
       275        O      tau( 275) = (   0.0304714   0.3296381   1.4668483  )
       276        O      tau( 276) = (   0.9261533   0.1126670   1.5937994  )
       277        O      tau( 277) = (   0.3196110   0.7473434   1.6269653  )
       278        O      tau( 278) = (   0.2346612   0.4755155   1.3381933  )
       279        O      tau( 279) = (   0.0309321   0.9618656   1.4299785  )
       280        O      tau( 280) = (   0.1026240   0.4047238   1.3770124  )
       281        O      tau( 281) = (   0.0996948   0.0720356   1.4419196  )
       282        O      tau( 282) = (   0.9796419   0.7336502   1.2951357  )
       283        O      tau( 283) = (   0.4798587   0.2721799   1.6719849  )
       284        O      tau( 284) = (   0.1447462   0.5042309   1.7791641  )
       285        O      tau( 285) = (   0.6584207   0.0850578   1.4744274  )
       286        O      tau( 286) = (   0.8447302   0.2856675   1.7867899  )
       287        O      tau( 287) = (   0.9236456   0.3532967   1.8933803  )
       288        O      tau( 288) = (   0.7131244   0.4260542   1.2089447  )
       289        O      tau( 289) = (   0.1815374   0.0351118   1.8104616  )
       290        O      tau( 290) = (   0.0329975   0.6097415   1.2681351  )
       291        O      tau( 291) = (   0.8998275   0.8951096   1.8045433  )
       292        O      tau( 292) = (   0.3016404   0.4593341   1.2337882  )
       293        O      tau( 293) = (   0.2631331   0.5633327   1.7490475  )
       294        O      tau( 294) = (   0.7023044   0.1539457   1.5910141  )
       295        O      tau( 295) = (   0.5450848   0.1349270   1.3303906  )
       296        O      tau( 296) = (   0.1632620   0.2443342   1.6379519  )
       297        O      tau( 297) = (   0.1916640   0.3894955   1.2601897  )
       298        O      tau( 298) = (   0.0615898   0.0043928   1.2718305  )
       299        O      tau( 299) = (   0.3967139   0.3875856   1.8762703  )
       300        O      tau( 300) = (   0.4846187   0.5410669   1.3666698  )
       301        O      tau( 301) = (   0.8186424   0.0168112   1.5820830  )
       302        O      tau( 302) = (   0.5974300   0.5762403   1.7036424  )
       303        O      tau( 303) = (   0.4323575   0.7667648   1.3386386  )
       304        O      tau( 304) = (   0.7719883   0.9374236   1.8028857  )
       305        O      tau( 305) = (   0.7672182   0.1900179   1.6976508  )
       306        O      tau( 306) = (   0.8994379   0.0650389   1.4672678  )
       307        O      tau( 307) = (   0.4462121   0.7426137   1.4731770  )
       308        O      tau( 308) = (   0.9211726   0.3961581   1.6533343  )
       309        O      tau( 309) = (   0.2420202   0.2200105   1.5251544  )
       310        O      tau( 310) = (   0.8842963   0.6436934   1.4589679  )
       311        O      tau( 311) = (   0.6482991   0.6785877   1.2330670  )
       312        O      tau( 312) = (   0.4832983   0.6325017   1.6039613  )
       313        O      tau( 313) = (   0.7361349   0.0571749   1.8732737  )
       314        O      tau( 314) = (   0.6649925   0.8590630   1.7336776  )
       315        O      tau( 315) = (   0.9130296   0.2721061   1.4159943  )
       316        O      tau( 316) = (   0.6511009   0.5989696   1.3506902  )
       317        O      tau( 317) = (   0.8131240   0.0898692   1.2825970  )
       318        O      tau( 318) = (   0.6524595   0.1336951   1.7108949  )
       319        O      tau( 319) = (   0.6784211   0.5695802   1.4690337  )
       320        O      tau( 320) = (   0.9018920   0.2183548   1.6834522  )
       321        O      tau( 321) = (   0.9678130   0.0358255   1.7940055  )
       322        O      tau( 322) = (   0.8368182   0.5391156   1.6776043  )
       323        O      tau( 323) = (   0.7668768   0.6856661   1.8697035  )
       324        O      tau( 324) = (   0.1531671   0.9301796   1.8945654  )
       325        O      tau( 325) = (   0.2178402   0.7542098   1.5177838  )
       326        O      tau( 326) = (   0.3614324   0.0782581   1.4600024  )
       327        O      tau( 327) = (   0.4053368   0.0766386   1.5793453  )
       328        O      tau( 328) = (   0.3320739   0.8564650   1.8828345  )
       329        O      tau( 329) = (   0.0914304   0.8126101   1.4681485  )
       330        O      tau( 330) = (   0.2416337   0.7445048   1.2588964  )
       331        O      tau( 331) = (   0.8232583   0.9617889   1.3373563  )
       332        O      tau( 332) = (   0.0224173   0.1103921   1.3331986  )
       333        O      tau( 333) = (   0.0827261   0.7743688   1.7158336  )
       334        O      tau( 334) = (   0.3058372   0.3697607   1.3216954  )
       335        O      tau( 335) = (   0.6940744   0.4843818   1.3763524  )
       336        O      tau( 336) = (   0.0505520   0.3569640   1.2588409  )
       337        O      tau( 337) = (   0.6956442   0.5556100   1.2255199  )
       338        O      tau( 338) = (   0.9205918   0.8444316   1.2442634  )
       339        Al     tau( 339) = (   0.9474166   0.9984982   1.4171699  )
       340        Al     tau( 340) = (   0.7317137   0.2651324   1.2660316  )
       341        C      tau( 341) = (   0.5214378   0.4015461   0.4752955  )
       342        C      tau( 342) = (   0.4479569   0.3909766   0.4623476  )
       343        C      tau( 343) = (   0.5653175   0.3422400   0.4875331  )
       344        C      tau( 344) = (   0.4205128   0.3214128   0.4620335  )
       345        C      tau( 345) = (   0.5488767   0.4711092   0.4756088  )
       346        C      tau( 346) = (   0.4040833   0.4502831   0.4501057  )
       347        C      tau( 347) = (   0.5371518   0.2734980   0.4870173  )
       348        C      tau( 348) = (   0.4648892   0.2631047   0.4742948  )
       349        C      tau( 349) = (   0.5045065   0.5294176   0.4633431  )
       350        C      tau( 350) = (   0.4322510   0.5190244   0.4506111  )
       351        H      tau( 351) = (   0.6219558   0.3491057   0.4975917  )
       352        H      tau( 352) = (   0.3641909   0.3120316   0.4522014  )
       353        H      tau( 353) = (   0.6051969   0.4804959   0.4854456  )
       354        H      tau( 354) = (   0.3474366   0.4434151   0.4400349  )
       355        H      tau( 355) = (   0.5716658   0.2280845   0.4965622  )
       356        H      tau( 356) = (   0.4429953   0.2095720   0.4738994  )
       357        H      tau( 357) = (   0.5264020   0.5829447   0.4637338  )
       358        H      tau( 358) = (   0.3977363   0.5644431   0.4410657  )

     number of k points=     1  Gaussian smearing, width (Ry)=  0.0100
                       cart. coord. in units 2pi/alat
        k(    1) = (   0.0000000   0.0000000   0.0000000), wk =   2.0000000

     Dense  grid: 15943719 G-vectors     FFT dimensions: ( 216, 216, 675)

     Smooth grid: 13361281 G-vectors     FFT dimensions: ( 216, 216, 625)

     Estimated max dynamical RAM per process >       4.14 GB

     Estimated total dynamical RAM >     331.13 GB

     Check: negative core charge=   -0.000001

     Initial potential from superposition of free atoms

     starting charge    1871.8703, renormalised to    1872.0000

     negative rho (up, down):  4.178E-02 0.000E+00
     Starting wfcs are 1419 randomized atomic wfcs
     Checking if some PAW data can be deallocated... 

     total cpu time spent up to now is      149.8 secs

     per-process dynamical memory:  1754.1 Mb

     Self-consistent Calculation

     iteration #  1     ecut=    80.00 Ry     beta= 0.10
     Davidson diagonalization with overlap
     ethr =  1.00E-02,  avg # of iterations =  3.0

     negative rho (up, down):  4.384E-02 0.000E+00

     total cpu time spent up to now is      640.9 secs

     total energy              =  -11693.37274459 Ry
     estimated scf accuracy    <     115.61027024 Ry

     iteration #  2     ecut=    80.00 Ry     beta= 0.10
     Davidson diagonalization with overlap
     ethr =  6.18E-03,  avg # of iterations =  1.0

     negative rho (up, down):  4.556E-02 0.000E+00

     total cpu time spent up to now is      927.0 secs

     total energy              =  -11688.10853903 Ry
     estimated scf accuracy    <      84.84187277 Ry

     iteration #  3     ecut=    80.00 Ry     beta= 0.10
     Davidson diagonalization with overlap
     ethr =  4.53E-03,  avg # of iterations =  1.0

     negative rho (up, down):  4.740E-02 0.000E+00

     total cpu time spent up to now is     1212.1 secs

     total energy              =  -11681.50230333 Ry
     estimated scf accuracy    <      59.20197028 Ry

     iteration #  4     ecut=    80.00 Ry     beta= 0.10
     Davidson diagonalization with overlap
     ethr =  3.16E-03,  avg # of iterations =  2.0

     negative rho (up, down):  4.850E-02 0.000E+00

     total cpu time spent up to now is     1530.9 secs

     total energy              =  -11682.82262985 Ry
     estimated scf accuracy    <      60.37043957 Ry

     iteration #  5     ecut=    80.00 Ry     beta= 0.10
     Davidson diagonalization with overlap
     ethr =  3.16E-03,  avg # of iterations =  1.0

     negative rho (up, down):  4.962E-02 0.000E+00

     total cpu time spent up to now is     1815.7 secs

     total energy              =  -11682.19903115 Ry
     estimated scf accuracy    <      39.49473429 Ry

     iteration #  6     ecut=    80.00 Ry     beta= 0.10
     Davidson diagonalization with overlap
     ethr =  2.11E-03,  avg # of iterations =  1.0

     negative rho (up, down):  5.048E-02 0.000E+00

     total cpu time spent up to now is     2099.6 secs

     total energy              =  -11682.42804016 Ry
     estimated scf accuracy    <      26.84933584 Ry

     iteration #  7     ecut=    80.00 Ry     beta= 0.10
     Davidson diagonalization with overlap
     ethr =  1.43E-03,  avg # of iterations =  2.0

     negative rho (up, down):  5.130E-02 0.000E+00

     total cpu time spent up to now is     2419.3 secs

     total energy              =  -11682.17323348 Ry
     estimated scf accuracy    <      34.78076706 Ry

     iteration #  8     ecut=    80.00 Ry     beta= 0.10
     Davidson diagonalization with overlap
     ethr =  1.43E-03,  avg # of iterations =  1.0

     negative rho (up, down):  5.189E-02 0.000E+00

     total cpu time spent up to now is     2704.1 secs

     total energy              =  -11682.31164572 Ry
     estimated scf accuracy    <      18.92240745 Ry

     iteration #  9     ecut=    80.00 Ry     beta= 0.10
     Davidson diagonalization with overlap
     ethr =  1.01E-03,  avg # of iterations =  2.0

     negative rho (up, down):  5.248E-02 0.000E+00

     total cpu time spent up to now is     3023.5 secs

     total energy              =  -11682.13538502 Ry
     estimated scf accuracy    <      18.56986813 Ry

     iteration # 10     ecut=    80.00 Ry     beta= 0.10
     Davidson diagonalization with overlap
     ethr =  9.92E-04,  avg # of iterations =  1.0

     negative rho (up, down):  5.300E-02 0.000E+00

     total cpu time spent up to now is     3307.9 secs

     total energy              =  -11682.14749906 Ry
     estimated scf accuracy    <      12.88959587 Ry

     iteration # 11     ecut=    80.00 Ry     beta= 0.10
     Davidson diagonalization with overlap
     ethr =  6.89E-04,  avg # of iterations =  2.0

     negative rho (up, down):  5.334E-02 0.000E+00

     total cpu time spent up to now is     3626.8 secs

     total energy              =  -11682.04460561 Ry
     estimated scf accuracy    <      21.72295214 Ry

     iteration # 12     ecut=    80.00 Ry     beta= 0.10
     Davidson diagonalization with overlap
     ethr =  6.89E-04,  avg # of iterations =  2.0

     negative rho (up, down):  5.364E-02 0.000E+00

     total cpu time spent up to now is     3944.3 secs

     total energy              =  -11682.31752272 Ry
     estimated scf accuracy    <       4.86904090 Ry

     iteration # 13     ecut=    80.00 Ry     beta= 0.10
     Davidson diagonalization with overlap
     ethr =  2.60E-04,  avg # of iterations = 16.0

     negative rho (up, down):  5.406E-02 0.000E+00

     total cpu time spent up to now is     4388.7 secs

     total energy              =  -11682.21070114 Ry
     estimated scf accuracy    <       5.61544109 Ry

     iteration # 14     ecut=    80.00 Ry     beta= 0.10
     Davidson diagonalization with overlap
     ethr =  2.60E-04,  avg # of iterations =  1.0

     negative rho (up, down):  5.461E-02 0.000E+00

     total cpu time spent up to now is     4671.6 secs

     total energy              =  -11682.10450458 Ry
     estimated scf accuracy    <       4.70159204 Ry

     iteration # 15     ecut=    80.00 Ry     beta= 0.10
     Davidson diagonalization with overlap
     ethr =  2.51E-04,  avg # of iterations =  1.0

     negative rho (up, down):  5.458E-02 0.000E+00

     total cpu time spent up to now is     4956.0 secs

     total energy              =  -11681.89790051 Ry
     estimated scf accuracy    <      18.40665155 Ry

     iteration # 16     ecut=    80.00 Ry     beta= 0.10
     Davidson diagonalization with overlap
     ethr =  2.51E-04,  avg # of iterations =  1.0

     negative rho (up, down):  5.497E-02 0.000E+00

     total cpu time spent up to now is     5239.4 secs

     total energy              =  -11682.13036736 Ry
     estimated scf accuracy    <       3.61868780 Ry

     iteration # 17     ecut=    80.00 Ry     beta= 0.10
     Davidson diagonalization with overlap
     ethr =  1.93E-04,  avg # of iterations =  1.0

     negative rho (up, down):  5.551E-02 0.000E+00

     total cpu time spent up to now is     5523.8 secs

     total energy              =  -11682.07060285 Ry
     estimated scf accuracy    <       3.74556433 Ry

     iteration # 18     ecut=    80.00 Ry     beta= 0.10
     Davidson diagonalization with overlap
     ethr =  1.93E-04,  avg # of iterations =  2.0

     negative rho (up, down):  5.547E-02 0.000E+00

     total cpu time spent up to now is     5841.1 secs

     total energy              =  -11681.94379298 Ry
     estimated scf accuracy    <       8.58415691 Ry

     iteration # 19     ecut=    80.00 Ry     beta= 0.10
     Davidson diagonalization with overlap
     ethr =  1.93E-04,  avg # of iterations =  2.0

     negative rho (up, down):  5.574E-02 0.000E+00

     total cpu time spent up to now is     6159.9 secs

     total energy              =  -11682.11723912 Ry
     estimated scf accuracy    <       2.85877659 Ry

     iteration # 20     ecut=    80.00 Ry     beta= 0.10
     Davidson diagonalization with overlap
     ethr =  1.53E-04,  avg # of iterations =  1.0

     negative rho (up, down):  5.616E-02 0.000E+00

     total cpu time spent up to now is     6443.9 secs

     total energy              =  -11682.07042733 Ry
     estimated scf accuracy    <       2.96576643 Ry

     iteration # 21     ecut=    80.00 Ry     beta= 0.10
     Davidson diagonalization with overlap
     ethr =  1.53E-04,  avg # of iterations =  1.0

     negative rho (up, down):  5.636E-02 0.000E+00

     total cpu time spent up to now is     6728.4 secs

     total energy              =  -11681.99322581 Ry
     estimated scf accuracy    <      10.19812921 Ry

     iteration # 22     ecut=    80.00 Ry     beta= 0.10
     Davidson diagonalization with overlap
     ethr =  1.53E-04,  avg # of iterations =  1.0

     negative rho (up, down):  5.643E-02 0.000E+00

     total cpu time spent up to now is     7012.9 secs

     total energy              =  -11682.02843848 Ry
     estimated scf accuracy    <      10.17779041 Ry

     iteration # 23     ecut=    80.00 Ry     beta= 0.10
     Davidson diagonalization with overlap
     ethr =  1.53E-04,  avg # of iterations =  1.0

     negative rho (up, down):  5.645E-02 0.000E+00

     total cpu time spent up to now is     7296.4 secs

     total energy              =  -11682.08411176 Ry
     estimated scf accuracy    <       3.11706399 Ry

     iteration # 24     ecut=    80.00 Ry     beta= 0.10
     Davidson diagonalization with overlap
     ethr =  1.53E-04,  avg # of iterations =  1.0

     negative rho (up, down):  5.696E-02 0.000E+00

     total cpu time spent up to now is     7580.5 secs

     total energy              =  -11682.06575506 Ry
     estimated scf accuracy    <       4.29274106 Ry

     iteration # 25     ecut=    80.00 Ry     beta= 0.10
     Davidson diagonalization with overlap
     ethr =  1.53E-04,  avg # of iterations =  1.0

     negative rho (up, down):  5.700E-02 0.000E+00

     total cpu time spent up to now is     7865.4 secs

     total energy              =  -11682.07228401 Ry
     estimated scf accuracy    <       2.59605562 Ry

     iteration # 26     ecut=    80.00 Ry     beta= 0.10
     Davidson diagonalization with overlap
     ethr =  1.39E-04,  avg # of iterations =  1.0

     negative rho (up, down):  5.713E-02 0.000E+00

     total cpu time spent up to now is     8149.6 secs

     total energy              =  -11682.08186144 Ry
     estimated scf accuracy    <       1.64782772 Ry

     iteration # 27     ecut=    80.00 Ry     beta= 0.10
     Davidson diagonalization with overlap
     ethr =  8.80E-05,  avg # of iterations =  1.0

     negative rho (up, down):  5.793E-02 0.000E+00

     total cpu time spent up to now is     8433.3 secs

     total energy              =  -11682.06715073 Ry
     estimated scf accuracy    <       1.89477230 Ry

     iteration # 28     ecut=    80.00 Ry     beta= 0.10
     Davidson diagonalization with overlap
     ethr =  8.80E-05,  avg # of iterations =  1.0

     negative rho (up, down):  5.730E-02 0.000E+00

     total cpu time spent up to now is     8717.6 secs

     total energy              =  -11681.98829966 Ry
     estimated scf accuracy    <       6.10714118 Ry

     iteration # 29     ecut=    80.00 Ry     beta= 0.10
     Davidson diagonalization with overlap
     ethr =  8.80E-05,  avg # of iterations =  1.0

     negative rho (up, down):  5.750E-02 0.000E+00

     total cpu time spent up to now is     9002.0 secs

     total energy              =  -11682.08052148 Ry
     estimated scf accuracy    <       3.51717384 Ry

     iteration # 30     ecut=    80.00 Ry     beta= 0.10
     Davidson diagonalization with overlap
     ethr =  8.80E-05,  avg # of iterations =  1.0

     negative rho (up, down):  5.771E-02 0.000E+00

     total cpu time spent up to now is     9285.8 secs

     total energy              =  -11682.09346726 Ry
     estimated scf accuracy    <       0.80315752 Ry

     iteration # 31     ecut=    80.00 Ry     beta= 0.10
     Davidson diagonalization with overlap
     ethr =  4.29E-05,  avg # of iterations =  1.0

     negative rho (up, down):  5.789E-02 0.000E+00

     total cpu time spent up to now is     9569.2 secs

     total energy              =  -11682.08886654 Ry
     estimated scf accuracy    <       1.56594991 Ry

     iteration # 32     ecut=    80.00 Ry     beta= 0.10
     Davidson diagonalization with overlap
     ethr =  4.29E-05,  avg # of iterations =  1.0

     negative rho (up, down):  5.808E-02 0.000E+00

     total cpu time spent up to now is     9852.7 secs

     total energy              =  -11682.08148096 Ry
     estimated scf accuracy    <       1.25423782 Ry

     iteration # 33     ecut=    80.00 Ry     beta= 0.10
     Davidson diagonalization with overlap
     ethr =  4.29E-05,  avg # of iterations =  2.0

     negative rho (up, down):  5.791E-02 0.000E+00

     total cpu time spent up to now is    10169.9 secs

     total energy              =  -11682.07000371 Ry
     estimated scf accuracy    <       2.96305400 Ry

     iteration # 34     ecut=    80.00 Ry     beta= 0.10
     Davidson diagonalization with overlap
     ethr =  4.29E-05,  avg # of iterations =  1.0

     negative rho (up, down):  5.830E-02 0.000E+00

     total cpu time spent up to now is    10454.1 secs

     total energy              =  -11682.09047756 Ry
     estimated scf accuracy    <       1.24305441 Ry

     iteration # 35     ecut=    80.00 Ry     beta= 0.10
     Davidson diagonalization with overlap
     ethr =  4.29E-05,  avg # of iterations =  1.0

     negative rho (up, down):  5.823E-02 0.000E+00

     total cpu time spent up to now is    10737.5 secs

     total energy              =  -11682.08718122 Ry
     estimated scf accuracy    <       1.16232220 Ry

     iteration # 36     ecut=    80.00 Ry     beta= 0.10
     Davidson diagonalization with overlap
     ethr =  4.29E-05,  avg # of iterations =  1.0

     negative rho (up, down):  5.832E-02 0.000E+00

     total cpu time spent up to now is    11020.7 secs

     total energy              =  -11682.09079201 Ry
     estimated scf accuracy    <       1.26321931 Ry

     iteration # 37     ecut=    80.00 Ry     beta= 0.10
     Davidson diagonalization with overlap
     ethr =  4.29E-05,  avg # of iterations =  1.0

     negative rho (up, down):  5.884E-02 0.000E+00

     total cpu time spent up to now is    11304.4 secs

     total energy              =  -11682.09133310 Ry
     estimated scf accuracy    <       0.55576143 Ry

     iteration # 38     ecut=    80.00 Ry     beta= 0.10
     Davidson diagonalization with overlap
     ethr =  2.97E-05,  avg # of iterations =  2.0

     negative rho (up, down):  5.843E-02 0.000E+00

     total cpu time spent up to now is    11622.1 secs

     total energy              =  -11682.06007529 Ry
     estimated scf accuracy    <       2.31052432 Ry

     iteration # 39     ecut=    80.00 Ry     beta= 0.10
     Davidson diagonalization with overlap
     ethr =  2.97E-05,  avg # of iterations =  1.0

     negative rho (up, down):  5.851E-02 0.000E+00

     total cpu time spent up to now is    11906.0 secs

     total energy              =  -11682.08083487 Ry
     estimated scf accuracy    <       2.63208116 Ry

     iteration # 40     ecut=    80.00 Ry     beta= 0.10
     Davidson diagonalization with overlap
     ethr =  2.97E-05,  avg # of iterations =  1.0

     negative rho (up, down):  5.858E-02 0.000E+00

     total cpu time spent up to now is    12190.4 secs

     total energy              =  -11682.09711588 Ry
     estimated scf accuracy    <       0.44846283 Ry

     iteration # 41     ecut=    80.00 Ry     beta= 0.10
     Davidson diagonalization with overlap
     ethr =  2.40E-05,  avg # of iterations =  2.0

     negative rho (up, down):  5.868E-02 0.000E+00

     total cpu time spent up to now is    12508.6 secs

     total energy              =  -11682.09975706 Ry
     estimated scf accuracy    <       0.31263408 Ry

     iteration # 42     ecut=    80.00 Ry     beta= 0.10
     Davidson diagonalization with overlap
     c_bands:  2 eigenvalues not converged
     ethr =  1.67E-05,  avg # of iterations = 20.0

     negative rho (up, down):  5.884E-02 0.000E+00

     total cpu time spent up to now is    12926.2 secs

     total energy              =  -11682.10016691 Ry
     estimated scf accuracy    <       0.24004957 Ry

     iteration # 43     ecut=    80.00 Ry     beta= 0.10
     Davidson diagonalization with overlap
     ethr =  1.28E-05,  avg # of iterations =  2.0

     negative rho (up, down):  5.871E-02 0.000E+00

     total cpu time spent up to now is    13244.5 secs

     total energy              =  -11682.09662197 Ry
     estimated scf accuracy    <       0.31040003 Ry

     iteration # 44     ecut=    80.00 Ry     beta= 0.10
     Davidson diagonalization with overlap
     ethr =  1.28E-05,  avg # of iterations =  1.0

     negative rho (up, down):  5.886E-02 0.000E+00

     total cpu time spent up to now is    13529.4 secs

     total energy              =  -11682.09394223 Ry
     estimated scf accuracy    <       1.12168797 Ry

     iteration # 45     ecut=    80.00 Ry     beta= 0.10
     Davidson diagonalization with overlap
     ethr =  1.28E-05,  avg # of iterations =  1.0

     negative rho (up, down):  5.885E-02 0.000E+00

     total cpu time spent up to now is    13812.9 secs

     total energy              =  -11682.09752026 Ry
     estimated scf accuracy    <       0.37256770 Ry

     iteration # 46     ecut=    80.00 Ry     beta= 0.10
     Davidson diagonalization with overlap
     ethr =  1.28E-05,  avg # of iterations =  1.0

     negative rho (up, down):  5.891E-02 0.000E+00

     total cpu time spent up to now is    14096.4 secs

     total energy              =  -11682.09949289 Ry
     estimated scf accuracy    <       0.40746406 Ry

     iteration # 47     ecut=    80.00 Ry     beta= 0.10
     Davidson diagonalization with overlap
     ethr =  1.28E-05,  avg # of iterations =  1.0

     negative rho (up, down):  5.925E-02 0.000E+00

     total cpu time spent up to now is    14380.6 secs

     total energy              =  -11682.10117015 Ry
     estimated scf accuracy    <       0.12505138 Ry

     iteration # 48     ecut=    80.00 Ry     beta= 0.10
     Davidson diagonalization with overlap
     ethr =  6.68E-06,  avg # of iterations =  1.0

     negative rho (up, down):  5.918E-02 0.000E+00

     total cpu time spent up to now is    14664.0 secs

     total energy              =  -11682.09509472 Ry
     estimated scf accuracy    <       0.49925520 Ry

     iteration # 49     ecut=    80.00 Ry     beta= 0.10
     Davidson diagonalization with overlap
     ethr =  6.68E-06,  avg # of iterations =  1.0

     negative rho (up, down):  5.909E-02 0.000E+00

     total cpu time spent up to now is    14948.1 secs

     total energy              =  -11682.09250303 Ry
     estimated scf accuracy    <       1.23812695 Ry

     iteration # 50     ecut=    80.00 Ry     beta= 0.10
     Davidson diagonalization with overlap
     ethr =  6.68E-06,  avg # of iterations =  1.0

     negative rho (up, down):  5.906E-02 0.000E+00

     total cpu time spent up to now is    15232.2 secs

     total energy              =  -11682.09783874 Ry
     estimated scf accuracy    <       0.43304486 Ry

     iteration # 51     ecut=    80.00 Ry     beta= 0.10
     Davidson diagonalization with overlap
     ethr =  6.68E-06,  avg # of iterations =  1.0

     negative rho (up, down):  5.910E-02 0.000E+00

     total cpu time spent up to now is    15515.5 secs

     total energy              =  -11682.09980389 Ry
     estimated scf accuracy    <       0.42373793 Ry

     iteration # 52     ecut=    80.00 Ry     beta= 0.10
     Davidson diagonalization with overlap
     ethr =  6.68E-06,  avg # of iterations =  1.0

     negative rho (up, down):  5.920E-02 0.000E+00

     total cpu time spent up to now is    15799.7 secs

     total energy              =  -11682.10257699 Ry
     estimated scf accuracy    <       0.06075383 Ry

     iteration # 53     ecut=    80.00 Ry     beta= 0.10
     Davidson diagonalization with overlap
     ethr =  3.25E-06,  avg # of iterations =  1.0

     negative rho (up, down):  5.921E-02 0.000E+00

     total cpu time spent up to now is    16082.7 secs

     total energy              =  -11682.10180440 Ry
     estimated scf accuracy    <       0.12878129 Ry

     iteration # 54     ecut=    80.00 Ry     beta= 0.10
     Davidson diagonalization with overlap
     ethr =  3.25E-06,  avg # of iterations =  1.0

     negative rho (up, down):  5.925E-02 0.000E+00

     total cpu time spent up to now is    16367.0 secs

     total energy              =  -11682.10228706 Ry
     estimated scf accuracy    <       0.14319797 Ry

     iteration # 55     ecut=    80.00 Ry     beta= 0.10
     Davidson diagonalization with overlap
     ethr =  3.25E-06,  avg # of iterations =  1.0

     negative rho (up, down):  5.924E-02 0.000E+00

     total cpu time spent up to now is    16650.9 secs

     total energy              =  -11682.10257841 Ry
     estimated scf accuracy    <       0.06185579 Ry

     iteration # 56     ecut=    80.00 Ry     beta= 0.10
     Davidson diagonalization with overlap
     ethr =  3.25E-06,  avg # of iterations =  1.0

     negative rho (up, down):  5.926E-02 0.000E+00

     total cpu time spent up to now is    16934.7 secs

     total energy              =  -11682.10218034 Ry
     estimated scf accuracy    <       0.19734378 Ry

     iteration # 57     ecut=    80.00 Ry     beta= 0.10
     Davidson diagonalization with overlap
     ethr =  3.25E-06,  avg # of iterations =  1.0

     negative rho (up, down):  5.941E-02 0.000E+00

     total cpu time spent up to now is    17218.2 secs

     total energy              =  -11682.10354587 Ry
     estimated scf accuracy    <       0.03097436 Ry

     iteration # 58     ecut=    80.00 Ry     beta= 0.10
     Davidson diagonalization with overlap
     ethr =  1.65E-06,  avg # of iterations =  1.0

     negative rho (up, down):  5.943E-02 0.000E+00

     total cpu time spent up to now is    17502.1 secs

     total energy              =  -11682.10280397 Ry
     estimated scf accuracy    <       0.10158106 Ry

     iteration # 59     ecut=    80.00 Ry     beta= 0.10
     Davidson diagonalization with overlap
     ethr =  1.65E-06,  avg # of iterations =  1.0

     negative rho (up, down):  5.944E-02 0.000E+00

     total cpu time spent up to now is    17786.3 secs

     total energy              =  -11682.10310919 Ry
     estimated scf accuracy    <       0.09212544 Ry

     iteration # 60     ecut=    80.00 Ry     beta= 0.10
     Davidson diagonalization with overlap
     ethr =  1.65E-06,  avg # of iterations =  1.0

     negative rho (up, down):  5.943E-02 0.000E+00

     total cpu time spent up to now is    18070.4 secs

     total energy              =  -11682.10279783 Ry
     estimated scf accuracy    <       0.08030143 Ry

     iteration # 61     ecut=    80.00 Ry     beta= 0.10
     Davidson diagonalization with overlap
     ethr =  1.65E-06,  avg # of iterations =  1.0

     negative rho (up, down):  5.939E-02 0.000E+00

     total cpu time spent up to now is    18353.6 secs

     total energy              =  -11682.10145739 Ry
     estimated scf accuracy    <       0.26529695 Ry

     iteration # 62     ecut=    80.00 Ry     beta= 0.10
     Davidson diagonalization with overlap
     ethr =  1.65E-06,  avg # of iterations =  1.0

     negative rho (up, down):  5.946E-02 0.000E+00

     total cpu time spent up to now is    18637.4 secs

     total energy              =  -11682.10304566 Ry
     estimated scf accuracy    <       0.11317941 Ry

     iteration # 63     ecut=    80.00 Ry     beta= 0.10
     Davidson diagonalization with overlap
     ethr =  1.65E-06,  avg # of iterations =  1.0

     negative rho (up, down):  5.953E-02 0.000E+00

     total cpu time spent up to now is    18920.8 secs

     total energy              =  -11682.10387604 Ry
     estimated scf accuracy    <       0.03192345 Ry

     iteration # 64     ecut=    80.00 Ry     beta= 0.10
     Davidson diagonalization with overlap
     ethr =  1.65E-06,  avg # of iterations =  1.0

     negative rho (up, down):  5.953E-02 0.000E+00

     total cpu time spent up to now is    19204.8 secs

     total energy              =  -11682.10329324 Ry
     estimated scf accuracy    <       0.12784682 Ry

     iteration # 65     ecut=    80.00 Ry     beta= 0.10
     Davidson diagonalization with overlap
     ethr =  1.65E-06,  avg # of iterations =  1.0

     negative rho (up, down):  5.952E-02 0.000E+00

     total cpu time spent up to now is    19489.3 secs

     total energy              =  -11682.10378903 Ry
     estimated scf accuracy    <       0.03855769 Ry

     iteration # 66     ecut=    80.00 Ry     beta= 0.10
     Davidson diagonalization with overlap
     ethr =  1.65E-06,  avg # of iterations =  1.0

     negative rho (up, down):  5.950E-02 0.000E+00

     total cpu time spent up to now is    19773.3 secs

     total energy              =  -11682.10347151 Ry
     estimated scf accuracy    <       0.11765653 Ry

     iteration # 67     ecut=    80.00 Ry     beta= 0.10
     Davidson diagonalization with overlap
     ethr =  1.65E-06,  avg # of iterations =  1.0

     negative rho (up, down):  5.956E-02 0.000E+00

     total cpu time spent up to now is    20056.7 secs

     total energy              =  -11682.10429355 Ry
     estimated scf accuracy    <       0.01235220 Ry

     iteration # 68     ecut=    80.00 Ry     beta= 0.10
     Davidson diagonalization with overlap
     ethr =  6.60E-07,  avg # of iterations =  1.0

     negative rho (up, down):  5.958E-02 0.000E+00

     total cpu time spent up to now is    20343.5 secs

     total energy              =  -11682.10423657 Ry
     estimated scf accuracy    <       0.01643193 Ry

     iteration # 69     ecut=    80.00 Ry     beta= 0.10
     Davidson diagonalization with overlap
     ethr =  6.60E-07,  avg # of iterations =  1.0

     negative rho (up, down):  5.959E-02 0.000E+00

     total cpu time spent up to now is    20627.4 secs

     total energy              =  -11682.10432613 Ry
     estimated scf accuracy    <       0.01262160 Ry

     iteration # 70     ecut=    80.00 Ry     beta= 0.10
     Davidson diagonalization with overlap
     ethr =  6.60E-07,  avg # of iterations =  1.0

     negative rho (up, down):  5.963E-02 0.000E+00

     total cpu time spent up to now is    20911.0 secs

     total energy              =  -11682.10432670 Ry
     estimated scf accuracy    <       0.02227793 Ry

     iteration # 71     ecut=    80.00 Ry     beta= 0.10
     Davidson diagonalization with overlap
     ethr =  6.60E-07,  avg # of iterations =  1.0

     negative rho (up, down):  5.962E-02 0.000E+00

     total cpu time spent up to now is    21195.7 secs

     total energy              =  -11682.10403964 Ry
     estimated scf accuracy    <       0.04697406 Ry

     iteration # 72     ecut=    80.00 Ry     beta= 0.10
     Davidson diagonalization with overlap
     ethr =  6.60E-07,  avg # of iterations =  1.0

     negative rho (up, down):  5.965E-02 0.000E+00

     total cpu time spent up to now is    21479.4 secs

     total energy              =  -11682.10418840 Ry
     estimated scf accuracy    <       0.04623956 Ry

     iteration # 73     ecut=    80.00 Ry     beta= 0.10
     Davidson diagonalization with overlap
     ethr =  6.60E-07,  avg # of iterations =  1.0

     negative rho (up, down):  5.972E-02 0.000E+00

     total cpu time spent up to now is    21763.6 secs

     total energy              =  -11682.10456117 Ry
     estimated scf accuracy    <       0.01661436 Ry

     iteration # 74     ecut=    80.00 Ry     beta= 0.10
     Davidson diagonalization with overlap
     ethr =  6.60E-07,  avg # of iterations =  1.0

     negative rho (up, down):  5.969E-02 0.000E+00

     total cpu time spent up to now is    22046.9 secs

     total energy              =  -11682.10429790 Ry
     estimated scf accuracy    <       0.04325785 Ry

     iteration # 75     ecut=    80.00 Ry     beta= 0.10
     Davidson diagonalization with overlap
     ethr =  6.60E-07,  avg # of iterations =  1.0

     negative rho (up, down):  5.970E-02 0.000E+00

     total cpu time spent up to now is    22330.4 secs

     total energy              =  -11682.10448661 Ry
     estimated scf accuracy    <       0.02164152 Ry

     iteration # 76     ecut=    80.00 Ry     beta= 0.10
     Davidson diagonalization with overlap
     ethr =  6.60E-07,  avg # of iterations =  1.0

     negative rho (up, down):  5.965E-02 0.000E+00

     total cpu time spent up to now is    22613.9 secs

     total energy              =  -11682.10403446 Ry
     estimated scf accuracy    <       0.07838402 Ry

     iteration # 77     ecut=    80.00 Ry     beta= 0.10
     Davidson diagonalization with overlap
     ethr =  6.60E-07,  avg # of iterations =  1.0

     negative rho (up, down):  5.971E-02 0.000E+00

     total cpu time spent up to now is    22898.2 secs

     total energy              =  -11682.10461264 Ry
     estimated scf accuracy    <       0.01755825 Ry

     iteration # 78     ecut=    80.00 Ry     beta= 0.10
     Davidson diagonalization with overlap
     ethr =  6.60E-07,  avg # of iterations =  1.0

     negative rho (up, down):  5.971E-02 0.000E+00

     total cpu time spent up to now is    23183.1 secs

     total energy              =  -11682.10461671 Ry
     estimated scf accuracy    <       0.01017975 Ry

     iteration # 79     ecut=    80.00 Ry     beta= 0.10
     Davidson diagonalization with overlap
     ethr =  5.44E-07,  avg # of iterations =  1.0

     negative rho (up, down):  5.973E-02 0.000E+00

     total cpu time spent up to now is    23466.9 secs

     total energy              =  -11682.10469913 Ry
     estimated scf accuracy    <       0.00712501 Ry

     iteration # 80     ecut=    80.00 Ry     beta= 0.10
     Davidson diagonalization with overlap
     ethr =  3.81E-07,  avg # of iterations =  1.0

     negative rho (up, down):  5.975E-02 0.000E+00

     total cpu time spent up to now is    23750.5 secs

     total energy              =  -11682.10475228 Ry
     estimated scf accuracy    <       0.00556727 Ry

     iteration # 81     ecut=    80.00 Ry     beta= 0.10
     Davidson diagonalization with overlap
     ethr =  2.97E-07,  avg # of iterations =  1.0

     negative rho (up, down):  5.975E-02 0.000E+00

     total cpu time spent up to now is    24034.7 secs

     total energy              =  -11682.10470351 Ry
     estimated scf accuracy    <       0.00880777 Ry

     iteration # 82     ecut=    80.00 Ry     beta= 0.10
     Davidson diagonalization with overlap
     ethr =  2.97E-07,  avg # of iterations =  1.0

     negative rho (up, down):  5.977E-02 0.000E+00

     total cpu time spent up to now is    24318.0 secs

     total energy              =  -11682.10472284 Ry
     estimated scf accuracy    <       0.01470146 Ry

     iteration # 83     ecut=    80.00 Ry     beta= 0.10
     Davidson diagonalization with overlap
     ethr =  2.97E-07,  avg # of iterations =  1.0

     negative rho (up, down):  5.981E-02 0.000E+00

     total cpu time spent up to now is    24601.8 secs

     total energy              =  -11682.10486488 Ry
     estimated scf accuracy    <       0.00449845 Ry

     iteration # 84     ecut=    80.00 Ry     beta= 0.10
     Davidson diagonalization with overlap
     ethr =  2.40E-07,  avg # of iterations =  1.0

     negative rho (up, down):  5.979E-02 0.000E+00

     total cpu time spent up to now is    24885.7 secs

     total energy              =  -11682.10476975 Ry
     estimated scf accuracy    <       0.00926234 Ry

     iteration # 85     ecut=    80.00 Ry     beta= 0.10
     Davidson diagonalization with overlap
     ethr =  2.40E-07,  avg # of iterations =  1.0

     negative rho (up, down):  5.982E-02 0.000E+00

     total cpu time spent up to now is    25168.8 secs

     total energy              =  -11682.10482485 Ry
     estimated scf accuracy    <       0.01076052 Ry

     iteration # 86     ecut=    80.00 Ry     beta= 0.10
     Davidson diagonalization with overlap
     ethr =  2.40E-07,  avg # of iterations =  1.0

     negative rho (up, down):  5.977E-02 0.000E+00

     total cpu time spent up to now is    25451.8 secs

     total energy              =  -11682.10460895 Ry
     estimated scf accuracy    <       0.02707007 Ry

     iteration # 87     ecut=    80.00 Ry     beta= 0.10
     Davidson diagonalization with overlap
     ethr =  2.40E-07,  avg # of iterations =  1.0

     negative rho (up, down):  5.984E-02 0.000E+00

     total cpu time spent up to now is    25735.6 secs

     total energy              =  -11682.10475770 Ry
     estimated scf accuracy    <       0.02553941 Ry

     iteration # 88     ecut=    80.00 Ry     beta= 0.10
     Davidson diagonalization with overlap
     ethr =  2.40E-07,  avg # of iterations =  1.0

     negative rho (up, down):  5.982E-02 0.000E+00

     total cpu time spent up to now is    26020.2 secs

     total energy              =  -11682.10480535 Ry
     estimated scf accuracy    <       0.00812333 Ry

     iteration # 89     ecut=    80.00 Ry     beta= 0.10
     Davidson diagonalization with overlap
     ethr =  2.40E-07,  avg # of iterations =  1.0

     negative rho (up, down):  5.983E-02 0.000E+00

     total cpu time spent up to now is    26304.1 secs

     total energy              =  -11682.10487207 Ry
     estimated scf accuracy    <       0.00622781 Ry

     iteration # 90     ecut=    80.00 Ry     beta= 0.10
     Davidson diagonalization with overlap
     ethr =  2.40E-07,  avg # of iterations =  1.0

     negative rho (up, down):  5.984E-02 0.000E+00

     total cpu time spent up to now is    26587.8 secs

     total energy              =  -11682.10491953 Ry
     estimated scf accuracy    <       0.00358324 Ry

     iteration # 91     ecut=    80.00 Ry     beta= 0.10
     Davidson diagonalization with overlap
     ethr =  1.91E-07,  avg # of iterations =  1.0

     negative rho (up, down):  5.985E-02 0.000E+00

     total cpu time spent up to now is    26872.0 secs

     total energy              =  -11682.10492469 Ry
     estimated scf accuracy    <       0.00266233 Ry

     iteration # 92     ecut=    80.00 Ry     beta= 0.10
     Davidson diagonalization with overlap
     ethr =  1.42E-07,  avg # of iterations =  1.0

     negative rho (up, down):  5.985E-02 0.000E+00

     total cpu time spent up to now is    27155.7 secs

     total energy              =  -11682.10491881 Ry
     estimated scf accuracy    <       0.00574945 Ry

     iteration # 93     ecut=    80.00 Ry     beta= 0.10
     Davidson diagonalization with overlap
     ethr =  1.42E-07,  avg # of iterations =  1.0

     negative rho (up, down):  5.988E-02 0.000E+00

     total cpu time spent up to now is    27440.6 secs

     total energy              =  -11682.10497758 Ry
     estimated scf accuracy    <       0.00152575 Ry

     iteration # 94     ecut=    80.00 Ry     beta= 0.10
     Davidson diagonalization with overlap
     ethr =  8.15E-08,  avg # of iterations =  1.0

     negative rho (up, down):  5.987E-02 0.000E+00

     total cpu time spent up to now is    27725.2 secs

     total energy              =  -11682.10495336 Ry
     estimated scf accuracy    <       0.00190210 Ry

     iteration # 95     ecut=    80.00 Ry     beta= 0.10
     Davidson diagonalization with overlap
     ethr =  8.15E-08,  avg # of iterations =  1.0

     negative rho (up, down):  5.989E-02 0.000E+00

     total cpu time spent up to now is    28008.6 secs

     total energy              =  -11682.10496963 Ry
     estimated scf accuracy    <       0.00539082 Ry

     iteration # 96     ecut=    80.00 Ry     beta= 0.10
     Davidson diagonalization with overlap
     ethr =  8.15E-08,  avg # of iterations =  1.0

     negative rho (up, down):  5.990E-02 0.000E+00

     total cpu time spent up to now is    28293.4 secs

     total energy              =  -11682.10495420 Ry
     estimated scf accuracy    <       0.00509729 Ry

     iteration # 97     ecut=    80.00 Ry     beta= 0.10
     Davidson diagonalization with overlap
     ethr =  8.15E-08,  avg # of iterations =  1.0

     negative rho (up, down):  5.992E-02 0.000E+00

     total cpu time spent up to now is    28577.6 secs

     total energy              =  -11682.10492158 Ry
     estimated scf accuracy    <       0.01525069 Ry

     iteration # 98     ecut=    80.00 Ry     beta= 0.10
     Davidson diagonalization with overlap
     ethr =  8.15E-08,  avg # of iterations =  1.0

     negative rho (up, down):  5.990E-02 0.000E+00

     total cpu time spent up to now is    28861.2 secs

     total energy              =  -11682.10496734 Ry
     estimated scf accuracy    <       0.00293137 Ry

     iteration # 99     ecut=    80.00 Ry     beta= 0.10
     Davidson diagonalization with overlap
     ethr =  8.15E-08,  avg # of iterations =  1.0

     negative rho (up, down):  5.990E-02 0.000E+00

     total cpu time spent up to now is    29146.0 secs

     total energy              =  -11682.10496855 Ry
     estimated scf accuracy    <       0.00534115 Ry

     iteration #100     ecut=    80.00 Ry     beta= 0.10
     Davidson diagonalization with overlap
     ethr =  8.15E-08,  avg # of iterations =  1.0

     negative rho (up, down):  5.991E-02 0.000E+00

     total cpu time spent up to now is    29430.4 secs

     total energy              =  -11682.10500446 Ry
     estimated scf accuracy    <       0.00304678 Ry

     iteration #101     ecut=    80.00 Ry     beta= 0.10
     Davidson diagonalization with overlap
     ethr =  8.15E-08,  avg # of iterations =  1.0

     negative rho (up, down):  5.992E-02 0.000E+00

     total cpu time spent up to now is    29715.1 secs

     total energy              =  -11682.10502024 Ry
     estimated scf accuracy    <       0.00173483 Ry

     iteration #102     ecut=    80.00 Ry     beta= 0.10
     Davidson diagonalization with overlap
     ethr =  8.15E-08,  avg # of iterations =  1.0

     negative rho (up, down):  5.992E-02 0.000E+00

     total cpu time spent up to now is    30000.1 secs

     total energy              =  -11682.10500796 Ry
     estimated scf accuracy    <       0.00317255 Ry

     iteration #103     ecut=    80.00 Ry     beta= 0.10
     Davidson diagonalization with overlap
     ethr =  8.15E-08,  avg # of iterations =  1.0

     negative rho (up, down):  5.993E-02 0.000E+00

     total cpu time spent up to now is    30284.9 secs

     total energy              =  -11682.10503942 Ry
     estimated scf accuracy    <       0.00100658 Ry

     iteration #104     ecut=    80.00 Ry     beta= 0.10
     Davidson diagonalization with overlap
     ethr =  5.38E-08,  avg # of iterations =  1.0

     negative rho (up, down):  5.993E-02 0.000E+00

     total cpu time spent up to now is    30568.8 secs

     total energy              =  -11682.10503695 Ry
     estimated scf accuracy    <       0.00062003 Ry

     iteration #105     ecut=    80.00 Ry     beta= 0.10
     Davidson diagonalization with overlap
     ethr =  3.31E-08,  avg # of iterations =  1.0

     negative rho (up, down):  5.994E-02 0.000E+00

     total cpu time spent up to now is    30853.2 secs

     total energy              =  -11682.10504479 Ry
     estimated scf accuracy    <       0.00192390 Ry

     iteration #106     ecut=    80.00 Ry     beta= 0.10
     Davidson diagonalization with overlap
     ethr =  3.31E-08,  avg # of iterations =  1.0

     negative rho (up, down):  5.997E-02 0.000E+00

     total cpu time spent up to now is    31137.6 secs

     total energy              =  -11682.10506435 Ry
     estimated scf accuracy    <       0.00081529 Ry

     iteration #107     ecut=    80.00 Ry     beta= 0.10
     Davidson diagonalization with overlap
     ethr =  3.31E-08,  avg # of iterations =  1.0

     negative rho (up, down):  5.996E-02 0.000E+00

     total cpu time spent up to now is    31421.6 secs

     total energy              =  -11682.10503938 Ry
     estimated scf accuracy    <       0.00401309 Ry

     iteration #108     ecut=    80.00 Ry     beta= 0.10
     Davidson diagonalization with overlap
     ethr =  3.31E-08,  avg # of iterations =  1.0

     negative rho (up, down):  5.996E-02 0.000E+00

     total cpu time spent up to now is    31705.4 secs

     total energy              =  -11682.10505196 Ry
     estimated scf accuracy    <       0.00097370 Ry

     iteration #109     ecut=    80.00 Ry     beta= 0.10
     Davidson diagonalization with overlap
     ethr =  3.31E-08,  avg # of iterations =  1.0

     negative rho (up, down):  5.996E-02 0.000E+00

     total cpu time spent up to now is    31990.0 secs

     total energy              =  -11682.10504004 Ry
     estimated scf accuracy    <       0.00309971 Ry

     iteration #110     ecut=    80.00 Ry     beta= 0.10
     Davidson diagonalization with overlap
     ethr =  3.31E-08,  avg # of iterations =  1.0

     negative rho (up, down):  5.997E-02 0.000E+00

     total cpu time spent up to now is    32274.6 secs

     total energy              =  -11682.10505530 Ry
     estimated scf accuracy    <       0.00237342 Ry

     iteration #111     ecut=    80.00 Ry     beta= 0.10
     Davidson diagonalization with overlap
     ethr =  3.31E-08,  avg # of iterations =  1.0

     negative rho (up, down):  5.998E-02 0.000E+00

     total cpu time spent up to now is    32557.7 secs

     total energy              =  -11682.10507289 Ry
     estimated scf accuracy    <       0.00127602 Ry

     iteration #112     ecut=    80.00 Ry     beta= 0.10
     Davidson diagonalization with overlap
     ethr =  3.31E-08,  avg # of iterations =  1.0

     negative rho (up, down):  5.998E-02 0.000E+00

     total cpu time spent up to now is    32840.8 secs

     total energy              =  -11682.10506134 Ry
     estimated scf accuracy    <       0.00186843 Ry

     iteration #113     ecut=    80.00 Ry     beta= 0.10
     Davidson diagonalization with overlap
     ethr =  3.31E-08,  avg # of iterations =  1.0

     negative rho (up, down):  5.998E-02 0.000E+00

     total cpu time spent up to now is    33124.6 secs

     total energy              =  -11682.10507340 Ry
     estimated scf accuracy    <       0.00111312 Ry

     iteration #114     ecut=    80.00 Ry     beta= 0.10
     Davidson diagonalization with overlap
     ethr =  3.31E-08,  avg # of iterations =  1.0

     negative rho (up, down):  5.998E-02 0.000E+00

     total cpu time spent up to now is    33408.6 secs

     total energy              =  -11682.10507770 Ry
     estimated scf accuracy    <       0.00040786 Ry

     iteration #115     ecut=    80.00 Ry     beta= 0.10
     Davidson diagonalization with overlap
     ethr =  2.18E-08,  avg # of iterations =  1.0

     negative rho (up, down):  5.999E-02 0.000E+00

     total cpu time spent up to now is    33692.4 secs

     total energy              =  -11682.10508038 Ry
     estimated scf accuracy    <       0.00117707 Ry

     iteration #116     ecut=    80.00 Ry     beta= 0.10
     Davidson diagonalization with overlap
     ethr =  2.18E-08,  avg # of iterations =  1.0

     negative rho (up, down):  6.000E-02 0.000E+00

     total cpu time spent up to now is    33975.8 secs

     total energy              =  -11682.10509444 Ry
     estimated scf accuracy    <       0.00023935 Ry

     iteration #117     ecut=    80.00 Ry     beta= 0.10
     Davidson diagonalization with overlap
     ethr =  1.28E-08,  avg # of iterations =  1.0

     negative rho (up, down):  6.000E-02 0.000E+00

     total cpu time spent up to now is    34259.5 secs

     total energy              =  -11682.10508604 Ry
     estimated scf accuracy    <       0.00072435 Ry

     iteration #118     ecut=    80.00 Ry     beta= 0.10
     Davidson diagonalization with overlap
     ethr =  1.28E-08,  avg # of iterations =  1.0

     negative rho (up, down):  6.000E-02 0.000E+00

     total cpu time spent up to now is    34543.7 secs

     total energy              =  -11682.10509036 Ry
     estimated scf accuracy    <       0.00039169 Ry

     iteration #119     ecut=    80.00 Ry     beta= 0.10
     Davidson diagonalization with overlap
     ethr =  1.28E-08,  avg # of iterations =  1.0

     negative rho (up, down):  6.000E-02 0.000E+00

     total cpu time spent up to now is    34827.9 secs

     total energy              =  -11682.10508831 Ry
     estimated scf accuracy    <       0.00092682 Ry

     iteration #120     ecut=    80.00 Ry     beta= 0.10
     Davidson diagonalization with overlap
     ethr =  1.28E-08,  avg # of iterations =  1.0

     negative rho (up, down):  6.001E-02 0.000E+00

     total cpu time spent up to now is    35111.3 secs

     total energy              =  -11682.10509110 Ry
     estimated scf accuracy    <       0.00105573 Ry

     iteration #121     ecut=    80.00 Ry     beta= 0.10
     Davidson diagonalization with overlap
     ethr =  1.28E-08,  avg # of iterations =  1.0

     negative rho (up, down):  6.002E-02 0.000E+00

     total cpu time spent up to now is    35395.7 secs

     total energy              =  -11682.10509907 Ry
     estimated scf accuracy    <       0.00068533 Ry

     iteration #122     ecut=    80.00 Ry     beta= 0.10
     Davidson diagonalization with overlap
     ethr =  1.28E-08,  avg # of iterations =  1.0

     negative rho (up, down):  6.002E-02 0.000E+00

     total cpu time spent up to now is    35679.2 secs

     total energy              =  -11682.10509620 Ry
     estimated scf accuracy    <       0.00082212 Ry

     iteration #123     ecut=    80.00 Ry     beta= 0.10
     Davidson diagonalization with overlap
     ethr =  1.28E-08,  avg # of iterations =  1.0

     negative rho (up, down):  6.002E-02 0.000E+00

     total cpu time spent up to now is    35963.1 secs

     total energy              =  -11682.10509580 Ry
     estimated scf accuracy    <       0.00080939 Ry

     iteration #124     ecut=    80.00 Ry     beta= 0.10
     Davidson diagonalization with overlap
     ethr =  1.28E-08,  avg # of iterations =  1.0

     negative rho (up, down):  6.002E-02 0.000E+00

     total cpu time spent up to now is    36247.1 secs

     total energy              =  -11682.10509939 Ry
     estimated scf accuracy    <       0.00035516 Ry

     iteration #125     ecut=    80.00 Ry     beta= 0.10
     Davidson diagonalization with overlap
     ethr =  1.28E-08,  avg # of iterations =  1.0

     negative rho (up, down):  6.002E-02 0.000E+00

     total cpu time spent up to now is    36531.0 secs

     total energy              =  -11682.10509826 Ry
     estimated scf accuracy    <       0.00102460 Ry

     iteration #126     ecut=    80.00 Ry     beta= 0.10
     Davidson diagonalization with overlap
     ethr =  1.28E-08,  avg # of iterations =  1.0

     negative rho (up, down):  6.003E-02 0.000E+00

     total cpu time spent up to now is    36814.5 secs

     total energy              =  -11682.10510937 Ry
     estimated scf accuracy    <       0.00016263 Ry

     iteration #127     ecut=    80.00 Ry     beta= 0.10
     Davidson diagonalization with overlap
     ethr =  8.69E-09,  avg # of iterations =  1.0

     negative rho (up, down):  6.003E-02 0.000E+00

     total cpu time spent up to now is    37099.0 secs

     total energy              =  -11682.10510477 Ry
     estimated scf accuracy    <       0.00029777 Ry

     iteration #128     ecut=    80.00 Ry     beta= 0.10
     Davidson diagonalization with overlap
     ethr =  8.69E-09,  avg # of iterations =  1.0

     negative rho (up, down):  6.003E-02 0.000E+00

     total cpu time spent up to now is    37383.6 secs

     total energy              =  -11682.10510746 Ry
     estimated scf accuracy    <       0.00020586 Ry

     iteration #129     ecut=    80.00 Ry     beta= 0.10
     Davidson diagonalization with overlap
     ethr =  8.69E-09,  avg # of iterations =  1.0

     negative rho (up, down):  6.003E-02 0.000E+00

     total cpu time spent up to now is    37667.6 secs

     total energy              =  -11682.10510794 Ry
     estimated scf accuracy    <       0.00033471 Ry

     iteration #130     ecut=    80.00 Ry     beta= 0.10
     Davidson diagonalization with overlap
     ethr =  8.69E-09,  avg # of iterations =  1.0

     negative rho (up, down):  6.004E-02 0.000E+00

     total cpu time spent up to now is    37951.7 secs

     total energy              =  -11682.10510897 Ry
     estimated scf accuracy    <       0.00039560 Ry

     iteration #131     ecut=    80.00 Ry     beta= 0.10
     Davidson diagonalization with overlap
     ethr =  8.69E-09,  avg # of iterations =  1.0

     negative rho (up, down):  6.004E-02 0.000E+00

     total cpu time spent up to now is    38234.9 secs

     total energy              =  -11682.10511257 Ry
     estimated scf accuracy    <       0.00026618 Ry

     iteration #132     ecut=    80.00 Ry     beta= 0.10
     Davidson diagonalization with overlap
     ethr =  8.69E-09,  avg # of iterations =  1.0

     negative rho (up, down):  6.005E-02 0.000E+00

     total cpu time spent up to now is    38519.0 secs

     total energy              =  -11682.10511269 Ry
     estimated scf accuracy    <       0.00025992 Ry

     iteration #133     ecut=    80.00 Ry     beta= 0.10
     Davidson diagonalization with overlap
     ethr =  8.69E-09,  avg # of iterations =  1.0

     negative rho (up, down):  6.004E-02 0.000E+00

     total cpu time spent up to now is    38802.6 secs

     total energy              =  -11682.10511080 Ry
     estimated scf accuracy    <       0.00038456 Ry

     iteration #134     ecut=    80.00 Ry     beta= 0.10
     Davidson diagonalization with overlap
     ethr =  8.69E-09,  avg # of iterations =  1.0

     negative rho (up, down):  6.005E-02 0.000E+00

     total cpu time spent up to now is    39086.2 secs

     total energy              =  -11682.10511290 Ry
     estimated scf accuracy    <       0.00023627 Ry

     iteration #135     ecut=    80.00 Ry     beta= 0.10
     Davidson diagonalization with overlap
     ethr =  8.69E-09,  avg # of iterations =  1.0

     negative rho (up, down):  6.005E-02 0.000E+00

     total cpu time spent up to now is    39369.5 secs

     total energy              =  -11682.10510968 Ry
     estimated scf accuracy    <       0.00077168 Ry

     iteration #136     ecut=    80.00 Ry     beta= 0.10
     Davidson diagonalization with overlap
     ethr =  8.69E-09,  avg # of iterations =  1.0

     negative rho (up, down):  6.005E-02 0.000E+00

     total cpu time spent up to now is    39653.8 secs

     total energy              =  -11682.10511710 Ry
     estimated scf accuracy    <       0.00015078 Ry

     iteration #137     ecut=    80.00 Ry     beta= 0.10
     Davidson diagonalization with overlap
     ethr =  8.05E-09,  avg # of iterations =  1.0

     negative rho (up, down):  6.005E-02 0.000E+00

     total cpu time spent up to now is    39937.7 secs

     total energy              =  -11682.10511498 Ry
     estimated scf accuracy    <       0.00014763 Ry

     iteration #138     ecut=    80.00 Ry     beta= 0.10
     Davidson diagonalization with overlap
     ethr =  7.89E-09,  avg # of iterations =  1.0

     negative rho (up, down):  6.005E-02 0.000E+00

     total cpu time spent up to now is    40222.2 secs

     total energy              =  -11682.10511630 Ry
     estimated scf accuracy    <       0.00014130 Ry

     iteration #139     ecut=    80.00 Ry     beta= 0.10
     Davidson diagonalization with overlap
     ethr =  7.55E-09,  avg # of iterations =  1.0

     negative rho (up, down):  6.005E-02 0.000E+00

     total cpu time spent up to now is    40506.9 secs

     total energy              =  -11682.10511679 Ry
     estimated scf accuracy    <       0.00017577 Ry

     iteration #140     ecut=    80.00 Ry     beta= 0.10
     Davidson diagonalization with overlap
     ethr =  7.55E-09,  avg # of iterations =  1.0

     negative rho (up, down):  6.006E-02 0.000E+00

     total cpu time spent up to now is    40790.1 secs

     total energy              =  -11682.10511743 Ry
     estimated scf accuracy    <       0.00017214 Ry

     iteration #141     ecut=    80.00 Ry     beta= 0.10
     Davidson diagonalization with overlap
     ethr =  7.55E-09,  avg # of iterations =  1.0

     negative rho (up, down):  6.006E-02 0.000E+00

     total cpu time spent up to now is    41073.6 secs

     total energy              =  -11682.10511904 Ry
     estimated scf accuracy    <       0.00011133 Ry

     iteration #142     ecut=    80.00 Ry     beta= 0.10
     Davidson diagonalization with overlap
     ethr =  5.95E-09,  avg # of iterations =  1.0

     negative rho (up, down):  6.006E-02 0.000E+00

     total cpu time spent up to now is    41358.2 secs

     total energy              =  -11682.10511983 Ry
     estimated scf accuracy    <       0.00007540 Ry

     iteration #143     ecut=    80.00 Ry     beta= 0.10
     Davidson diagonalization with overlap
     ethr =  4.03E-09,  avg # of iterations =  1.0

     negative rho (up, down):  6.006E-02 0.000E+00

     total cpu time spent up to now is    41641.4 secs

     total energy              =  -11682.10511913 Ry
     estimated scf accuracy    <       0.00012668 Ry

     iteration #144     ecut=    80.00 Ry     beta= 0.10
     Davidson diagonalization with overlap
     ethr =  4.03E-09,  avg # of iterations =  1.0

     negative rho (up, down):  6.007E-02 0.000E+00

     total cpu time spent up to now is    41924.8 secs

     total energy              =  -11682.10512035 Ry
     estimated scf accuracy    <       0.00010972 Ry

     iteration #145     ecut=    80.00 Ry     beta= 0.10
     Davidson diagonalization with overlap
     ethr =  4.03E-09,  avg # of iterations =  1.0

     negative rho (up, down):  6.007E-02 0.000E+00

     total cpu time spent up to now is    42209.5 secs

     total energy              =  -11682.10511837 Ry
     estimated scf accuracy    <       0.00032196 Ry

     iteration #146     ecut=    80.00 Ry     beta= 0.10
     Davidson diagonalization with overlap
     ethr =  4.03E-09,  avg # of iterations =  1.0

     negative rho (up, down):  6.007E-02 0.000E+00

     total cpu time spent up to now is    42493.0 secs

     total energy              =  -11682.10512126 Ry
     estimated scf accuracy    <       0.00010941 Ry

     iteration #147     ecut=    80.00 Ry     beta= 0.10
     Davidson diagonalization with overlap
     ethr =  4.03E-09,  avg # of iterations =  1.0

     negative rho (up, down):  6.007E-02 0.000E+00

     total cpu time spent up to now is    42776.6 secs

     total energy              =  -11682.10512058 Ry
     estimated scf accuracy    <       0.00006727 Ry

     iteration #148     ecut=    80.00 Ry     beta= 0.10
     Davidson diagonalization with overlap
     ethr =  3.59E-09,  avg # of iterations =  1.0

     negative rho (up, down):  6.007E-02 0.000E+00

     total cpu time spent up to now is    43060.3 secs

     total energy              =  -11682.10512101 Ry
     estimated scf accuracy    <       0.00010675 Ry

     iteration #149     ecut=    80.00 Ry     beta= 0.10
     Davidson diagonalization with overlap
     ethr =  3.59E-09,  avg # of iterations =  1.0

     negative rho (up, down):  6.007E-02 0.000E+00

     total cpu time spent up to now is    43344.7 secs

     total energy              =  -11682.10512137 Ry
     estimated scf accuracy    <       0.00012107 Ry

     iteration #150     ecut=    80.00 Ry     beta= 0.10
     Davidson diagonalization with overlap
     ethr =  3.59E-09,  avg # of iterations =  1.0

     negative rho (up, down):  6.007E-02 0.000E+00

     total cpu time spent up to now is    43628.3 secs

     total energy              =  -11682.10512156 Ry
     estimated scf accuracy    <       0.00011394 Ry

     iteration #151     ecut=    80.00 Ry     beta= 0.10
     Davidson diagonalization with overlap
     ethr =  3.59E-09,  avg # of iterations =  1.0

     negative rho (up, down):  6.007E-02 0.000E+00

     total cpu time spent up to now is    43912.8 secs

     total energy              =  -11682.10512240 Ry
     estimated scf accuracy    <       0.00006905 Ry

     iteration #152     ecut=    80.00 Ry     beta= 0.10
     Davidson diagonalization with overlap
     ethr =  3.59E-09,  avg # of iterations =  1.0

     negative rho (up, down):  6.008E-02 0.000E+00

     total cpu time spent up to now is    44196.5 secs

     total energy              =  -11682.10512301 Ry
     estimated scf accuracy    <       0.00003053 Ry

     iteration #153     ecut=    80.00 Ry     beta= 0.10
     Davidson diagonalization with overlap
     ethr =  1.63E-09,  avg # of iterations =  1.0

     negative rho (up, down):  6.008E-02 0.000E+00

     total cpu time spent up to now is    44480.4 secs

     total energy              =  -11682.10512293 Ry
     estimated scf accuracy    <       0.00003956 Ry

     iteration #154     ecut=    80.00 Ry     beta= 0.10
     Davidson diagonalization with overlap
     ethr =  1.63E-09,  avg # of iterations =  1.0

     negative rho (up, down):  6.008E-02 0.000E+00

     total cpu time spent up to now is    44764.6 secs

     total energy              =  -11682.10512359 Ry
     estimated scf accuracy    <       0.00003967 Ry

     iteration #155     ecut=    80.00 Ry     beta= 0.10
     Davidson diagonalization with overlap
     ethr =  1.63E-09,  avg # of iterations =  1.0

     negative rho (up, down):  6.008E-02 0.000E+00

     total cpu time spent up to now is    45049.1 secs

     total energy              =  -11682.10512302 Ry
     estimated scf accuracy    <       0.00008786 Ry

     iteration #156     ecut=    80.00 Ry     beta= 0.10
     Davidson diagonalization with overlap
     ethr =  1.63E-09,  avg # of iterations =  1.0

     negative rho (up, down):  6.008E-02 0.000E+00

     total cpu time spent up to now is    45333.5 secs

     total energy              =  -11682.10512366 Ry
     estimated scf accuracy    <       0.00005746 Ry

     iteration #157     ecut=    80.00 Ry     beta= 0.10
     Davidson diagonalization with overlap
     ethr =  1.63E-09,  avg # of iterations =  1.0

     negative rho (up, down):  6.008E-02 0.000E+00

     total cpu time spent up to now is    45618.0 secs

     total energy              =  -11682.10512370 Ry
     estimated scf accuracy    <       0.00002760 Ry

     iteration #158     ecut=    80.00 Ry     beta= 0.10
     Davidson diagonalization with overlap
     ethr =  1.47E-09,  avg # of iterations =  1.0

     negative rho (up, down):  6.008E-02 0.000E+00

     total cpu time spent up to now is    45902.0 secs

     total energy              =  -11682.10512373 Ry
     estimated scf accuracy    <       0.00006975 Ry

     iteration #159     ecut=    80.00 Ry     beta= 0.10
     Davidson diagonalization with overlap
     ethr =  1.47E-09,  avg # of iterations =  1.0

     negative rho (up, down):  6.008E-02 0.000E+00

     total cpu time spent up to now is    46186.0 secs

     total energy              =  -11682.10512389 Ry
     estimated scf accuracy    <       0.00008016 Ry

     iteration #160     ecut=    80.00 Ry     beta= 0.10
     Davidson diagonalization with overlap
     ethr =  1.47E-09,  avg # of iterations =  1.0

     negative rho (up, down):  6.008E-02 0.000E+00

     total cpu time spent up to now is    46472.0 secs

     total energy              =  -11682.10512390 Ry
     estimated scf accuracy    <       0.00007906 Ry

     iteration #161     ecut=    80.00 Ry     beta= 0.10
     Davidson diagonalization with overlap
     ethr =  1.47E-09,  avg # of iterations =  1.0

     negative rho (up, down):  6.008E-02 0.000E+00

     total cpu time spent up to now is    46756.3 secs

     total energy              =  -11682.10512418 Ry
     estimated scf accuracy    <       0.00005660 Ry

     iteration #162     ecut=    80.00 Ry     beta= 0.10
     Davidson diagonalization with overlap
     ethr =  1.47E-09,  avg # of iterations =  1.0

     negative rho (up, down):  6.008E-02 0.000E+00

     total cpu time spent up to now is    47041.1 secs

     total energy              =  -11682.10512468 Ry
     estimated scf accuracy    <       0.00002207 Ry

     iteration #163     ecut=    80.00 Ry     beta= 0.10
     Davidson diagonalization with overlap
     ethr =  1.18E-09,  avg # of iterations =  1.0

     negative rho (up, down):  6.009E-02 0.000E+00

     total cpu time spent up to now is    47324.7 secs

     total energy              =  -11682.10512473 Ry
     estimated scf accuracy    <       0.00001723 Ry

     iteration #164     ecut=    80.00 Ry     beta= 0.10
     Davidson diagonalization with overlap
     ethr =  9.20E-10,  avg # of iterations =  1.0

     negative rho (up, down):  6.009E-02 0.000E+00

     total cpu time spent up to now is    47609.0 secs

     total energy              =  -11682.10512507 Ry
     estimated scf accuracy    <       0.00001606 Ry

     iteration #165     ecut=    80.00 Ry     beta= 0.10
     Davidson diagonalization with overlap
     ethr =  8.58E-10,  avg # of iterations =  1.0

     negative rho (up, down):  6.009E-02 0.000E+00

     total cpu time spent up to now is    47894.4 secs

     total energy              =  -11682.10512496 Ry
     estimated scf accuracy    <       0.00002422 Ry

     iteration #166     ecut=    80.00 Ry     beta= 0.10
     Davidson diagonalization with overlap
     ethr =  8.58E-10,  avg # of iterations =  1.0

     negative rho (up, down):  6.009E-02 0.000E+00

     total cpu time spent up to now is    48177.9 secs

     total energy              =  -11682.10512503 Ry
     estimated scf accuracy    <       0.00002857 Ry

     iteration #167     ecut=    80.00 Ry     beta= 0.10
     Davidson diagonalization with overlap
     ethr =  8.58E-10,  avg # of iterations =  1.0

     negative rho (up, down):  6.009E-02 0.000E+00

     total cpu time spent up to now is    48461.8 secs

     total energy              =  -11682.10512528 Ry
     estimated scf accuracy    <       0.00001124 Ry

     iteration #168     ecut=    80.00 Ry     beta= 0.10
     Davidson diagonalization with overlap
     ethr =  6.00E-10,  avg # of iterations =  1.0

     negative rho (up, down):  6.009E-02 0.000E+00

     total cpu time spent up to now is    48745.6 secs

     total energy              =  -11682.10512529 Ry
     estimated scf accuracy    <       0.00003212 Ry

     iteration #169     ecut=    80.00 Ry     beta= 0.10
     Davidson diagonalization with overlap
     ethr =  6.00E-10,  avg # of iterations =  1.0

     negative rho (up, down):  6.009E-02 0.000E+00

     total cpu time spent up to now is    49029.7 secs

     total energy              =  -11682.10512538 Ry
     estimated scf accuracy    <       0.00003879 Ry

     iteration #170     ecut=    80.00 Ry     beta= 0.10
     Davidson diagonalization with overlap
     ethr =  6.00E-10,  avg # of iterations =  1.0

     negative rho (up, down):  6.009E-02 0.000E+00

     total cpu time spent up to now is    49313.6 secs

     total energy              =  -11682.10512534 Ry
     estimated scf accuracy    <       0.00004203 Ry

     iteration #171     ecut=    80.00 Ry     beta= 0.10
     Davidson diagonalization with overlap
     ethr =  6.00E-10,  avg # of iterations =  1.0

     negative rho (up, down):  6.009E-02 0.000E+00

     total cpu time spent up to now is    49597.2 secs

     total energy              =  -11682.10512525 Ry
     estimated scf accuracy    <       0.00003958 Ry

     iteration #172     ecut=    80.00 Ry     beta= 0.10
     Davidson diagonalization with overlap
     ethr =  6.00E-10,  avg # of iterations =  1.0

     negative rho (up, down):  6.009E-02 0.000E+00

     total cpu time spent up to now is    49881.2 secs

     total energy              =  -11682.10512557 Ry
     estimated scf accuracy    <       0.00002239 Ry

     iteration #173     ecut=    80.00 Ry     beta= 0.10
     Davidson diagonalization with overlap
     ethr =  6.00E-10,  avg # of iterations =  1.0

     negative rho (up, down):  6.009E-02 0.000E+00

     total cpu time spent up to now is    50164.7 secs

     total energy              =  -11682.10512566 Ry
     estimated scf accuracy    <       0.00001228 Ry

     iteration #174     ecut=    80.00 Ry     beta= 0.10
     Davidson diagonalization with overlap
     ethr =  6.00E-10,  avg # of iterations =  1.0

     negative rho (up, down):  6.009E-02 0.000E+00

     total cpu time spent up to now is    50448.6 secs

     total energy              =  -11682.10512584 Ry
     estimated scf accuracy    <       0.00001122 Ry

     iteration #175     ecut=    80.00 Ry     beta= 0.10
     Davidson diagonalization with overlap
     ethr =  6.00E-10,  avg # of iterations =  1.0

     negative rho (up, down):  6.009E-02 0.000E+00

     total cpu time spent up to now is    50732.9 secs

     total energy              =  -11682.10512586 Ry
     estimated scf accuracy    <       0.00001137 Ry

     iteration #176     ecut=    80.00 Ry     beta= 0.10
     Davidson diagonalization with overlap
     ethr =  6.00E-10,  avg # of iterations =  1.0

     negative rho (up, down):  6.009E-02 0.000E+00

     total cpu time spent up to now is    51017.5 secs

     total energy              =  -11682.10512581 Ry
     estimated scf accuracy    <       0.00001613 Ry

     iteration #177     ecut=    80.00 Ry     beta= 0.10
     Davidson diagonalization with overlap
     ethr =  6.00E-10,  avg # of iterations =  1.0

     negative rho (up, down):  6.010E-02 0.000E+00

     total cpu time spent up to now is    51301.4 secs

     total energy              =  -11682.10512602 Ry
     estimated scf accuracy    <       0.00000518 Ry

     iteration #178     ecut=    80.00 Ry     beta= 0.10
     Davidson diagonalization with overlap
     ethr =  2.76E-10,  avg # of iterations =  1.0

     negative rho (up, down):  6.010E-02 0.000E+00

     total cpu time spent up to now is    51585.3 secs

     total energy              =  -11682.10512605 Ry
     estimated scf accuracy    <       0.00001092 Ry

     iteration #179     ecut=    80.00 Ry     beta= 0.10
     Davidson diagonalization with overlap
     ethr =  2.76E-10,  avg # of iterations =  1.0

     negative rho (up, down):  6.010E-02 0.000E+00

     total cpu time spent up to now is    51868.9 secs

     total energy              =  -11682.10512610 Ry
     estimated scf accuracy    <       0.00001407 Ry

     iteration #180     ecut=    80.00 Ry     beta= 0.10
     Davidson diagonalization with overlap
     ethr =  2.76E-10,  avg # of iterations =  1.0

     negative rho (up, down):  6.010E-02 0.000E+00

     total cpu time spent up to now is    52152.6 secs

     total energy              =  -11682.10512612 Ry
     estimated scf accuracy    <       0.00001622 Ry

     iteration #181     ecut=    80.00 Ry     beta= 0.10
     Davidson diagonalization with overlap
     ethr =  2.76E-10,  avg # of iterations =  1.0

     negative rho (up, down):  6.010E-02 0.000E+00

     total cpu time spent up to now is    52436.5 secs

     total energy              =  -11682.10512596 Ry
     estimated scf accuracy    <       0.00001892 Ry

     iteration #182     ecut=    80.00 Ry     beta= 0.10
     Davidson diagonalization with overlap
     ethr =  2.76E-10,  avg # of iterations =  1.0

     negative rho (up, down):  6.010E-02 0.000E+00

     total cpu time spent up to now is    52720.8 secs

     total energy              =  -11682.10512609 Ry
     estimated scf accuracy    <       0.00002113 Ry

     iteration #183     ecut=    80.00 Ry     beta= 0.10
     Davidson diagonalization with overlap
     ethr =  2.76E-10,  avg # of iterations =  1.0

     negative rho (up, down):  6.010E-02 0.000E+00

     total cpu time spent up to now is    53005.0 secs

     total energy              =  -11682.10512618 Ry
     estimated scf accuracy    <       0.00001008 Ry

     iteration #184     ecut=    80.00 Ry     beta= 0.10
     Davidson diagonalization with overlap
     ethr =  2.76E-10,  avg # of iterations =  1.0

     negative rho (up, down):  6.010E-02 0.000E+00

     total cpu time spent up to now is    53288.6 secs

     total energy              =  -11682.10512626 Ry
     estimated scf accuracy    <       0.00000992 Ry

     iteration #185     ecut=    80.00 Ry     beta= 0.10
     Davidson diagonalization with overlap
     ethr =  2.76E-10,  avg # of iterations =  1.0

     negative rho (up, down):  6.010E-02 0.000E+00

     total cpu time spent up to now is    53572.5 secs

     total energy              =  -11682.10512631 Ry
     estimated scf accuracy    <       0.00000777 Ry

     iteration #186     ecut=    80.00 Ry     beta= 0.10
     Davidson diagonalization with overlap
     ethr =  2.76E-10,  avg # of iterations =  1.0

     negative rho (up, down):  6.010E-02 0.000E+00

     total cpu time spent up to now is    53856.1 secs

     total energy              =  -11682.10512624 Ry
     estimated scf accuracy    <       0.00000979 Ry

     iteration #187     ecut=    80.00 Ry     beta= 0.10
     Davidson diagonalization with overlap
     ethr =  2.76E-10,  avg # of iterations =  1.0

     negative rho (up, down):  6.010E-02 0.000E+00

     total cpu time spent up to now is    54139.8 secs

     total energy              =  -11682.10512638 Ry
     estimated scf accuracy    <       0.00000320 Ry

     iteration #188     ecut=    80.00 Ry     beta= 0.10
     Davidson diagonalization with overlap
     ethr =  1.71E-10,  avg # of iterations =  1.0

     negative rho (up, down):  6.010E-02 0.000E+00

     total cpu time spent up to now is    54423.4 secs

     total energy              =  -11682.10512641 Ry
     estimated scf accuracy    <       0.00000389 Ry

     iteration #189     ecut=    80.00 Ry     beta= 0.10
     Davidson diagonalization with overlap
     ethr =  1.71E-10,  avg # of iterations =  1.0

     negative rho (up, down):  6.010E-02 0.000E+00

     total cpu time spent up to now is    54706.8 secs

     total energy              =  -11682.10512643 Ry
     estimated scf accuracy    <       0.00000483 Ry

     iteration #190     ecut=    80.00 Ry     beta= 0.10
     Davidson diagonalization with overlap
     ethr =  1.71E-10,  avg # of iterations =  1.0

     negative rho (up, down):  6.010E-02 0.000E+00

     total cpu time spent up to now is    54990.2 secs

     total energy              =  -11682.10512646 Ry
     estimated scf accuracy    <       0.00000538 Ry

     iteration #191     ecut=    80.00 Ry     beta= 0.10
     Davidson diagonalization with overlap
     ethr =  1.71E-10,  avg # of iterations =  1.0

     negative rho (up, down):  6.010E-02 0.000E+00

     total cpu time spent up to now is    55274.3 secs

     total energy              =  -11682.10512639 Ry
     estimated scf accuracy    <       0.00000672 Ry

     iteration #192     ecut=    80.00 Ry     beta= 0.10
     Davidson diagonalization with overlap
     ethr =  1.71E-10,  avg # of iterations =  1.0

     negative rho (up, down):  6.010E-02 0.000E+00

     total cpu time spent up to now is    55557.6 secs

     total energy              =  -11682.10512641 Ry
     estimated scf accuracy    <       0.00001500 Ry

     iteration #193     ecut=    80.00 Ry     beta= 0.10
     Davidson diagonalization with overlap
     ethr =  1.71E-10,  avg # of iterations =  1.0

     negative rho (up, down):  6.010E-02 0.000E+00

     total cpu time spent up to now is    55842.4 secs

     total energy              =  -11682.10512649 Ry
     estimated scf accuracy    <       0.00000624 Ry

     iteration #194     ecut=    80.00 Ry     beta= 0.10
     Davidson diagonalization with overlap
     ethr =  1.71E-10,  avg # of iterations =  1.0

     negative rho (up, down):  6.010E-02 0.000E+00

     total cpu time spent up to now is    56127.0 secs

     total energy              =  -11682.10512649 Ry
     estimated scf accuracy    <       0.00000638 Ry

     iteration #195     ecut=    80.00 Ry     beta= 0.10
     Davidson diagonalization with overlap
     ethr =  1.71E-10,  avg # of iterations =  1.0

     negative rho (up, down):  6.010E-02 0.000E+00

     total cpu time spent up to now is    56410.6 secs

     total energy              =  -11682.10512655 Ry
     estimated scf accuracy    <       0.00000475 Ry

     iteration #196     ecut=    80.00 Ry     beta= 0.10
     Davidson diagonalization with overlap
     ethr =  1.71E-10,  avg # of iterations =  1.0

     negative rho (up, down):  6.010E-02 0.000E+00

     total cpu time spent up to now is    56695.0 secs

     total energy              =  -11682.10512648 Ry
     estimated scf accuracy    <       0.00000533 Ry

     iteration #197     ecut=    80.00 Ry     beta= 0.10
     Davidson diagonalization with overlap
     ethr =  1.71E-10,  avg # of iterations =  1.0

     negative rho (up, down):  6.010E-02 0.000E+00

     total cpu time spent up to now is    56978.4 secs

     total energy              =  -11682.10512656 Ry
     estimated scf accuracy    <       0.00000290 Ry

     iteration #198     ecut=    80.00 Ry     beta= 0.10
     Davidson diagonalization with overlap
     ethr =  1.55E-10,  avg # of iterations =  1.0

     negative rho (up, down):  6.010E-02 0.000E+00

     total cpu time spent up to now is    57261.9 secs

     total energy              =  -11682.10512658 Ry
     estimated scf accuracy    <       0.00000214 Ry

     iteration #199     ecut=    80.00 Ry     beta= 0.10
     Davidson diagonalization with overlap
     ethr =  1.14E-10,  avg # of iterations =  1.0

     negative rho (up, down):  6.010E-02 0.000E+00

     total cpu time spent up to now is    57546.1 secs

     total energy              =  -11682.10512659 Ry
     estimated scf accuracy    <       0.00000232 Ry

     iteration #200     ecut=    80.00 Ry     beta= 0.10
     Davidson diagonalization with overlap
     ethr =  1.14E-10,  avg # of iterations =  1.0

     negative rho (up, down):  6.010E-02 0.000E+00

     total cpu time spent up to now is    57831.1 secs

     total energy              =  -11682.10512661 Ry
     estimated scf accuracy    <       0.00000200 Ry

     iteration #201     ecut=    80.00 Ry     beta= 0.10
     Davidson diagonalization with overlap
     ethr =  1.07E-10,  avg # of iterations =  1.0

     negative rho (up, down):  6.010E-02 0.000E+00

     total cpu time spent up to now is    58114.3 secs

     total energy              =  -11682.10512660 Ry
     estimated scf accuracy    <       0.00000212 Ry

     iteration #202     ecut=    80.00 Ry     beta= 0.10
     Davidson diagonalization with overlap
     ethr =  1.07E-10,  avg # of iterations =  1.0

     negative rho (up, down):  6.010E-02 0.000E+00

     total cpu time spent up to now is    58397.8 secs

     total energy              =  -11682.10512659 Ry
     estimated scf accuracy    <       0.00000717 Ry

     iteration #203     ecut=    80.00 Ry     beta= 0.10
     Davidson diagonalization with overlap
     ethr =  1.07E-10,  avg # of iterations =  1.0

     negative rho (up, down):  6.011E-02 0.000E+00

     total cpu time spent up to now is    58682.0 secs

     total energy              =  -11682.10512664 Ry
     estimated scf accuracy    <       0.00000254 Ry

     iteration #204     ecut=    80.00 Ry     beta= 0.10
     Davidson diagonalization with overlap
     ethr =  1.07E-10,  avg # of iterations =  1.0

     negative rho (up, down):  6.011E-02 0.000E+00

     total cpu time spent up to now is    58965.9 secs

     total energy              =  -11682.10512663 Ry
     estimated scf accuracy    <       0.00000254 Ry

     iteration #205     ecut=    80.00 Ry     beta= 0.10
     Davidson diagonalization with overlap
     ethr =  1.07E-10,  avg # of iterations =  1.0

     negative rho (up, down):  6.011E-02 0.000E+00

     total cpu time spent up to now is    59250.9 secs

     total energy              =  -11682.10512665 Ry
     estimated scf accuracy    <       0.00000232 Ry

     iteration #206     ecut=    80.00 Ry     beta= 0.10
     Davidson diagonalization with overlap
     ethr =  1.07E-10,  avg # of iterations =  1.0

     negative rho (up, down):  6.011E-02 0.000E+00

     total cpu time spent up to now is    59534.4 secs

     total energy              =  -11682.10512662 Ry
     estimated scf accuracy    <       0.00000240 Ry

     iteration #207     ecut=    80.00 Ry     beta= 0.10
     Davidson diagonalization with overlap
     ethr =  1.07E-10,  avg # of iterations =  1.0

     negative rho (up, down):  6.011E-02 0.000E+00

     total cpu time spent up to now is    59818.6 secs

     total energy              =  -11682.10512665 Ry
     estimated scf accuracy    <       0.00000300 Ry

     iteration #208     ecut=    80.00 Ry     beta= 0.10
     Davidson diagonalization with overlap
     ethr =  1.07E-10,  avg # of iterations =  1.0

     negative rho (up, down):  6.011E-02 0.000E+00

     total cpu time spent up to now is    60107.2 secs

     total energy              =  -11682.10512666 Ry
     estimated scf accuracy    <       0.00000156 Ry

     iteration #209     ecut=    80.00 Ry     beta= 0.10
     Davidson diagonalization with overlap
     ethr =  8.33E-11,  avg # of iterations =  1.0

     negative rho (up, down):  6.011E-02 0.000E+00

     total cpu time spent up to now is    60391.5 secs

     total energy              =  -11682.10512667 Ry
     estimated scf accuracy    <       0.00000168 Ry

     iteration #210     ecut=    80.00 Ry     beta= 0.10
     Davidson diagonalization with overlap
     ethr =  8.33E-11,  avg # of iterations =  1.0

     negative rho (up, down):  6.011E-02 0.000E+00

     total cpu time spent up to now is    60675.3 secs

     total energy              =  -11682.10512668 Ry
     estimated scf accuracy    <       0.00000108 Ry

     iteration #211     ecut=    80.00 Ry     beta= 0.10
     Davidson diagonalization with overlap
     ethr =  5.75E-11,  avg # of iterations =  1.0

     negative rho (up, down):  6.011E-02 0.000E+00

     total cpu time spent up to now is    60959.0 secs

     total energy              =  -11682.10512668 Ry
     estimated scf accuracy    <       0.00000075 Ry

     iteration #212     ecut=    80.00 Ry     beta= 0.10
     Davidson diagonalization with overlap
     ethr =  4.02E-11,  avg # of iterations =  1.0

     negative rho (up, down):  6.011E-02 0.000E+00

     total cpu time spent up to now is    61243.5 secs

     total energy              =  -11682.10512668 Ry
     estimated scf accuracy    <       0.00000266 Ry

     iteration #213     ecut=    80.00 Ry     beta= 0.10
     Davidson diagonalization with overlap
     ethr =  4.02E-11,  avg # of iterations =  1.0

     negative rho (up, down):  6.011E-02 0.000E+00

     total cpu time spent up to now is    61527.7 secs

     total energy              =  -11682.10512669 Ry
     estimated scf accuracy    <       0.00000088 Ry

     iteration #214     ecut=    80.00 Ry     beta= 0.10
     Davidson diagonalization with overlap
     ethr =  4.02E-11,  avg # of iterations =  1.0

     negative rho (up, down):  6.011E-02 0.000E+00

     total cpu time spent up to now is    61811.1 secs

     total energy              =  -11682.10512669 Ry
     estimated scf accuracy    <       0.00000083 Ry

     iteration #215     ecut=    80.00 Ry     beta= 0.10
     Davidson diagonalization with overlap
     ethr =  4.02E-11,  avg # of iterations =  1.0

     negative rho (up, down):  6.011E-02 0.000E+00

     total cpu time spent up to now is    62094.7 secs

     total energy              =  -11682.10512670 Ry
     estimated scf accuracy    <       0.00000098 Ry

     iteration #216     ecut=    80.00 Ry     beta= 0.10
     Davidson diagonalization with overlap
     ethr =  4.02E-11,  avg # of iterations =  1.0

     negative rho (up, down):  6.011E-02 0.000E+00

     total cpu time spent up to now is    62378.1 secs

     total energy              =  -11682.10512669 Ry
     estimated scf accuracy    <       0.00000095 Ry

     iteration #217     ecut=    80.00 Ry     beta= 0.10
     Davidson diagonalization with overlap
     ethr =  4.02E-11,  avg # of iterations =  1.0

     negative rho (up, down):  6.011E-02 0.000E+00

     total cpu time spent up to now is    62661.5 secs

     total energy              =  -11682.10512669 Ry
     estimated scf accuracy    <       0.00000225 Ry

     iteration #218     ecut=    80.00 Ry     beta= 0.10
     Davidson diagonalization with overlap
     ethr =  4.02E-11,  avg # of iterations =  1.0

     negative rho (up, down):  6.011E-02 0.000E+00

     total cpu time spent up to now is    62945.0 secs

     total energy              =  -11682.10512670 Ry
     estimated scf accuracy    <       0.00000097 Ry

     iteration #219     ecut=    80.00 Ry     beta= 0.10
     Davidson diagonalization with overlap
     ethr =  4.02E-11,  avg # of iterations =  1.0

     negative rho (up, down):  6.011E-02 0.000E+00

     total cpu time spent up to now is    63228.3 secs

     total energy              =  -11682.10512670 Ry
     estimated scf accuracy    <       0.00000130 Ry

     iteration #220     ecut=    80.00 Ry     beta= 0.10
     Davidson diagonalization with overlap
     ethr =  4.02E-11,  avg # of iterations =  1.0

     negative rho (up, down):  6.011E-02 0.000E+00

     total cpu time spent up to now is    63512.4 secs

     total energy              =  -11682.10512671 Ry
     estimated scf accuracy    <       0.00000081 Ry

     iteration #221     ecut=    80.00 Ry     beta= 0.10
     Davidson diagonalization with overlap
     ethr =  4.02E-11,  avg # of iterations =  1.0

     negative rho (up, down):  6.011E-02 0.000E+00

     total cpu time spent up to now is    63795.5 secs

     total energy              =  -11682.10512671 Ry
     estimated scf accuracy    <       0.00000041 Ry

     iteration #222     ecut=    80.00 Ry     beta= 0.10
     Davidson diagonalization with overlap
     ethr =  2.19E-11,  avg # of iterations =  1.0

     negative rho (up, down):  6.011E-02 0.000E+00

     total cpu time spent up to now is    64079.1 secs

     total energy              =  -11682.10512671 Ry
     estimated scf accuracy    <       0.00000125 Ry

     iteration #223     ecut=    80.00 Ry     beta= 0.10
     Davidson diagonalization with overlap
     ethr =  2.19E-11,  avg # of iterations =  1.0

     negative rho (up, down):  6.011E-02 0.000E+00

     total cpu time spent up to now is    64363.1 secs

     total energy              =  -11682.10512672 Ry
     estimated scf accuracy    <       0.00000043 Ry

     iteration #224     ecut=    80.00 Ry     beta= 0.10
     Davidson diagonalization with overlap
     ethr =  2.19E-11,  avg # of iterations =  1.0

     negative rho (up, down):  6.011E-02 0.000E+00

     total cpu time spent up to now is    64647.5 secs

     total energy              =  -11682.10512672 Ry
     estimated scf accuracy    <       0.00000032 Ry

     iteration #225     ecut=    80.00 Ry     beta= 0.10
     Davidson diagonalization with overlap
     ethr =  1.71E-11,  avg # of iterations =  1.0

     negative rho (up, down):  6.011E-02 0.000E+00

     total cpu time spent up to now is    64931.8 secs

     total energy              =  -11682.10512672 Ry
     estimated scf accuracy    <       0.00000045 Ry

     iteration #226     ecut=    80.00 Ry     beta= 0.10
     Davidson diagonalization with overlap
     ethr =  1.71E-11,  avg # of iterations =  1.0

     negative rho (up, down):  6.011E-02 0.000E+00

     total cpu time spent up to now is    65214.9 secs

     total energy              =  -11682.10512672 Ry
     estimated scf accuracy    <       0.00000034 Ry

     iteration #227     ecut=    80.00 Ry     beta= 0.10
     Davidson diagonalization with overlap
     ethr =  1.71E-11,  avg # of iterations =  1.0

     negative rho (up, down):  6.011E-02 0.000E+00

     total cpu time spent up to now is    65498.2 secs

     total energy              =  -11682.10512672 Ry
     estimated scf accuracy    <       0.00000094 Ry

     iteration #228     ecut=    80.00 Ry     beta= 0.10
     Davidson diagonalization with overlap
     ethr =  1.71E-11,  avg # of iterations =  1.0

     negative rho (up, down):  6.011E-02 0.000E+00

     total cpu time spent up to now is    65782.0 secs

     total energy              =  -11682.10512672 Ry
     estimated scf accuracy    <       0.00000045 Ry

     iteration #229     ecut=    80.00 Ry     beta= 0.10
     Davidson diagonalization with overlap
     ethr =  1.71E-11,  avg # of iterations =  1.0

     negative rho (up, down):  6.011E-02 0.000E+00

     total cpu time spent up to now is    66065.5 secs

     total energy              =  -11682.10512672 Ry
     estimated scf accuracy    <       0.00000083 Ry

     iteration #230     ecut=    80.00 Ry     beta= 0.10
     Davidson diagonalization with overlap
     ethr =  1.71E-11,  avg # of iterations =  1.0

     negative rho (up, down):  6.011E-02 0.000E+00

     total cpu time spent up to now is    66349.0 secs

     total energy              =  -11682.10512672 Ry
     estimated scf accuracy    <       0.00000067 Ry

     iteration #231     ecut=    80.00 Ry     beta= 0.10
     Davidson diagonalization with overlap
     ethr =  1.71E-11,  avg # of iterations =  1.0

     negative rho (up, down):  6.011E-02 0.000E+00

     total cpu time spent up to now is    66632.5 secs

     total energy              =  -11682.10512672 Ry
     estimated scf accuracy    <       0.00000032 Ry

     iteration #232     ecut=    80.00 Ry     beta= 0.10
     Davidson diagonalization with overlap
     ethr =  1.71E-11,  avg # of iterations =  1.0

     negative rho (up, down):  6.011E-02 0.000E+00

     total cpu time spent up to now is    66916.1 secs

     total energy              =  -11682.10512672 Ry
     estimated scf accuracy    <       0.00000080 Ry

     iteration #233     ecut=    80.00 Ry     beta= 0.10
     Davidson diagonalization with overlap
     ethr =  1.71E-11,  avg # of iterations =  1.0

     negative rho (up, down):  6.011E-02 0.000E+00

     total cpu time spent up to now is    67199.3 secs

     total energy              =  -11682.10512672 Ry
     estimated scf accuracy    <       0.00000034 Ry

     iteration #234     ecut=    80.00 Ry     beta= 0.10
     Davidson diagonalization with overlap
     ethr =  1.71E-11,  avg # of iterations =  1.0

     negative rho (up, down):  6.011E-02 0.000E+00

     total cpu time spent up to now is    67483.1 secs

     total energy              =  -11682.10512672 Ry
     estimated scf accuracy    <       0.00000019 Ry

     iteration #235     ecut=    80.00 Ry     beta= 0.10
     Davidson diagonalization with overlap
     ethr =  1.01E-11,  avg # of iterations =  1.0

     negative rho (up, down):  6.011E-02 0.000E+00

     total cpu time spent up to now is    67766.4 secs

     total energy              =  -11682.10512672 Ry
     estimated scf accuracy    <       0.00000029 Ry

     iteration #236     ecut=    80.00 Ry     beta= 0.10
     Davidson diagonalization with overlap
     ethr =  1.01E-11,  avg # of iterations =  1.0

     negative rho (up, down):  6.011E-02 0.000E+00

     total cpu time spent up to now is    68050.1 secs

     total energy              =  -11682.10512672 Ry
     estimated scf accuracy    <       0.00000013 Ry

     iteration #237     ecut=    80.00 Ry     beta= 0.10
     Davidson diagonalization with overlap
     ethr =  7.05E-12,  avg # of iterations =  1.0

     negative rho (up, down):  6.011E-02 0.000E+00

     total cpu time spent up to now is    68334.0 secs

     total energy              =  -11682.10512672 Ry
     estimated scf accuracy    <       0.00000028 Ry

     iteration #238     ecut=    80.00 Ry     beta= 0.10
     Davidson diagonalization with overlap
     ethr =  7.05E-12,  avg # of iterations =  1.0

     negative rho (up, down):  6.011E-02 0.000E+00

     total cpu time spent up to now is    68618.1 secs

     total energy              =  -11682.10512672 Ry
     estimated scf accuracy    <       0.00000019 Ry

     iteration #239     ecut=    80.00 Ry     beta= 0.10
     Davidson diagonalization with overlap
     ethr =  7.05E-12,  avg # of iterations =  1.0

     negative rho (up, down):  6.011E-02 0.000E+00

     total cpu time spent up to now is    68901.4 secs

     total energy              =  -11682.10512672 Ry
     estimated scf accuracy    <       0.00000041 Ry

     iteration #240     ecut=    80.00 Ry     beta= 0.10
     Davidson diagonalization with overlap
     ethr =  7.05E-12,  avg # of iterations =  1.0

     negative rho (up, down):  6.011E-02 0.000E+00

     total cpu time spent up to now is    69184.8 secs

     total energy              =  -11682.10512672 Ry
     estimated scf accuracy    <       0.00000045 Ry

     iteration #241     ecut=    80.00 Ry     beta= 0.10
     Davidson diagonalization with overlap
     ethr =  7.05E-12,  avg # of iterations =  1.0

     negative rho (up, down):  6.011E-02 0.000E+00

     total cpu time spent up to now is    69468.5 secs

     total energy              =  -11682.10512672 Ry
     estimated scf accuracy    <       0.00000024 Ry

     iteration #242     ecut=    80.00 Ry     beta= 0.10
     Davidson diagonalization with overlap
     ethr =  7.05E-12,  avg # of iterations =  1.0

     negative rho (up, down):  6.011E-02 0.000E+00

     total cpu time spent up to now is    69752.9 secs

     total energy              =  -11682.10512672 Ry
     estimated scf accuracy    <       0.00000044 Ry

     iteration #243     ecut=    80.00 Ry     beta= 0.10
     Davidson diagonalization with overlap
     ethr =  7.05E-12,  avg # of iterations =  1.0

     negative rho (up, down):  6.011E-02 0.000E+00

     total cpu time spent up to now is    70047.0 secs

     total energy              =  -11682.10512672 Ry
     estimated scf accuracy    <       0.00000028 Ry

     iteration #244     ecut=    80.00 Ry     beta= 0.10
     Davidson diagonalization with overlap
     ethr =  7.05E-12,  avg # of iterations =  1.0

     negative rho (up, down):  6.011E-02 0.000E+00

     total cpu time spent up to now is    70330.4 secs

     total energy              =  -11682.10512672 Ry
     estimated scf accuracy    <       0.00000014 Ry

     iteration #245     ecut=    80.00 Ry     beta= 0.10
     Davidson diagonalization with overlap
     ethr =  7.05E-12,  avg # of iterations =  1.0

     negative rho (up, down):  6.011E-02 0.000E+00

     total cpu time spent up to now is    70615.6 secs

     total energy              =  -11682.10512672 Ry
     estimated scf accuracy    <       0.00000025 Ry

     iteration #246     ecut=    80.00 Ry     beta= 0.10
     Davidson diagonalization with overlap
     ethr =  7.05E-12,  avg # of iterations =  1.0

     negative rho (up, down):  6.011E-02 0.000E+00

     total cpu time spent up to now is    70899.5 secs

     total energy              =  -11682.10512672 Ry
     estimated scf accuracy    <       0.00000008 Ry

     iteration #247     ecut=    80.00 Ry     beta= 0.10
     Davidson diagonalization with overlap
     ethr =  4.08E-12,  avg # of iterations =  1.0

     negative rho (up, down):  6.011E-02 0.000E+00

     total cpu time spent up to now is    71185.3 secs

     total energy              =  -11682.10512672 Ry
     estimated scf accuracy    <       0.00000010 Ry

     iteration #248     ecut=    80.00 Ry     beta= 0.10
     Davidson diagonalization with overlap
     ethr =  4.08E-12,  avg # of iterations =  1.0

     negative rho (up, down):  6.011E-02 0.000E+00

     total cpu time spent up to now is    71468.6 secs

     total energy              =  -11682.10512672 Ry
     estimated scf accuracy    <       0.00000009 Ry

     iteration #249     ecut=    80.00 Ry     beta= 0.10
     Davidson diagonalization with overlap
     ethr =  4.08E-12,  avg # of iterations =  1.0

     negative rho (up, down):  6.011E-02 0.000E+00

     total cpu time spent up to now is    71752.4 secs

     total energy              =  -11682.10512672 Ry
     estimated scf accuracy    <       0.00000016 Ry

     iteration #250     ecut=    80.00 Ry     beta= 0.10
     Davidson diagonalization with overlap
     ethr =  4.08E-12,  avg # of iterations =  1.0

     negative rho (up, down):  6.011E-02 0.000E+00

     total cpu time spent up to now is    72036.0 secs

     total energy              =  -11682.10512672 Ry
     estimated scf accuracy    <       0.00000021 Ry

     iteration #251     ecut=    80.00 Ry     beta= 0.10
     Davidson diagonalization with overlap
     ethr =  4.08E-12,  avg # of iterations =  1.0

     negative rho (up, down):  6.011E-02 0.000E+00

     total cpu time spent up to now is    72320.2 secs

     total energy              =  -11682.10512672 Ry
     estimated scf accuracy    <       0.00000014 Ry

     iteration #252     ecut=    80.00 Ry     beta= 0.10
     Davidson diagonalization with overlap
     ethr =  4.08E-12,  avg # of iterations =  1.0

     negative rho (up, down):  6.011E-02 0.000E+00

     total cpu time spent up to now is    72603.7 secs

     total energy              =  -11682.10512672 Ry
     estimated scf accuracy    <       0.00000017 Ry

     iteration #253     ecut=    80.00 Ry     beta= 0.10
     Davidson diagonalization with overlap
     ethr =  4.08E-12,  avg # of iterations =  1.0

     negative rho (up, down):  6.011E-02 0.000E+00

     total cpu time spent up to now is    72887.0 secs

     total energy              =  -11682.10512672 Ry
     estimated scf accuracy    <       0.00000017 Ry

     iteration #254     ecut=    80.00 Ry     beta= 0.10
     Davidson diagonalization with overlap
     ethr =  4.08E-12,  avg # of iterations =  1.0

     negative rho (up, down):  6.011E-02 0.000E+00

     total cpu time spent up to now is    73170.8 secs

     total energy              =  -11682.10512672 Ry
     estimated scf accuracy    <       0.00000009 Ry

     iteration #255     ecut=    80.00 Ry     beta= 0.10
     Davidson diagonalization with overlap
     ethr =  4.08E-12,  avg # of iterations =  1.0

     negative rho (up, down):  6.011E-02 0.000E+00

     total cpu time spent up to now is    73454.6 secs

     total energy              =  -11682.10512672 Ry
     estimated scf accuracy    <       0.00000021 Ry

     iteration #256     ecut=    80.00 Ry     beta= 0.10
     Davidson diagonalization with overlap
     ethr =  4.08E-12,  avg # of iterations =  1.0

     negative rho (up, down):  6.011E-02 0.000E+00

     total cpu time spent up to now is    73739.1 secs

     total energy              =  -11682.10512672 Ry
     estimated scf accuracy    <       0.00000007 Ry

     iteration #257     ecut=    80.00 Ry     beta= 0.10
     Davidson diagonalization with overlap
     ethr =  3.69E-12,  avg # of iterations =  1.0

     negative rho (up, down):  6.011E-02 0.000E+00

     total cpu time spent up to now is    74023.5 secs

     total energy              =  -11682.10512672 Ry
     estimated scf accuracy    <       0.00000005 Ry

     iteration #258     ecut=    80.00 Ry     beta= 0.10
     Davidson diagonalization with overlap
     ethr =  2.57E-12,  avg # of iterations =  1.0

     negative rho (up, down):  6.011E-02 0.000E+00

     total cpu time spent up to now is    74309.4 secs

     total energy              =  -11682.10512672 Ry
     estimated scf accuracy    <       0.00000005 Ry

     iteration #259     ecut=    80.00 Ry     beta= 0.10
     Davidson diagonalization with overlap
     ethr =  2.57E-12,  avg # of iterations =  1.0

     negative rho (up, down):  6.011E-02 0.000E+00

     total cpu time spent up to now is    74592.8 secs

     total energy              =  -11682.10512672 Ry
     estimated scf accuracy    <       0.00000007 Ry

     iteration #260     ecut=    80.00 Ry     beta= 0.10
     Davidson diagonalization with overlap
     ethr =  2.57E-12,  avg # of iterations =  1.0

     negative rho (up, down):  6.011E-02 0.000E+00

     total cpu time spent up to now is    74876.8 secs

     total energy              =  -11682.10512672 Ry
     estimated scf accuracy    <       0.00000009 Ry

     iteration #261     ecut=    80.00 Ry     beta= 0.10
     Davidson diagonalization with overlap
     ethr =  2.57E-12,  avg # of iterations =  1.0

     negative rho (up, down):  6.011E-02 0.000E+00

     total cpu time spent up to now is    75160.5 secs

     total energy              =  -11682.10512672 Ry
     estimated scf accuracy    <       0.00000007 Ry

     iteration #262     ecut=    80.00 Ry     beta= 0.10
     Davidson diagonalization with overlap
     ethr =  2.57E-12,  avg # of iterations =  1.0

     negative rho (up, down):  6.011E-02 0.000E+00

     total cpu time spent up to now is    75444.1 secs

     total energy              =  -11682.10512672 Ry
     estimated scf accuracy    <       0.00000005 Ry

     iteration #263     ecut=    80.00 Ry     beta= 0.10
     Davidson diagonalization with overlap
     ethr =  2.57E-12,  avg # of iterations =  1.0

     negative rho (up, down):  6.011E-02 0.000E+00

     total cpu time spent up to now is    75728.9 secs

     total energy              =  -11682.10512672 Ry
     estimated scf accuracy    <       0.00000007 Ry

     iteration #264     ecut=    80.00 Ry     beta= 0.10
     Davidson diagonalization with overlap
     ethr =  2.57E-12,  avg # of iterations =  1.0

     negative rho (up, down):  6.011E-02 0.000E+00

     total cpu time spent up to now is    76013.2 secs

     total energy              =  -11682.10512672 Ry
     estimated scf accuracy    <       0.00000005 Ry

     iteration #265     ecut=    80.00 Ry     beta= 0.10
     Davidson diagonalization with overlap
     ethr =  2.57E-12,  avg # of iterations =  1.0

     negative rho (up, down):  6.011E-02 0.000E+00

     total cpu time spent up to now is    76297.4 secs

     total energy              =  -11682.10512672 Ry
     estimated scf accuracy    <       0.00000013 Ry

     iteration #266     ecut=    80.00 Ry     beta= 0.10
     Davidson diagonalization with overlap
     ethr =  2.57E-12,  avg # of iterations =  1.0

     negative rho (up, down):  6.011E-02 0.000E+00

     total cpu time spent up to now is    76581.9 secs

     total energy              =  -11682.10512672 Ry
     estimated scf accuracy    <       0.00000007 Ry

     iteration #267     ecut=    80.00 Ry     beta= 0.10
     Davidson diagonalization with overlap
     ethr =  2.57E-12,  avg # of iterations =  1.0

     negative rho (up, down):  6.011E-02 0.000E+00

     total cpu time spent up to now is    76866.6 secs

     total energy              =  -11682.10512672 Ry
     estimated scf accuracy    <       0.00000002 Ry

     iteration #268     ecut=    80.00 Ry     beta= 0.10
     Davidson diagonalization with overlap
     ethr =  1.33E-12,  avg # of iterations =  1.0

     negative rho (up, down):  6.011E-02 0.000E+00

     total cpu time spent up to now is    77151.2 secs

     total energy              =  -11682.10512672 Ry
     estimated scf accuracy    <       0.00000003 Ry

     iteration #269     ecut=    80.00 Ry     beta= 0.10
     Davidson diagonalization with overlap
     ethr =  1.33E-12,  avg # of iterations =  1.0

     negative rho (up, down):  6.011E-02 0.000E+00

     total cpu time spent up to now is    77435.2 secs

     total energy              =  -11682.10512672 Ry
     estimated scf accuracy    <       0.00000003 Ry

     iteration #270     ecut=    80.00 Ry     beta= 0.10
     Davidson diagonalization with overlap
     ethr =  1.33E-12,  avg # of iterations =  1.0

     negative rho (up, down):  6.011E-02 0.000E+00

     total cpu time spent up to now is    77718.6 secs

     total energy              =  -11682.10512672 Ry
     estimated scf accuracy    <       0.00000004 Ry

     iteration #271     ecut=    80.00 Ry     beta= 0.10
     Davidson diagonalization with overlap
     ethr =  1.33E-12,  avg # of iterations =  1.0

     negative rho (up, down):  6.011E-02 0.000E+00

     total cpu time spent up to now is    78002.4 secs

     total energy              =  -11682.10512672 Ry
     estimated scf accuracy    <       0.00000004 Ry

     iteration #272     ecut=    80.00 Ry     beta= 0.10
     Davidson diagonalization with overlap
     ethr =  1.33E-12,  avg # of iterations =  1.0

     negative rho (up, down):  6.011E-02 0.000E+00

     total cpu time spent up to now is    78285.9 secs

     total energy              =  -11682.10512672 Ry
     estimated scf accuracy    <       0.00000002 Ry

     iteration #273     ecut=    80.00 Ry     beta= 0.10
     Davidson diagonalization with overlap
     ethr =  9.15E-13,  avg # of iterations =  1.0

     negative rho (up, down):  6.011E-02 0.000E+00

     total cpu time spent up to now is    78569.7 secs

     total energy              =  -11682.10512672 Ry
     estimated scf accuracy    <       0.00000003 Ry

     iteration #274     ecut=    80.00 Ry     beta= 0.10
     Davidson diagonalization with overlap
     ethr =  9.15E-13,  avg # of iterations =  1.0

     negative rho (up, down):  6.011E-02 0.000E+00

     total cpu time spent up to now is    78855.0 secs

     total energy              =  -11682.10512672 Ry
     estimated scf accuracy    <       0.00000003 Ry

     iteration #275     ecut=    80.00 Ry     beta= 0.10
     Davidson diagonalization with overlap
     ethr =  9.15E-13,  avg # of iterations =  1.0

     negative rho (up, down):  6.011E-02 0.000E+00

     total cpu time spent up to now is    79138.6 secs

     total energy              =  -11682.10512672 Ry
     estimated scf accuracy    <       0.00000005 Ry

     iteration #276     ecut=    80.00 Ry     beta= 0.10
     Davidson diagonalization with overlap
     ethr =  9.15E-13,  avg # of iterations =  1.0

     negative rho (up, down):  6.011E-02 0.000E+00

     total cpu time spent up to now is    79422.6 secs

     total energy              =  -11682.10512672 Ry
     estimated scf accuracy    <       0.00000005 Ry

     iteration #277     ecut=    80.00 Ry     beta= 0.10
     Davidson diagonalization with overlap
     ethr =  9.15E-13,  avg # of iterations =  1.0

     negative rho (up, down):  6.011E-02 0.000E+00

     total cpu time spent up to now is    79706.6 secs

     total energy              =  -11682.10512672 Ry
     estimated scf accuracy    <       0.00000001 Ry

     iteration #278     ecut=    80.00 Ry     beta= 0.10
     Davidson diagonalization with overlap
     ethr =  6.63E-13,  avg # of iterations =  1.0

     negative rho (up, down):  6.011E-02 0.000E+00

     total cpu time spent up to now is    79991.4 secs

     total energy              =  -11682.10512672 Ry
     estimated scf accuracy    <       0.00000002 Ry

     iteration #279     ecut=    80.00 Ry     beta= 0.10
     Davidson diagonalization with overlap
     ethr =  6.63E-13,  avg # of iterations =  1.0

     negative rho (up, down):  6.011E-02 0.000E+00

     total cpu time spent up to now is    80275.3 secs

     total energy              =  -11682.10512671 Ry
     estimated scf accuracy    <       0.00000002 Ry

     iteration #280     ecut=    80.00 Ry     beta= 0.10
     Davidson diagonalization with overlap
     ethr =  6.63E-13,  avg # of iterations =  1.0

     negative rho (up, down):  6.011E-02 0.000E+00

     total cpu time spent up to now is    80559.4 secs

     total energy              =  -11682.10512672 Ry
     estimated scf accuracy    <       0.00000003 Ry

     iteration #281     ecut=    80.00 Ry     beta= 0.10
     Davidson diagonalization with overlap
     ethr =  6.63E-13,  avg # of iterations =  1.0

     negative rho (up, down):  6.011E-02 0.000E+00

     total cpu time spent up to now is    80843.8 secs

     total energy              =  -11682.10512671 Ry
     estimated scf accuracy    <       0.00000002 Ry

     iteration #282     ecut=    80.00 Ry     beta= 0.10
     Davidson diagonalization with overlap
     ethr =  6.63E-13,  avg # of iterations =  1.0

     negative rho (up, down):  6.011E-02 0.000E+00

     total cpu time spent up to now is    81128.0 secs

     End of self-consistent calculation

          k = 0.0000 0.0000 0.0000 (****** PWs)   bands (ev):

   -58.0830 -56.3045 -55.9642 -55.9358 -55.7129 -55.6939 -55.1330 -55.0886
   -54.8621 -54.6072 -53.9693 -30.0096 -29.9924 -29.9544 -28.2553 -28.2126
   -28.1714 -27.8975 -27.8898 -27.8724 -27.8539 -27.8499 -27.8309 -27.6617
   -27.6460 -27.6184 -27.5959 -27.5810 -27.5674 -27.2345 -27.1038 -27.0437
   -27.0413 -27.0090 -26.9807 -26.9603 -26.8546 -26.8030 -26.7624 -26.5836
   -26.5448 -26.4897 -26.3583 -26.2298 -25.9764 -25.9201 -25.8921 -25.8742
   -25.8712 -25.8606 -25.7220 -25.6819 -25.6624 -25.6556 -25.5564 -25.4699
   -25.4007 -25.3402 -25.2914 -25.2342 -25.2129 -25.1590 -25.1349 -25.1175
   -25.1054 -25.0976 -25.0497 -25.0097 -25.0006 -24.9890 -24.9539 -24.9532
   -24.9032 -24.8891 -24.8608 -24.8374 -24.8112 -24.7720 -24.7482 -24.7298
   -24.7119 -24.7086 -24.6747 -24.6536 -24.6385 -24.6143 -24.5911 -24.5574
   -24.5439 -24.5090 -24.5054 -24.4811 -24.4669 -24.4399 -24.4295 -24.4077
   -24.3949 -24.3684 -24.3613 -24.3478 -24.3198 -24.3139 -24.2875 -24.2766
   -24.2544 -24.2284 -24.2084 -24.2004 -24.1842 -24.1646 -24.1508 -24.1239
   -24.0929 -24.0786 -24.0658 -24.0443 -24.0283 -24.0018 -23.9728 -23.9694
   -23.9158 -23.8949 -23.8915 -23.8756 -23.8589 -23.8434 -23.8342 -23.8218
   -23.8071 -23.8014 -23.7946 -23.7867 -23.7783 -23.7685 -23.7386 -23.7247
   -23.7106 -23.7043 -23.6909 -23.6647 -23.6591 -23.6458 -23.6269 -23.6171
   -23.6059 -23.5931 -23.5764 -23.5450 -23.5185 -23.5084 -23.4917 -23.4894
   -23.4619 -23.4478 -23.4439 -23.4107 -23.4040 -23.3933 -23.3816 -23.3631
   -23.3524 -23.3229 -23.3150 -23.2972 -23.2876 -23.2583 -23.2494 -23.2279
   -23.2270 -23.2030 -23.1915 -23.1834 -23.1643 -23.1547 -23.1535 -23.1385
   -23.1211 -23.1128 -23.0978 -23.0605 -23.0326 -23.0129 -23.0079 -22.9921
   -22.9838 -22.9616 -22.9480 -22.9354 -22.9303 -22.9028 -22.8952 -22.8773
   -22.8696 -22.8518 -22.8154 -22.8083 -22.8052 -22.7994 -22.7680 -22.7629
   -22.7421 -22.6652 -22.6311 -22.6212 -22.5777 -22.5549 -22.5046 -22.4971
   -22.4915 -22.4872 -22.4831 -22.4284 -22.3670 -22.3467 -22.3406 -22.3210
   -22.3102 -22.2752 -22.2145 -22.1318 -22.0871 -22.0786 -22.0364 -21.9398
   -21.7523 -21.6829 -21.6785 -21.6575 -21.6085 -21.5552 -21.5321 -21.4957
   -21.4316 -21.4091 -20.7451 -20.6985 -20.6653 -20.6561 -20.6547 -20.6276
   -20.6254 -20.5732 -20.5699 -20.4645 -20.4637 -20.2659 -20.1828 -20.1749
   -20.1157 -19.9306 -19.8371 -19.8348 -19.8327 -19.8203 -19.8154 -19.8145
   -19.8114 -19.7846 -19.7770 -19.7689 -19.7049 -19.0021 -18.6253 -17.7765
   -17.0270 -16.2252 -15.4504 -15.3121 -15.2502 -15.1784 -15.0705 -14.9906
   -14.9555 -14.8863 -14.8513 -14.8076 -14.7583 -14.6908 -14.6824 -14.6320
   -14.6069 -14.5206 -14.4424 -14.3864 -14.3117 -14.2828 -14.2298 -14.1999
   -14.1312 -14.1168 -14.1077 -14.0586 -14.0211 -14.0048 -13.9795 -13.9157
   -13.8963 -13.8512 -13.8449 -13.7889 -13.7604 -13.7058 -13.6373 -13.6234
   -13.5981 -13.5461 -13.5414 -13.5227 -13.4743 -13.4230 -13.3986 -13.3875
   -13.3427 -13.3187 -13.3122 -13.2534 -13.2304 -13.1893 -13.1819 -13.1528
   -13.1092 -13.0920 -13.0629 -13.0279 -13.0060 -12.9849 -12.9503 -12.9272
   -12.9023 -12.8740 -12.8352 -12.8247 -12.7685 -12.7494 -12.7279 -12.6504
   -12.6396 -12.6195 -12.5830 -12.5420 -12.5148 -12.4752 -12.4609 -12.4274
   -12.4178 -12.3997 -12.3907 -12.3293 -12.3113 -12.2667 -12.2466 -12.2262
   -12.1850 -12.1418 -12.1223 -12.0997 -12.0782 -12.0485 -12.0166 -11.9879
   -11.9665 -11.9532 -11.9273 -11.9086 -11.8847 -11.8495 -11.8414 -11.8055
   -11.8020 -11.7930 -11.7464 -11.7350 -11.7019 -11.6980 -11.6825 -11.6672
   -11.6449 -11.6361 -11.6178 -11.5951 -11.5818 -11.5644 -11.5604 -11.5440
   -11.5245 -11.5132 -11.4854 -11.4750 -11.4712 -11.4325 -11.4114 -11.3954
   -11.3741 -11.3655 -11.3488 -11.3153 -11.2967 -11.2767 -11.2725 -11.2658
   -11.2436 -11.2392 -11.2201 -11.1987 -11.1843 -11.1696 -11.1658 -11.1403
   -11.0911 -11.0872 -11.0619 -11.0504 -11.0274 -11.0011 -10.9938 -10.9842
   -10.9807 -10.9762 -10.9555 -10.9519 -10.9292 -10.9230 -10.9116 -10.8801
   -10.8778 -10.8403 -10.8193 -10.8094 -10.7929 -10.7901 -10.7616 -10.7533
   -10.7148 -10.6963 -10.6826 -10.6636 -10.6477 -10.6387 -10.6188 -10.5899
   -10.5749 -10.5616 -10.5306 -10.4903 -10.4790 -10.4332 -10.4108 -10.3962
   -10.3821 -10.3336 -10.3118 -10.3066 -10.2820 -10.2642 -10.2110 -10.1756
   -10.1726 -10.1477 -10.1305 -10.0907 -10.0674 -10.0119  -9.9980  -9.9755
    -9.9606  -9.9356  -9.9132  -9.8986  -9.8853  -9.8637  -9.8392  -9.8209
    -9.7675  -9.7483  -9.6915  -9.6869  -9.6693  -9.6393  -9.6294  -9.6130
    -9.5960  -9.5841  -9.5660  -9.5555  -9.5200  -9.4984  -9.4731  -9.4643
    -9.4591  -9.4387  -9.4353  -9.4285  -9.4248  -9.4120  -9.4035  -9.3906
    -9.3471  -9.3311  -9.3237  -9.2899  -9.2789  -9.2704  -9.2476  -9.2413
    -9.2221  -9.2082  -9.1785  -9.1591  -9.1430  -9.1189  -9.1162  -9.0764
    -9.0686  -9.0426  -9.0124  -9.0101  -8.9819  -8.9656  -8.9571  -8.9484
    -8.9389  -8.9239  -8.9057  -8.8839  -8.8721  -8.8633  -8.8385  -8.8353
    -8.8231  -8.8096  -8.8005  -8.7854  -8.7655  -8.7608  -8.7564  -8.7431
    -8.7394  -8.7225  -8.6938  -8.6872  -8.6788  -8.6716  -8.6709  -8.6681
    -8.6522  -8.6407  -8.6337  -8.6146  -8.6112  -8.6006  -8.5902  -8.5742
    -8.5640  -8.5574  -8.5439  -8.5329  -8.5178  -8.4958  -8.4915  -8.4858
    -8.4739  -8.4671  -8.4613  -8.4469  -8.4335  -8.4279  -8.4124  -8.4045
    -8.3977  -8.3856  -8.3696  -8.3680  -8.3637  -8.3490  -8.3368  -8.3227
    -8.3162  -8.3039  -8.2940  -8.2774  -8.2723  -8.2641  -8.2465  -8.2418
    -8.2408  -8.2290  -8.2091  -8.1907  -8.1833  -8.1720  -8.1642  -8.1495
    -8.1381  -8.1358  -8.1288  -8.1235  -8.1202  -8.1058  -8.0970  -8.0888
    -8.0810  -8.0595  -8.0502  -8.0440  -8.0402  -8.0174  -8.0126  -8.0090
    -7.9858  -7.9820  -7.9694  -7.9587  -7.9515  -7.9396  -7.9353  -7.9233
    -7.9222  -7.9068  -7.9011  -7.8921  -7.8780  -7.8739  -7.8636  -7.8501
    -7.8466  -7.8400  -7.8339  -7.8184  -7.8165  -7.8028  -7.7944  -7.7803
    -7.7736  -7.7728  -7.7536  -7.7466  -7.7413  -7.7269  -7.7223  -7.7141
    -7.6991  -7.6968  -7.6850  -7.6744  -7.6723  -7.6539  -7.6514  -7.6384
    -7.6360  -7.6130  -7.6058  -7.6015  -7.5937  -7.5825  -7.5683  -7.5667
    -7.5510  -7.5464  -7.5412  -7.5256  -7.5189  -7.5160  -7.5075  -7.5012
    -7.4856  -7.4782  -7.4726  -7.4641  -7.4583  -7.4284  -7.4145  -7.3998
    -7.3931  -7.3908  -7.3861  -7.3750  -7.3624  -7.3559  -7.3474  -7.3320
    -7.3247  -7.3114  -7.3039  -7.2881  -7.2849  -7.2829  -7.2743  -7.2635
    -7.2532  -7.2404  -7.2306  -7.2198  -7.2132  -7.1946  -7.1847  -7.1768
    -7.1642  -7.1606  -7.1487  -7.1392  -7.1282  -7.1209  -7.1086  -7.1049
    -7.0942  -7.0897  -7.0817  -7.0658  -7.0582  -7.0530  -7.0373  -7.0238
    -7.0067  -6.9986  -6.9879  -6.9754  -6.9647  -6.9543  -6.9449  -6.9416
    -6.9295  -6.9262  -6.9089  -6.8910  -6.8840  -6.8769  -6.8662  -6.8555
    -6.8440  -6.8349  -6.8237  -6.8170  -6.8063  -6.7966  -6.7867  -6.7815
    -6.7743  -6.7602  -6.7525  -6.7378  -6.7270  -6.7218  -6.7205  -6.7078
    -6.6981  -6.6904  -6.6898  -6.6838  -6.6555  -6.6538  -6.6332  -6.6148
    -6.6065  -6.5967  -6.5927  -6.5863  -6.5812  -6.5700  -6.5687  -6.5535
    -6.5491  -6.5360  -6.5324  -6.5207  -6.5070  -6.5022  -6.4887  -6.4799
    -6.4742  -6.4567  -6.4509  -6.4472  -6.4293  -6.4204  -6.4063  -6.3980
    -6.3830  -6.3802  -6.3666  -6.3542  -6.3471  -6.3394  -6.3249  -6.3201
    -6.3125  -6.2940  -6.2811  -6.2771  -6.2663  -6.2447  -6.2423  -6.2083
    -6.1977  -6.1839  -6.1769  -6.1630  -6.1575  -6.1366  -6.1333  -6.1116
    -6.0939  -6.0880  -6.0735  -6.0568  -6.0511  -6.0403  -6.0377  -6.0254
    -6.0177  -6.0080  -5.9863  -5.9793  -5.9678  -5.9477  -5.9444  -5.9391
    -5.9287  -5.9114  -5.8975  -5.8823  -5.8764  -5.8680  -5.8472  -5.8304
    -5.8254  -5.8210  -5.8171  -5.8019  -5.7871  -5.7836  -5.7769  -5.7534
    -5.7494  -5.7295  -5.7224  -5.7081  -5.7007  -5.6866  -5.6742  -5.6673
    -5.6456  -5.6182  -5.5975  -5.5805  -5.5665  -5.5560  -5.5474  -5.5380
    -5.5126  -5.5000  -5.4894  -5.4772  -5.4441  -5.4404  -5.4361  -5.4340
    -5.4255  -5.4149  -5.3759  -5.3677  -5.3510  -5.3282  -5.3229  -5.3160
    -5.2724  -5.2549  -5.2387  -5.2122  -5.1657  -5.1616  -5.1543  -5.1309
    -5.1053  -5.0709  -4.9692  -4.9539  -4.9403  -4.9347  -4.9280  -4.9152
    -4.8718  -4.8627  -4.8240  -4.8149  -4.7855  -4.7650  -4.7107  -4.7058
    -4.6873  -4.6091  -4.5809  -4.5597  -4.5559  -4.5472  -4.5413  -4.5285
    -4.4458  -4.3532  -4.3068  -4.3061  -4.2477  -4.2115  -4.1458  -4.1404
    -4.1327  -4.1225  -4.1106  -4.0765  -4.0570  -4.0369  -4.0215  -4.0125
    -4.0031  -3.9981  -3.9860  -3.9525  -3.9494  -3.9435  -3.9397  -3.9342
    -3.9279  -3.9191  -3.9136  -3.9052  -3.9013  -3.8982  -3.8903  -3.8874
    -3.8834  -3.8788  -3.8638  -3.8490  -3.8439  -3.8361  -3.8264  -3.8224
    -3.8131  -3.8128  -3.7791  -3.7694  -3.7511  -3.7328  -3.7322  -3.7192
    -3.6364  -3.5532  -3.4895  -3.4420  -3.4203  -3.3832  -3.2825  -3.2108
    -2.8305  -2.7292  -2.3260  -2.0961  -1.6714  -0.7458  -0.7209  -0.5772
    -0.5249  -0.5069  -0.3733  -0.3461  -0.2681  -0.2123  -0.1305  -0.1067
    -0.0592   0.0493   0.1487   0.2108   0.2899   0.3655   0.4310   0.5246
     0.5782   0.6112   0.6372   0.6691   0.7238   0.7783   0.8338   0.8385
     0.8792   0.9218   0.9580   0.9933   1.0391   1.0465   1.0501   1.1049
     1.1135   1.1432   1.1809   1.2021   1.2329   1.2652   1.2730   1.2871
     1.3194   1.3410   1.3449   1.3917   1.3939   1.4037   1.4218   1.4344
     1.4565   1.5145   1.5191   1.5471   1.5810   1.5964   1.6228   1.6295
     1.6387   1.6543   1.6892   1.6986   1.7064   1.7261   1.7370   1.7672
     1.7738   1.8023   1.8203   1.8398   1.8562   1.8730   1.8906   1.9086
     1.9241   1.9299   1.9501   1.9677   1.9949   2.0000   2.0206   2.0271
     2.0477   2.0568   2.0676   2.0707   2.0797   2.0977   2.1017   2.1077
     2.1100   2.1285   2.1308   2.1396   2.1726   2.1752   2.2055   2.2124
     2.2245   2.2307   2.2424   2.2624   2.2757   2.3011   2.3024   2.3314
     2.3443   2.3566   2.3652   2.3707   2.3776   2.3996   2.4135   2.4180
     2.4302   2.4495   2.4630   2.4659   2.4742   2.4837   2.4984   2.5065
     2.5085   2.5261   2.5364   2.5483   2.5590   2.5657   2.5720   2.5823
     2.5951   2.6028   2.6184   2.6227   2.6269   2.6305   2.6530   2.6623
     2.6651   2.6786   2.6827   2.6947   2.7049   2.7130   2.7211   2.7264
     2.7327   2.7404   2.7489   2.7498   2.7660   2.7739   2.7819   2.7959
     2.7987   2.8103   2.8220   2.8314   2.8513   2.8594   2.8614   2.8697
     2.8764   2.8872   2.8971

     the Fermi energy is    -3.7875 ev

!    total energy              =  -11682.10512670 Ry
     estimated scf accuracy    <          8.5E-09 Ry
     smearing contrib. (-TS)   =      -0.11090104 Ry
     internal energy E=F+TS    =  -11681.99422566 Ry

     The total energy is F=E-TS. E is the sum of the following terms:
     one-electron contribution = -357292.99814336 Ry
     hartree contribution      =  179102.57822920 Ry
     xc contribution           =   -2470.89681956 Ry
     ewald contribution        =  171339.02733470 Ry
     one-center paw contrib.   =   -2359.70482664 Ry

     convergence has been achieved in 282 iterations

     negative rho (up, down):  6.011E-02 0.000E+00

     Forces acting on atoms (cartesian axes, Ry/au):

     atom    1 type  1   force =     0.01199012    0.01351355    0.05505023
     atom    2 type  1   force =     0.02830900    0.02472641   -0.00018470
     atom    3 type  1   force =     0.00759911    0.00108079   -0.00348861
     atom    4 type  1   force =    -0.01245990   -0.01522667   -0.01030934
     atom    5 type  1   force =     0.01478880   -0.02243005   -0.02708357
     atom    6 type  1   force =     0.00350943   -0.00147410    0.00463445
     atom    7 type  1   force =    -0.00852082    0.01191153    0.01203576
     atom    8 type  1   force =    -0.01214741   -0.03108031    0.00339108
     atom    9 type  1   force =    -0.00149564    0.00641444    0.01348670
     atom   10 type  1   force =     0.01824287   -0.00178431    0.01767064
     atom   11 type  1   force =    -0.01121251   -0.00523358   -0.01232255
     atom   12 type  2   force =     0.00697596    0.12281757   -0.04037355
     atom   13 type  2   force =     0.13684975    0.10066630   -0.00114575
     atom   14 type  2   force =     0.08062093    0.03196489   -0.06290790
     atom   15 type  2   force =     0.14690983   -0.03951106   -0.15272075
     atom   16 type  2   force =     0.02149701    0.03840519    0.04014015
     atom   17 type  2   force =     0.15428391    0.01500035    0.25438071
     atom   18 type  2   force =    -0.01246857   -0.04665745   -0.04947577
     atom   19 type  2   force =    -0.01073140    0.03865822   -0.10069962
     atom   20 type  2   force =    -0.02586351   -0.01329952   -0.04180745
     atom   21 type  2   force =    -0.05465459    0.13496628   -0.03939378
     atom   22 type  2   force =     0.03572774   -0.13309508    0.09257806
     atom   23 type  2   force =    -0.03934225   -0.06824950   -0.05871708
     atom   24 type  2   force =     0.03247402    0.02647297    0.01011965
     atom   25 type  2   force =     0.06548684    0.00674902    0.07204108
     atom   26 type  2   force =    -0.01649089   -0.00959664   -0.01108221
     atom   27 type  2   force =     0.04179086    0.11800636   -0.07349064
     atom   28 type  2   force =    -0.00194647   -0.05839428   -0.01139678
     atom   29 type  2   force =    -0.03140869   -0.05047411    0.08152597
     atom   30 type  2   force =     0.03233437   -0.03167558   -0.03952552
     atom   31 type  2   force =     0.03575569    0.02201777    0.00222533
     atom   32 type  2   force =    -0.00991035   -0.06579629    0.08800990
     atom   33 type  2   force =    -0.05573015    0.01800836   -0.05541343
     atom   34 type  2   force =     0.06104981   -0.02692980   -0.02230579
     atom   35 type  3   force =    -0.01331788   -0.07802871    0.00316238
     atom   36 type  3   force =    -0.16432320    0.08794102   -0.04855614
     atom   37 type  3   force =    -0.06763849    0.03586276   -0.01400855
     atom   38 type  3   force =    -0.05433029   -0.00011305   -0.00933795
     atom   39 type  3   force =     0.07406051    0.00716325    0.01036504
     atom   40 type  3   force =     0.08666154    0.02283189   -0.04332533
     atom   41 type  3   force =    -0.10894838   -0.09032137   -0.13253964
     atom   42 type  3   force =     0.01206217   -0.06052396    0.06463123
     atom   43 type  3   force =     0.01843732   -0.02231232   -0.04845516
     atom   44 type  3   force =     0.06109426    0.10573393    0.04120178
     atom   45 type  3   force =    -0.03233308   -0.00092214   -0.03155004
     atom   46 type  3   force =    -0.03629716    0.12441125    0.05983399
     atom   47 type  3   force =    -0.05595465    0.00757458   -0.14729167
     atom   48 type  3   force =    -0.02875495   -0.12203234   -0.13758527
     atom   49 type  3   force =     0.06189554    0.18236957    0.05227583
     atom   50 type  3   force =     0.04372282   -0.02212446   -0.09773062
     atom   51 type  3   force =    -0.01918217    0.04788454    0.07058511
     atom   52 type  3   force =    -0.12116671   -0.10578957    0.11948226
     atom   53 type  3   force =    -0.12316112   -0.10990918   -0.05470975
     atom   54 type  3   force =    -0.03654601   -0.02307838    0.10038901
     atom   55 type  3   force =    -0.14997446    0.03096817    0.03096819
     atom   56 type  3   force =    -0.02261216    0.01123833    0.12161715
     atom   57 type  3   force =     0.00706392   -0.09506303   -0.04894226
     atom   58 type  3   force =     0.06093546   -0.00841095    0.04779225
     atom   59 type  3   force =    -0.03557193   -0.01076923    0.03894723
     atom   60 type  3   force =     0.07904405   -0.07455248   -0.00356292
     atom   61 type  3   force =     0.01541247    0.19123400    0.03556425
     atom   62 type  3   force =    -0.01925452   -0.01655646   -0.00616741
     atom   63 type  3   force =     0.01626462    0.01191310   -0.00639749
     atom   64 type  3   force =     0.00301355    0.05905793    0.08276969
     atom   65 type  3   force =    -0.00813710    0.02320677    0.02032467
     atom   66 type  3   force =    -0.01588706    0.00339084   -0.01873419
     atom   67 type  3   force =     0.03131604    0.00052368    0.10216807
     atom   68 type  3   force =    -0.06486574   -0.03465993    0.07981792
     atom   69 type  3   force =     0.04497034    0.03723513    0.03186894
     atom   70 type  3   force =    -0.05033557   -0.06709820   -0.05576401
     atom   71 type  3   force =     0.04848523   -0.03741672    0.05247704
     atom   72 type  3   force =     0.01423315    0.11139613    0.19922761
     atom   73 type  3   force =    -0.07869397    0.05105821   -0.07639845
     atom   74 type  3   force =     0.00530397   -0.06456396   -0.04794406
     atom   75 type  3   force =    -0.06312877    0.00863984   -0.00230198
     atom   76 type  3   force =     0.04452297   -0.10613526   -0.06057526
     atom   77 type  3   force =    -0.03078059    0.07737790    0.03345316
     atom   78 type  3   force =    -0.09863116   -0.02063975   -0.06889314
     atom   79 type  3   force =    -0.00397200   -0.04281772    0.03499305
     atom   80 type  3   force =    -0.03166898    0.03979605   -0.00611575
     atom   81 type  3   force =     0.03048186    0.01866299   -0.03969105
     atom   82 type  3   force =    -0.04203502    0.01737696   -0.05436270
     atom   83 type  3   force =    -0.05125500    0.09453953    0.02435420
     atom   84 type  3   force =    -0.02490880    0.04022958   -0.04045296
     atom   85 type  3   force =    -0.01128150   -0.09864973    0.07703438
     atom   86 type  3   force =    -0.02848567   -0.07920686   -0.10456561
     atom   87 type  3   force =     0.02213967   -0.00717283   -0.06806149
     atom   88 type  3   force =    -0.00063017    0.05375825   -0.11883028
     atom   89 type  3   force =    -0.04856644   -0.02059435    0.06484880
     atom   90 type  3   force =     0.05366795   -0.04775873   -0.04649151
     atom   91 type  3   force =     0.06646752    0.04065672   -0.01538638
     atom   92 type  3   force =    -0.00909274   -0.00580833   -0.02089304
     atom   93 type  3   force =    -0.08709212   -0.10491150   -0.00534188
     atom   94 type  3   force =     0.07175937    0.08986854    0.05021144
     atom   95 type  3   force =    -0.01086769   -0.01077494   -0.06899209
     atom   96 type  3   force =    -0.09370369   -0.01180457    0.15325779
     atom   97 type  3   force =    -0.02817887   -0.04657445   -0.00175139
     atom   98 type  3   force =     0.10433782    0.01083932    0.09549138
     atom   99 type  3   force =    -0.05541503   -0.00677453    0.03650387
     atom  100 type  3   force =     0.02259373   -0.07809099    0.07966331
     atom  101 type  3   force =    -0.06016108    0.02730641   -0.01091191
     atom  102 type  3   force =     0.03024833    0.01712993    0.03128138
     atom  103 type  3   force =     0.04697872    0.03113533    0.09743814
     atom  104 type  3   force =    -0.08245243   -0.07739179   -0.00517477
     atom  105 type  3   force =     0.02908832    0.05417689   -0.00660240
     atom  106 type  3   force =     0.03820834    0.11423748   -0.01551176
     atom  107 type  3   force =    -0.02831742   -0.00303558    0.02818498
     atom  108 type  3   force =     0.04680474   -0.00996676    0.04580269
     atom  109 type  3   force =     0.10915774    0.02052909   -0.03992422
     atom  110 type  3   force =     0.13934447    0.00801498   -0.06093765
     atom  111 type  3   force =    -0.02034072   -0.01790717    0.01770532
     atom  112 type  3   force =    -0.06696855    0.09519102   -0.01069501
     atom  113 type  3   force =     0.02128306   -0.01983373   -0.05618306
     atom  114 type  3   force =    -0.03896332    0.02175143    0.08107037
     atom  115 type  3   force =     0.01335812   -0.02840540    0.07654929
     atom  116 type  3   force =     0.08473497    0.00791439   -0.04835824
     atom  117 type  3   force =    -0.06880094    0.00333206    0.03775395
     atom  118 type  3   force =    -0.11829536    0.11171333    0.02567147
     atom  119 type  3   force =     0.07046500   -0.00673574    0.03243835
     atom  120 type  3   force =     0.00918198    0.02808259    0.10530453
     atom  121 type  3   force =     0.12987982    0.07610866    0.01636930
     atom  122 type  4   force =     0.03933703    0.01292406    0.02859819
     atom  123 type  4   force =    -0.06149906   -0.04006541   -0.00951478
     atom  124 type  4   force =     0.00361616    0.02432070   -0.04629591
     atom  125 type  4   force =     0.01813784   -0.00577494   -0.00429062
     atom  126 type  4   force =    -0.13133848   -0.14924400   -0.01138674
     atom  127 type  4   force =    -0.09950487   -0.12885867   -0.07373134
     atom  128 type  4   force =     0.01054719   -0.04945984    0.05952590
     atom  129 type  4   force =     0.00884535   -0.06152500   -0.01149287
     atom  130 type  4   force =     0.00889217   -0.02172075    0.00933476
     atom  131 type  4   force =     0.00671810   -0.01823862   -0.01307689
     atom  132 type  4   force =     0.04932060   -0.03836620   -0.01677264
     atom  133 type  4   force =    -0.03659042   -0.05918553    0.03630042
     atom  134 type  4   force =    -0.09349350    0.00757543   -0.04010032
     atom  135 type  4   force =     0.02241267   -0.02687909    0.12454549
     atom  136 type  4   force =     0.01793113   -0.01014892   -0.01838325
     atom  137 type  4   force =     0.05384805    0.04126993   -0.03419982
     atom  138 type  4   force =     0.01578491    0.00197935   -0.01530891
     atom  139 type  4   force =    -0.00675252    0.02802607   -0.02076208
     atom  140 type  4   force =     0.02154264   -0.06866737    0.02200807
     atom  141 type  4   force =     0.05843387   -0.01200398    0.00213868
     atom  142 type  4   force =    -0.10496837   -0.05311120    0.04675263
     atom  143 type  4   force =    -0.15033926   -0.03711845   -0.09753407
     atom  144 type  4   force =    -0.00563002   -0.01755318    0.02992899
     atom  145 type  4   force =    -0.04009700    0.03668065    0.01601769
     atom  146 type  4   force =    -0.02193453    0.01689110   -0.02251458
     atom  147 type  4   force =    -0.13172015   -0.04975079    0.03207339
     atom  148 type  4   force =     0.01368267   -0.02072408   -0.01295981
     atom  149 type  4   force =     0.06869560    0.03542904    0.01729201
     atom  150 type  4   force =    -0.06349155   -0.05299185   -0.02001057
     atom  151 type  4   force =     0.05092170    0.03694269    0.02448346
     atom  152 type  4   force =    -0.05807834    0.02464117    0.01510194
     atom  153 type  4   force =     0.07628065    0.01869064    0.07641636
     atom  154 type  4   force =    -0.09646834    0.00590952    0.00664370
     atom  155 type  4   force =    -0.01249939   -0.01444395   -0.00922399
     atom  156 type  4   force =    -0.05024073    0.04124412   -0.02248525
     atom  157 type  4   force =     0.04244867   -0.01058454   -0.00373955
     atom  158 type  4   force =     0.01335518    0.01209791   -0.02431337
     atom  159 type  4   force =     0.06700669    0.00747768   -0.05885730
     atom  160 type  4   force =     0.03931208   -0.08923578    0.01383985
     atom  161 type  4   force =     0.00299381   -0.02878242    0.07142043
     atom  162 type  4   force =     0.05272176    0.09510056    0.01496116
     atom  163 type  4   force =    -0.01542484    0.05817441   -0.01560606
     atom  164 type  4   force =     0.02451476    0.02903552    0.06696310
     atom  165 type  4   force =    -0.07482172    0.00944183    0.04935993
     atom  166 type  4   force =    -0.00156170   -0.10197140    0.00500348
     atom  167 type  4   force =    -0.03913685   -0.04002758   -0.01518292
     atom  168 type  4   force =     0.01692732   -0.18435117    0.05844198
     atom  169 type  4   force =     0.05232747    0.04495937   -0.09520283
     atom  170 type  4   force =     0.02788902   -0.04778012   -0.03583638
     atom  171 type  4   force =     0.01258303   -0.01692188    0.00344456
     atom  172 type  4   force =    -0.07003330    0.01232339   -0.04391727
     atom  173 type  4   force =    -0.03892683    0.00700920   -0.02544765
     atom  174 type  4   force =     0.05689763    0.08614601    0.01848991
     atom  175 type  4   force =     0.01311327    0.04180307    0.00304119
     atom  176 type  4   force =     0.03801311   -0.00538784    0.02567487
     atom  177 type  4   force =     0.06423905   -0.00462613   -0.00845443
     atom  178 type  4   force =    -0.00360234    0.03672852    0.04539079
     atom  179 type  4   force =    -0.01188971    0.02842076    0.00298840
     atom  180 type  4   force =    -0.05735091    0.00564545   -0.00722308
     atom  181 type  4   force =    -0.00000047   -0.00052477    0.09593091
     atom  182 type  4   force =    -0.02452652   -0.06135770    0.05014768
     atom  183 type  4   force =    -0.03313383    0.10680296   -0.05865258
     atom  184 type  4   force =     0.01826986   -0.01126733    0.05176304
     atom  185 type  4   force =     0.04933148   -0.03492838   -0.01727962
     atom  186 type  4   force =    -0.01141078   -0.01731817    0.00167325
     atom  187 type  4   force =    -0.02757774   -0.01186376    0.05027790
     atom  188 type  4   force =    -0.02037687   -0.01786924   -0.04715576
     atom  189 type  4   force =    -0.01984766    0.03529282   -0.00040064
     atom  190 type  4   force =     0.05860887   -0.03610803    0.00664000
     atom  191 type  4   force =    -0.01853289   -0.00335010   -0.00666837
     atom  192 type  4   force =    -0.03514358    0.02414494   -0.03099836
     atom  193 type  4   force =     0.03626825   -0.06462457    0.02166830
     atom  194 type  4   force =    -0.04962886    0.00127385   -0.00628816
     atom  195 type  4   force =    -0.01024382   -0.00643534    0.01839440
     atom  196 type  4   force =     0.00241341   -0.02551818   -0.06108765
     atom  197 type  4   force =     0.00926186    0.01572124   -0.00012299
     atom  198 type  4   force =    -0.03842782    0.04139064   -0.01355964
     atom  199 type  4   force =     0.00812562   -0.02589796    0.00624028
     atom  200 type  4   force =    -0.00958867   -0.03603563    0.05783628
     atom  201 type  4   force =    -0.01078085   -0.04757856   -0.02854245
     atom  202 type  4   force =     0.01618417    0.01501688    0.04155222
     atom  203 type  4   force =    -0.05688471   -0.05915177   -0.10308586
     atom  204 type  4   force =    -0.00238953    0.01816075    0.06244344
     atom  205 type  4   force =     0.01019204    0.07388011   -0.01371143
     atom  206 type  4   force =    -0.04069814   -0.03140491   -0.04467427
     atom  207 type  4   force =    -0.00468189   -0.03032682    0.03533443
     atom  208 type  4   force =    -0.00081219    0.01181569   -0.01007477
     atom  209 type  4   force =    -0.04447196    0.03168576   -0.05087520
     atom  210 type  4   force =    -0.01135505    0.01307830   -0.05118329
     atom  211 type  4   force =    -0.00049377   -0.03481343   -0.05648129
     atom  212 type  4   force =     0.04255601   -0.03955925   -0.03318365
     atom  213 type  4   force =     0.04284542   -0.14884369   -0.08361543
     atom  214 type  4   force =     0.05170463    0.06497249   -0.05764442
     atom  215 type  4   force =    -0.02676970   -0.02908462    0.00518726
     atom  216 type  4   force =    -0.02211793    0.07576145    0.04091327
     atom  217 type  4   force =    -0.02414274    0.03766145   -0.04189329
     atom  218 type  4   force =     0.01494648    0.02514469   -0.00788236
     atom  219 type  4   force =    -0.04401714   -0.04014477   -0.00919234
     atom  220 type  4   force =     0.01254112   -0.04157481    0.02304899
     atom  221 type  4   force =    -0.00426359    0.03038617    0.06497314
     atom  222 type  4   force =     0.10391815   -0.01656784    0.00585007
     atom  223 type  4   force =     0.02179601    0.08581901   -0.05092175
     atom  224 type  4   force =     0.03971194    0.02492682   -0.01338638
     atom  225 type  4   force =     0.06108160    0.04951520   -0.00338572
     atom  226 type  4   force =     0.02006959   -0.02508719    0.02082247
     atom  227 type  4   force =    -0.02257708    0.05200652    0.04178910
     atom  228 type  4   force =     0.00321748   -0.01708562   -0.02723052
     atom  229 type  4   force =     0.01368559    0.00005031    0.05417163
     atom  230 type  4   force =     0.05288065    0.04911823   -0.00148605
     atom  231 type  4   force =     0.04250103   -0.02094055    0.07122138
     atom  232 type  4   force =     0.04274732   -0.06426481   -0.00879390
     atom  233 type  4   force =     0.03888136    0.05820194    0.02901877
     atom  234 type  4   force =    -0.03304013   -0.05983203   -0.11439050
     atom  235 type  4   force =    -0.01906673    0.15895971   -0.01449515
     atom  236 type  4   force =     0.08809038   -0.01639065   -0.04575906
     atom  237 type  4   force =     0.00620549    0.00678627    0.01214328
     atom  238 type  4   force =    -0.01093352   -0.01289987    0.04262765
     atom  239 type  4   force =     0.01913407   -0.03605927    0.00734032
     atom  240 type  4   force =     0.07764704    0.03085482    0.02821079
     atom  241 type  4   force =     0.03133930   -0.01972267   -0.00496384
     atom  242 type  4   force =    -0.20424427   -0.02976693    0.07891885
     atom  243 type  4   force =     0.02976037    0.00104270    0.02044770
     atom  244 type  4   force =    -0.05117599   -0.00159040   -0.04531592
     atom  245 type  4   force =    -0.01912138   -0.02914865   -0.09480423
     atom  246 type  4   force =     0.02446940   -0.00896725   -0.03125430
     atom  247 type  4   force =    -0.00636582   -0.01714414   -0.06720108
     atom  248 type  4   force =    -0.01646285    0.03019916    0.05875092
     atom  249 type  4   force =     0.03809469    0.02613205   -0.06222161
     atom  250 type  4   force =    -0.08195921   -0.01670523    0.00421979
     atom  251 type  4   force =    -0.00777897   -0.00391832   -0.01948517
     atom  252 type  4   force =    -0.07103427    0.01906620   -0.05233744
     atom  253 type  4   force =     0.00126203   -0.04522601   -0.11035965
     atom  254 type  4   force =    -0.09101378    0.01338348   -0.01475531
     atom  255 type  4   force =     0.01623969   -0.01882500    0.02039320
     atom  256 type  4   force =     0.03194224   -0.00801170    0.03525504
     atom  257 type  4   force =     0.02693241   -0.02500759    0.03379142
     atom  258 type  4   force =     0.00067425    0.01269373   -0.02909011
     atom  259 type  4   force =     0.04801511    0.01503326   -0.00891326
     atom  260 type  4   force =    -0.04570112   -0.01158747   -0.06092793
     atom  261 type  4   force =     0.04153943    0.02787069   -0.03934634
     atom  262 type  4   force =    -0.05489304   -0.01078791    0.04592651
     atom  263 type  4   force =     0.09638498   -0.02626486    0.01766786
     atom  264 type  4   force =    -0.04573597    0.04262318   -0.02251679
     atom  265 type  4   force =     0.02494852    0.01533586   -0.03974375
     atom  266 type  4   force =     0.02701037    0.02036600   -0.04800238
     atom  267 type  4   force =     0.07745480   -0.00409551   -0.04271234
     atom  268 type  4   force =     0.02718849   -0.04396460   -0.03136738
     atom  269 type  4   force =    -0.01663275   -0.06670856    0.00511077
     atom  270 type  4   force =    -0.07175249   -0.01326324   -0.02963824
     atom  271 type  4   force =     0.06962105    0.01181135    0.00868720
     atom  272 type  4   force =     0.02761170    0.05490354   -0.01276569
     atom  273 type  4   force =     0.00244371   -0.00628672    0.04767991
     atom  274 type  4   force =    -0.02440245    0.00275933    0.02711449
     atom  275 type  4   force =    -0.01180606   -0.02055412    0.01818684
     atom  276 type  4   force =     0.04365311    0.07911704    0.06965947
     atom  277 type  4   force =     0.02661537   -0.01173385   -0.07657230
     atom  278 type  4   force =    -0.02162254    0.06303972    0.04435179
     atom  279 type  4   force =    -0.01201574   -0.02156741    0.00405700
     atom  280 type  4   force =    -0.02690379    0.05670682    0.00948658
     atom  281 type  4   force =     0.04153593    0.03158154    0.04328666
     atom  282 type  4   force =     0.03676780   -0.05138938    0.01536940
     atom  283 type  4   force =     0.00388616   -0.06519613   -0.03213413
     atom  284 type  4   force =     0.07178397   -0.05366046   -0.03051644
     atom  285 type  4   force =     0.01850504   -0.01659056    0.01459962
     atom  286 type  4   force =    -0.11833945   -0.02981759   -0.06916525
     atom  287 type  4   force =    -0.01603781   -0.00149507    0.04441904
     atom  288 type  4   force =     0.06713880   -0.00389425   -0.05574749
     atom  289 type  4   force =     0.02102969    0.09118419   -0.02693938
     atom  290 type  4   force =     0.10196000   -0.05832538   -0.11030670
     atom  291 type  4   force =    -0.03026350    0.01407233   -0.01562562
     atom  292 type  4   force =    -0.01956179   -0.01137365    0.01440206
     atom  293 type  4   force =    -0.00649891   -0.02628701   -0.04963237
     atom  294 type  4   force =     0.08007452   -0.02996335    0.16775965
     atom  295 type  4   force =    -0.05387692    0.06401901    0.06797719
     atom  296 type  4   force =    -0.05990529    0.01920558    0.03732013
     atom  297 type  4   force =    -0.01786117    0.01397944   -0.02432508
     atom  298 type  4   force =     0.01302687    0.01339248    0.01802771
     atom  299 type  4   force =    -0.06671304   -0.14471757   -0.02713425
     atom  300 type  4   force =    -0.01170232   -0.05289006   -0.03411000
     atom  301 type  4   force =    -0.07375777    0.03965743    0.02584952
     atom  302 type  4   force =     0.00578558    0.12646070    0.11049176
     atom  303 type  4   force =    -0.01421293   -0.02294351   -0.03986727
     atom  304 type  4   force =    -0.03900637   -0.00162933    0.01123623
     atom  305 type  4   force =    -0.03630561   -0.01652972    0.00697858
     atom  306 type  4   force =     0.00811907    0.01577050   -0.05869602
     atom  307 type  4   force =     0.02342566    0.02016092    0.04235929
     atom  308 type  4   force =     0.00974922    0.00088561   -0.05118554
     atom  309 type  4   force =     0.00197472   -0.02057441    0.01390178
     atom  310 type  4   force =     0.09236842   -0.00427225    0.11082528
     atom  311 type  4   force =    -0.03277099   -0.01341685    0.01147630
     atom  312 type  4   force =    -0.02337675    0.02160746    0.01458383
     atom  313 type  4   force =     0.01444145   -0.08747264    0.01937367
     atom  314 type  4   force =    -0.04559021    0.01303410   -0.02396173
     atom  315 type  4   force =    -0.01721524   -0.00381836   -0.02790307
     atom  316 type  4   force =    -0.00559937   -0.00389792    0.01814219
     atom  317 type  4   force =    -0.00167647    0.06901876    0.04007730
     atom  318 type  4   force =     0.04038688    0.00254204   -0.01761047
     atom  319 type  4   force =    -0.02971131   -0.01473224   -0.06110303
     atom  320 type  4   force =     0.04267602   -0.01855439   -0.02678209
     atom  321 type  4   force =    -0.02610969    0.12885618    0.03815052
     atom  322 type  4   force =     0.02390676    0.01095297   -0.06530193
     atom  323 type  4   force =     0.03526312   -0.03552114    0.04977020
     atom  324 type  4   force =     0.05189280    0.00481843   -0.02336200
     atom  325 type  4   force =     0.03440062   -0.02324468   -0.02834754
     atom  326 type  4   force =    -0.00823807    0.11665617    0.05598186
     atom  327 type  4   force =     0.04741183    0.04959727   -0.03981253
     atom  328 type  4   force =     0.02045942    0.00101016   -0.01990548
     atom  329 type  4   force =     0.10558122    0.01069379    0.01855044
     atom  330 type  4   force =     0.02365832   -0.03646633   -0.05439708
     atom  331 type  4   force =     0.03238548    0.04217872   -0.00807027
     atom  332 type  4   force =     0.02198636    0.05076279   -0.01243693
     atom  333 type  4   force =    -0.05390276   -0.05586660    0.02739113
     atom  334 type  4   force =     0.02374697    0.04554592   -0.02799238
     atom  335 type  4   force =     0.06795169    0.02175328   -0.02188897
     atom  336 type  4   force =    -0.03952466   -0.03106711   -0.04405143
     atom  337 type  4   force =    -0.00488835   -0.00468709   -0.02311476
     atom  338 type  4   force =    -0.05724585    0.04314944   -0.01901409
     atom  339 type  5   force =    -0.02047402    0.02372798    0.03467514
     atom  340 type  5   force =     0.00638760   -0.02889278    0.02833528
     atom  341 type  6   force =     0.02477116    0.00360105    0.00412350
     atom  342 type  6   force =    -0.02460660   -0.00362594   -0.00438304
     atom  343 type  6   force =     0.00313529   -0.04251050    0.00362917
     atom  344 type  6   force =     0.00754508   -0.04203070    0.00418250
     atom  345 type  6   force =    -0.00727790    0.04209468   -0.00433349
     atom  346 type  6   force =    -0.00366395    0.04245594   -0.00339232
     atom  347 type  6   force =     0.02927363    0.02316402    0.00404845
     atom  348 type  6   force =    -0.03414712    0.01406995   -0.00726798
     atom  349 type  6   force =     0.03415696   -0.01410940    0.00745418
     atom  350 type  6   force =    -0.02950950   -0.02313620   -0.00365151
     atom  351 type  7   force =     0.00296786    0.00578726    0.00010692
     atom  352 type  7   force =    -0.00415619    0.00474562   -0.00119131
     atom  353 type  7   force =     0.00419119   -0.00475095    0.00105746
     atom  354 type  7   force =    -0.00270451   -0.00573907   -0.00019326
     atom  355 type  7   force =     0.00391912   -0.00333253    0.00089237
     atom  356 type  7   force =    -0.00288515   -0.00420588   -0.00031209
     atom  357 type  7   force =     0.00295462    0.00428508    0.00020496
     atom  358 type  7   force =    -0.00383468    0.00320853   -0.00101805

     Total force =     1.686654     Total SCF correction =     0.000188


     Computing stress (Cartesian axis) and pressure


     negative rho (up, down):  6.011E-02 0.000E+00
          total   stress  (Ry/bohr**3)                   (kbar)     P=        7.98
   0.00005257   0.00000157  -0.00000258            7.73        0.23       -0.38
   0.00000157   0.00006095   0.00000342            0.23        8.97        0.50
  -0.00000258   0.00000342   0.00004924           -0.38        0.50        7.24


     Writing all to output data dir ./outputs/pwscf.save/ :
     XML data file, charge density, pseudopotentials, collected wavefunctions
 
     init_run     :    146.34s CPU    149.35s WALL (       1 calls)
     electrons    :  79620.90s CPU  80980.72s WALL (       1 calls)
     forces       :     92.91s CPU     95.85s WALL (       1 calls)
     stress       :    350.47s CPU    355.21s WALL (       1 calls)

     Called by init_run:
     wfcinit      :    130.43s CPU    132.22s WALL (       1 calls)
     potinit      :      1.23s CPU      1.31s WALL (       1 calls)
     hinit0       :      1.40s CPU      1.44s WALL (       1 calls)

     Called by electrons:
     c_bands      :  66619.49s CPU  67385.59s WALL (     282 calls)
     sum_band     :  11676.32s CPU  12006.64s WALL (     282 calls)
     v_of_rho     :    127.14s CPU    133.24s WALL (     283 calls)
     newd         :    949.75s CPU   1200.79s WALL (     283 calls)
     PAW_pot      :    161.26s CPU    162.40s WALL (     283 calls)
     mix_rho      :     70.55s CPU     73.91s WALL (     282 calls)

     Called by c_bands:
     init_us_2    :    620.70s CPU    628.90s WALL (     566 calls)
     cegterg      :  65780.08s CPU  66533.39s WALL (     282 calls)

     Called by *egterg:
     cdiaghg      :    941.62s CPU    953.11s WALL (     611 calls)
     h_psi        :  36630.88s CPU  36987.02s WALL (     612 calls)
     s_psi        :  10894.95s CPU  10992.74s WALL (     612 calls)
     g_psi        :     42.92s CPU     43.48s WALL (     329 calls)

     Called by h_psi:
     h_psi:calbec :  10947.45s CPU  11013.72s WALL (     612 calls)
     vloc_psi     :  14734.19s CPU  14876.45s WALL (     612 calls)
                                        0.00s GPU  (     612 calls)
     add_vuspsi   :  10879.39s CPU  10961.17s WALL (     612 calls)

     General routines
     calbec       :  16702.62s CPU  16803.70s WALL (     911 calls)
     fft          :    122.33s CPU    130.54s WALL (    3702 calls)
     ffts         :     11.20s CPU     11.98s WALL (     565 calls)
     fftw         :  14242.20s CPU  14370.85s WALL ( 1591370 calls)
     interpolate  :     15.41s CPU     16.43s WALL (     283 calls)
 
     Parallel routines
 
     PWSCF        :     22h17m CPU     22h42m WALL

 
   This run was terminated on:   5:38:30   9Mar2026            

=------------------------------------------------------------------------------=
   JOB DONE.
=------------------------------------------------------------------------------=
