
     Program PWSCF v.7.5 starts on  4Mar2026 at 11:44:50 

     This program is part of the open-source Quantum ESPRESSO suite
     for quantum simulation of materials; please cite
         "P. Giannozzi et al., J. Phys.:Condens. Matter 21 395502 (2009);
         "P. Giannozzi et al., J. Phys.:Condens. Matter 29 465901 (2017);
         "P. Giannozzi et al., J. Chem. Phys. 152 154105 (2020);
          URL http://www.quantum-espresso.org", 
     in publications or presentations arising from this work. More details at
     http://www.quantum-espresso.org/quote

     Parallel version (MPI), running on    80 processors

     MPI processes distributed on     4 nodes
     72694 MiB available memory on the printing compute node when the environment starts
 
     Reading input from NaphthaleneOnGlassSite2Snapshot9.in
Warning: card &CELL ignored
Warning: card &FCP ignored
Warning: card &RISM ignored

     Current dimensions of program PWSCF are:
     Max number of different atomic species (ntypx) = 10
     Max number of k-points (npk) =  40000
     Max angular momentum in pseudopotentials (lmaxx) =  4
     file Na.paw.z_9.ld1.psl.v1.0.0-low.upf: wavefunction(s)  2P renormalized
     file O.pbe-n-kjpaw_psl.0.1.UPF: wavefunction(s)  2P renormalized
     file Al.pbe-n-kjpaw_psl.1.0.0.UPF: wavefunction(s)  3S 3P renormalized
     file C.pbe-n-kjpaw_psl.1.0.0.UPF: wavefunction(s)  2S 2P renormalized
 
     R & G space division:  proc/nbgrp/npool/nimage =      80
     Subspace diagonalization in iterative solution of the eigenvalue problem:
     one sub-group per band group will be used
     custom distributed-memory algorithm (size of sub-group:  8*  8 procs)

 
     Parallelization info
     --------------------
     sticks:   dense  smooth     PW     G-vecs:    dense   smooth      PW
     Min         450     400    100               199276   167008   20874
     Max         451     401    101               199303   167021   20885
     Sum       36073   32057   8021             15943719 13361281 1670237
 
     Using Slab Decomposition
 


     bravais-lattice index     =            0
     lattice parameter (alat)  =      35.4885  a.u.
     unit-cell volume          =  138228.4306 (a.u.)^3
     number of atoms/cell      =          358
     number of atomic types    =            7
     number of electrons       =      1872.00
     number of Kohn-Sham states=         1123
     kinetic-energy cutoff     =      80.0000  Ry
     charge density cutoff     =     360.0000  Ry
     scf convergence threshold =      1.0E-08
     mixing beta               =       0.1000
     number of iterations used =            8  plain     mixing
     Exchange-correlation= PBE
                           (   1   4   3   4   0   0   0)

     celldm(1)=  35.488539  celldm(2)=   0.000000  celldm(3)=   0.000000
     celldm(4)=   0.000000  celldm(5)=   0.000000  celldm(6)=   0.000000

     crystal axes: (cart. coord. in units of alat)
               a(1) = (   1.000000   0.000000   0.000000 )  
               a(2) = (   0.000000   1.000000   0.000000 )  
               a(3) = (   0.000000   0.000000   3.092666 )  

     reciprocal axes: (cart. coord. in units 2 pi/alat)
               b(1) = (  1.000000  0.000000  0.000000 )  
               b(2) = (  0.000000  1.000000  0.000000 )  
               b(3) = (  0.000000  0.000000  0.323346 )  


     PseudoPot. # 1 for Na read from file:
     /home/sabeel/VOCC_Simulation/pseudopotentials/SSSP_Precision/Na.paw.z_9.ld1.psl.v1.0.0-low.upf
     MD5 check sum: 32bccecb13d7399e6c7dae6fe6685ff0
     Pseudo is Projector augmented-wave + core cor, Zval =  9.0
     Generated using &quot;atomic&quot; code by A. Dal Corso  v.6.3MaX
     Shape of augmentation charge: PSQ
     Using radial grid of 1121 points,  4 beta functions with: 
                l(1) =   0
                l(2) =   0
                l(3) =   1
                l(4) =   1
     Q(r) pseudized with 0 coefficients 


     PseudoPot. # 2 for B  read from file:
     /home/sabeel/VOCC_Simulation/pseudopotentials/SSSP_Precision/B_pbe_v1.01.uspp.F.UPF
     MD5 check sum: d081ebb89d0c768e112975f650467a00
     Pseudo is Ultrasoft + core correction, Zval =  3.0
     Generated by new atomic code, or converted to UPF format
     Using radial grid of  781 points,  4 beta functions with: 
                l(1) =   0
                l(2) =   0
                l(3) =   1
                l(4) =   1
     Q(r) pseudized with  8 coefficients,  rinner =    1.100   1.100   1.100


     PseudoPot. # 3 for Si read from file:
     /home/sabeel/VOCC_Simulation/pseudopotentials/SSSP_Precision/Si.pbe-n-rrkjus_psl.1.0.0.UPF
     MD5 check sum: 0b0bb1205258b0d07b9f9672cf965d36
     Pseudo is Ultrasoft + core correction, Zval =  4.0
     Generated using "atomic" code by A. Dal Corso  v.5.1
     Using radial grid of 1141 points,  6 beta functions with: 
                l(1) =   0
                l(2) =   0
                l(3) =   1
                l(4) =   1
                l(5) =   2
                l(6) =   2
     Q(r) pseudized with 0 coefficients 


     PseudoPot. # 4 for O  read from file:
     /home/sabeel/VOCC_Simulation/pseudopotentials/SSSP_Precision/O.pbe-n-kjpaw_psl.0.1.UPF
     MD5 check sum: 0234752ac141de4415c5fc33072bef88
     Pseudo is Projector augmented-wave + core cor, Zval =  6.0
     Generated using "atomic" code by A. Dal Corso  v.5.0.99 svn rev. 10869
     Shape of augmentation charge: BESSEL
     Using radial grid of 1095 points,  4 beta functions with: 
                l(1) =   0
                l(2) =   0
                l(3) =   1
                l(4) =   1
     Q(r) pseudized with 0 coefficients 


     PseudoPot. # 5 for Al read from file:
     /home/sabeel/VOCC_Simulation/pseudopotentials/SSSP_Precision/Al.pbe-n-kjpaw_psl.1.0.0.UPF
     MD5 check sum: cfc449ca30b5f3223ec38ddd88ac046d
     Pseudo is Projector augmented-wave + core cor, Zval =  3.0
     Generated using "atomic" code by A. Dal Corso  v.5.1
     Shape of augmentation charge: PSQ
     Using radial grid of 1135 points,  6 beta functions with: 
                l(1) =   0
                l(2) =   0
                l(3) =   1
                l(4) =   1
                l(5) =   2
                l(6) =   2
     Q(r) pseudized with 0 coefficients 


     PseudoPot. # 6 for C  read from file:
     /home/sabeel/VOCC_Simulation/pseudopotentials/SSSP_Precision/C.pbe-n-kjpaw_psl.1.0.0.UPF
     MD5 check sum: 5d2aebdfa2cae82b50a7e79e9516da0f
     Pseudo is Projector augmented-wave + core cor, Zval =  4.0
     Generated using "atomic" code by A. Dal Corso  v.5.1
     Shape of augmentation charge: PSQ
     Using radial grid of 1073 points,  4 beta functions with: 
                l(1) =   0
                l(2) =   0
                l(3) =   1
                l(4) =   1
     Q(r) pseudized with 0 coefficients 


     PseudoPot. # 7 for H  read from file:
     /home/sabeel/VOCC_Simulation/pseudopotentials/SSSP_Precision/H_ONCV_PBE-1.0.oncvpsp.upf
     MD5 check sum: 1790becc920ee074925cf490c71280fe
     Pseudo is Norm-conserving, Zval =  1.0
     Generated using ONCVPSP code by D. R. Hamann
     Using radial grid of 1166 points,  2 beta functions with: 
                l(1) =   0
                l(2) =   0

     atomic species   valence    mass     pseudopotential
     Na                9.00    22.98977     Na( 1.00)
     B                 3.00    10.81000     B ( 1.00)
     Si                4.00    28.08500     Si( 1.00)
     O                 6.00    15.99900     O ( 1.00)
     Al                3.00    26.98154     Al( 1.00)
     C                 4.00    12.01100     C ( 1.00)
     H                 1.00     1.00800     H ( 1.00)

     No symmetry found



   Cartesian axes

     site n.     atom                  positions (alat units)
         1        Na     tau(   1) = (   0.2476327   0.1287261   1.4401902  )
         2        Na     tau(   2) = (   0.2347070   0.3964799   1.8357059  )
         3        Na     tau(   3) = (   0.2580766   0.4457236   1.6551511  )
         4        Na     tau(   4) = (   0.0484944   0.0277893   1.6277847  )
         5        Na     tau(   5) = (   0.2352313   0.0813062   1.2863150  )
         6        Na     tau(   6) = (   0.0747243   0.2371463   1.1982473  )
         7        Na     tau(   7) = (   0.1133306   0.7698962   1.8611434  )
         8        Na     tau(   8) = (   0.9037110   0.1954209   1.2700780  )
         9        Na     tau(   9) = (   0.5181841   0.1014052   1.4940734  )
        10        Na     tau(  10) = (   0.3803624   0.0140251   1.8302637  )
        11        Na     tau(  11) = (   0.3545179   0.4989222   1.3772145  )
        12        B      tau(  12) = (   0.9565860   0.6559989   1.4661680  )
        13        B      tau(  13) = (   0.3779039   0.3190213   1.8506233  )
        14        B      tau(  14) = (   0.6357433   0.7757670   1.3375748  )
        15        B      tau(  15) = (   0.9958362   0.0827877   1.8476266  )
        16        B      tau(  16) = (   0.6987179   0.5586979   1.3943070  )
        17        B      tau(  17) = (   0.0903279   0.5997535   1.2200041  )
        18        B      tau(  18) = (   0.9460845   0.5017876   1.4754679  )
        19        B      tau(  19) = (   0.0032347   0.0527127   1.2839437  )
        20        B      tau(  20) = (   0.1241012   0.5940167   1.6016841  )
        21        B      tau(  21) = (   0.4174729   0.9198072   1.5541475  )
        22        B      tau(  22) = (   0.4638227   0.9107282   1.2322731  )
        23        B      tau(  23) = (   0.5096053   0.7092947   1.5000083  )
        24        B      tau(  24) = (   0.4035376   0.9367665   1.6900270  )
        25        B      tau(  25) = (   0.7132674   0.8560217   1.2558196  )
        26        B      tau(  26) = (   0.2579773   0.4217781   1.2874388  )
        27        B      tau(  27) = (   0.1862793   0.2338812   1.3576537  )
        28        B      tau(  28) = (   0.2134919   0.3664862   1.5073156  )
        29        B      tau(  29) = (   0.3546252   0.0462610   1.5293894  )
        30        B      tau(  30) = (   0.8082206   0.9504483   1.6218439  )
        31        B      tau(  31) = (   0.4915043   0.5408159   1.2913026  )
        32        B      tau(  32) = (   0.2471486   0.9450605   1.4099193  )
        33        B      tau(  33) = (   0.7089246   0.1566090   1.6669558  )
        34        B      tau(  34) = (   0.4858908   0.1745693   1.3498737  )
        35        Si     tau(  35) = (   0.5740761   0.3686341   1.4981594  )
        36        Si     tau(  36) = (   0.9600416   0.6521543   1.2713743  )
        37        Si     tau(  37) = (   0.8029666   0.9237355   1.4090604  )
        38        Si     tau(  38) = (   0.6589027   0.0111466   1.4303706  )
        39        Si     tau(  39) = (   0.7148031   0.8518694   1.6658713  )
        40        Si     tau(  40) = (   0.4062844   0.4370669   1.7000479  )
        41        Si     tau(  41) = (   0.8652299   0.0194200   1.2866760  )
        42        Si     tau(  42) = (   0.8792462   0.4724358   1.3313926  )
        43        Si     tau(  43) = (   0.9761010   0.8191325   1.3004490  )
        44        Si     tau(  44) = (   0.0927580   0.6000365   1.4532062  )
        45        Si     tau(  45) = (   0.8492038   0.6801733   1.8429896  )
        46        Si     tau(  46) = (   0.7648638   0.9759642   1.8781504  )
        47        Si     tau(  47) = (   0.8282769   0.9005504   1.7531841  )
        48        Si     tau(  48) = (   0.2400871   0.2615564   1.6009290  )
        49        Si     tau(  49) = (   0.0782160   0.8578516   1.7113893  )
        50        Si     tau(  50) = (   0.1793983   0.5421597   1.3229395  )
        51        Si     tau(  51) = (   0.3045589   0.3154693   1.3856788  )
        52        Si     tau(  52) = (   0.1868342   0.9496617   1.8144358  )
        53        Si     tau(  53) = (   0.5597482   0.9942014   1.8563540  )
        54        Si     tau(  54) = (   0.3283405   0.8654915   1.7979255  )
        55        Si     tau(  55) = (   0.3944303   0.1342286   1.2558232  )
        56        Si     tau(  56) = (   0.5556116   0.4029995   1.7688172  )
        57        Si     tau(  57) = (   0.8886951   0.0519111   1.5515978  )
        58        Si     tau(  58) = (   0.9177874   0.8266438   1.8602018  )
        59        Si     tau(  59) = (   0.5141592   0.7513592   1.7304853  )
        60        Si     tau(  60) = (   0.6200680   0.7296116   1.5975635  )
        61        Si     tau(  61) = (   0.4531771   0.2653855   1.4551164  )
        62        Si     tau(  62) = (   0.9530092   0.1910999   1.6203079  )
        63        Si     tau(  63) = (   0.9806318   0.2594417   1.4695044  )
        64        Si     tau(  64) = (   0.1810221   0.5658568   1.7318917  )
        65        Si     tau(  65) = (   0.2276537   0.6624309   1.2309086  )
        66        Si     tau(  66) = (   0.7086066   0.3068958   1.4624957  )
        67        Si     tau(  67) = (   0.7573617   0.5008676   1.2102682  )
        68        Si     tau(  68) = (   0.0630774   0.5052222   1.8068999  )
        69        Si     tau(  69) = (   0.9531780   0.4208941   1.7332624  )
        70        Si     tau(  70) = (   0.8429520   0.6341042   1.3864806  )
        71        Si     tau(  71) = (   0.8255070   0.2513717   1.7092992  )
        72        Si     tau(  72) = (   0.4660404   0.3166643   1.5999861  )
        73        Si     tau(  73) = (   0.3218087   0.1696541   1.7095271  )
        74        Si     tau(  74) = (   0.6054871   0.0864265   1.2929813  )
        75        Si     tau(  75) = (   0.4402609   0.0821865   1.6559030  )
        76        Si     tau(  76) = (   0.3770531   0.0317907   1.3941734  )
        77        Si     tau(  77) = (   0.5059912   0.8072476   1.3243503  )
        78        Si     tau(  78) = (   0.6069382   0.5044701   1.6609957  )
        79        Si     tau(  79) = (   0.6370349   0.4244534   1.3741369  )
        80        Si     tau(  80) = (   0.6855674   0.7078304   1.8645318  )
        81        Si     tau(  81) = (   0.0765130   0.9298841   1.2314627  )
        82        Si     tau(  82) = (   0.9863684   0.4054382   1.2235204  )
        83        Si     tau(  83) = (   0.4950631   0.2585395   1.7548401  )
        84        Si     tau(  84) = (   0.5719431   0.1160579   1.7357262  )
        85        Si     tau(  85) = (   0.3566442   0.7389475   1.7027041  )
        86        Si     tau(  86) = (   0.5887626   0.6478135   1.7482870  )
        87        Si     tau(  87) = (   0.3778403   0.4701707   1.1981005  )
        88        Si     tau(  88) = (   0.7705746   0.7745811   1.3546535  )
        89        Si     tau(  89) = (   0.6353056   0.3899359   1.2194797  )
        90        Si     tau(  90) = (   0.3199297   0.6027545   1.8036004  )
        91        Si     tau(  91) = (   0.6901246   0.5787282   1.5496775  )
        92        Si     tau(  92) = (   0.1108815   0.9857043   1.4484254  )
        93        Si     tau(  93) = (   0.0087222   0.8101075   1.4596435  )
        94        Si     tau(  94) = (   0.4662737   0.5842118   1.4387730  )
        95        Si     tau(  95) = (   0.1497603   0.1150345   1.8191784  )
        96        Si     tau(  96) = (   0.9119816   0.9073773   1.5284091  )
        97        Si     tau(  97) = (   0.5081777   0.9347421   1.4393654  )
        98        Si     tau(  98) = (   0.9733658   0.9480751   1.7929925  )
        99        Si     tau(  99) = (   0.2449909   0.7736475   1.5958723  )
       100        Si     tau( 100) = (   0.2568298   0.7840856   1.3334763  )
       101        Si     tau( 101) = (   0.1600543   0.7576293   1.4557816  )
       102        Si     tau( 102) = (   0.9190690   0.2974838   1.8287833  )
       103        Si     tau( 103) = (   0.8499270   0.3745654   1.6104514  )
       104        Si     tau( 104) = (   0.8444491   0.5369054   1.7673517  )
       105        Si     tau( 105) = (   0.1203187   0.1732756   1.6597012  )
       106        Si     tau( 106) = (   0.6321686   0.6005607   1.2681838  )
       107        Si     tau( 107) = (   0.6235724   0.8470731   1.8048529  )
       108        Si     tau( 108) = (   0.7501132   0.1202716   1.2309056  )
       109        Si     tau( 109) = (   0.2746484   0.2046900   1.8670863  )
       110        Si     tau( 110) = (   0.2273259   0.0646953   1.6216725  )
       111        Si     tau( 111) = (   0.0729274   0.4042159   1.4579120  )
       112        Si     tau( 112) = (   0.6640697   0.1601480   1.5162335  )
       113        Si     tau( 113) = (   0.1226817   0.7031938   1.6887692  )
       114        Si     tau( 114) = (   0.8406300   0.5276586   1.5875131  )
       115        Si     tau( 115) = (   0.8389500   0.3149315   1.3901795  )
       116        Si     tau( 116) = (   0.1722727   0.9211130   1.5953570  )
       117        Si     tau( 117) = (   0.0763504   0.1375521   1.3930086  )
       118        Si     tau( 118) = (   0.3256209   0.9115638   1.2548481  )
       119        Si     tau( 119) = (   0.3955849   0.7224945   1.4035300  )
       120        Si     tau( 120) = (   0.4652418   0.5499611   1.5942954  )
       121        Si     tau( 121) = (   0.1212618   0.3651412   1.3045003  )
       122        O      tau( 122) = (   0.0295168   0.4481121   1.8630498  )
       123        O      tau( 123) = (   0.8632305   0.7660730   1.8351295  )
       124        O      tau( 124) = (   0.7865379   0.5198677   1.8292109  )
       125        O      tau( 125) = (   0.7687039   0.8065522   1.2712216  )
       126        O      tau( 126) = (   0.2613316   0.2462125   1.3627201  )
       127        O      tau( 127) = (   0.4383841   0.2721051   1.5384261  )
       128        O      tau( 128) = (   0.4075804   0.9041606   1.6244717  )
       129        O      tau( 129) = (   0.2891632   0.9821156   1.2266374  )
       130        O      tau( 130) = (   0.3003666   0.1796727   1.7902854  )
       131        O      tau( 131) = (   0.5973279   0.4225163   1.2949590  )
       132        O      tau( 132) = (   0.5334428   0.5020140   1.6146071  )
       133        O      tau( 133) = (   0.2755656   0.1058719   1.6786020  )
       134        O      tau( 134) = (   0.1545595   0.1075181   1.6150265  )
       135        O      tau( 135) = (   0.1198242   0.5723265   1.5291309  )
       136        O      tau( 136) = (   0.5826608   0.7211316   1.6806210  )
       137        O      tau( 137) = (   0.4384820   0.7620469   1.6969890  )
       138        O      tau( 138) = (   0.3813441   0.2977472   1.4178316  )
       139        O      tau( 139) = (   0.9518571   0.2429557   1.5505285  )
       140        O      tau( 140) = (   0.6668767   0.5177678   1.6031137  )
       141        O      tau( 141) = (   0.1520770   0.1695411   1.3620472  )
       142        O      tau( 142) = (   0.6925009   0.7509516   1.3753791  )
       143        O      tau( 143) = (   0.1434568   0.6580895   1.2139172  )
       144        O      tau( 144) = (   0.4761486   0.9028411   1.5138988  )
       145        O      tau( 145) = (   0.0631356   0.5782061   1.8492954  )
       146        O      tau( 146) = (   0.5876332   0.4146284   1.8503125  )
       147        O      tau( 147) = (   0.1071621   0.8902567   1.6361869  )
       148        O      tau( 148) = (   0.0331486   0.1967754   1.4407710  )
       149        O      tau( 149) = (   0.9443941   0.9810288   1.5588672  )
       150        O      tau( 150) = (   0.5485694   0.5774714   1.2625723  )
       151        O      tau( 151) = (   0.6090489   0.9225244   1.8421140  )
       152        O      tau( 152) = (   0.3184350   0.7927686   1.7545505  )
       153        O      tau( 153) = (   0.2965868   0.2359092   1.6579206  )
       154        O      tau( 154) = (   0.3399948   0.4149078   1.7451441  )
       155        O      tau( 155) = (   0.6583099   0.3076783   1.2358723  )
       156        O      tau( 156) = (   0.5620926   0.7442927   1.5385442  )
       157        O      tau( 157) = (   0.5556976   0.3175372   1.7688381  )
       158        O      tau( 158) = (   0.3525972   0.6632019   1.7471104  )
       159        O      tau( 159) = (   0.9620412   0.3446718   1.7697440  )
       160        O      tau( 160) = (   0.5313272   0.1848172   1.7709556  )
       161        O      tau( 161) = (   0.9429693   0.0183272   1.3239474  )
       162        O      tau( 162) = (   0.4858005   0.9533180   1.8755890  )
       163        O      tau( 163) = (   0.3657073   0.5328581   1.8345358  )
       164        O      tau( 164) = (   0.4406081   0.5066782   1.2484323  )
       165        O      tau( 165) = (   0.3135028   0.2834622   1.8690668  )
       166        O      tau( 166) = (   0.7907911   0.8360261   1.7119523  )
       167        O      tau( 167) = (   0.7289290   0.9234833   1.2340123  )
       168        O      tau( 168) = (   0.1454692   0.2885690   1.3267456  )
       169        O      tau( 169) = (   0.3914991   0.9066251   1.7575926  )
       170        O      tau( 170) = (   0.7079875   0.2222935   1.4707635  )
       171        O      tau( 171) = (   0.9743698   0.8515159   1.5269402  )
       172        O      tau( 172) = (   0.1330105   0.5361140   1.2470617  )
       173        O      tau( 173) = (   0.5827735   0.0420994   1.2254729  )
       174        O      tau( 174) = (   0.8602910   0.6220068   1.7811976  )
       175        O      tau( 175) = (   0.5252483   0.6418342   1.4684534  )
       176        O      tau( 176) = (   0.6556139   0.6691234   1.7930720  )
       177        O      tau( 177) = (   0.9478947   0.4555202   1.2814895  )
       178        O      tau( 178) = (   0.9699578   0.0766966   1.2188133  )
       179        O      tau( 179) = (   0.5480526   0.8088247   1.7836236  )
       180        O      tau( 180) = (   0.3152477   0.7447790   1.3880620  )
       181        O      tau( 181) = (   0.1477991   0.6460434   1.7450578  )
       182        O      tau( 182) = (   0.4226375   0.0083615   1.6949577  )
       183        O      tau( 183) = (   0.5004654   0.8461638   1.2447985  )
       184        O      tau( 184) = (   0.7864920   0.8423242   1.4036977  )
       185        O      tau( 185) = (   0.9046070   0.6136339   1.3286598  )
       186        O      tau( 186) = (   0.1308852   0.5564651   1.3912596  )
       187        O      tau( 187) = (   0.0181193   0.9388870   1.8632981  )
       188        O      tau( 188) = (   0.5236768   0.3172741   1.4469420  )
       189        O      tau( 189) = (   0.6771903   0.1363695   1.2729556  )
       190        O      tau( 190) = (   0.5668565   0.7520726   1.3411952  )
       191        O      tau( 191) = (   0.4390184   0.1054952   1.8920128  )
       192        O      tau( 192) = (   0.2801127   0.0556319   1.5537880  )
       193        O      tau( 193) = (   0.9517833   0.2240015   1.8530263  )
       194        O      tau( 194) = (   0.4078786   0.5134087   1.6517908  )
       195        O      tau( 195) = (   0.6735166   0.7941076   1.8547702  )
       196        O      tau( 196) = (   0.7896414   0.2674110   1.3392843  )
       197        O      tau( 197) = (   0.9136500   0.5214282   1.5392122  )
       198        O      tau( 198) = (   0.5881526   0.4350093   1.4460280  )
       199        O      tau( 199) = (   0.7745755   0.5842257   1.3844862  )
       200        O      tau( 200) = (   0.2034896   0.9862494   1.6415920  )
       201        O      tau( 201) = (   0.1233221   0.6813655   1.4530684  )
       202        O      tau( 202) = (   0.7937827   0.3272627   1.4639956  )
       203        O      tau( 203) = (   0.4473563   0.5396589   1.5104804  )
       204        O      tau( 204) = (   0.6542799   0.3403998   1.5182787  )
       205        O      tau( 205) = (   0.8234572   0.7113307   1.3622509  )
       206        O      tau( 206) = (   0.8127487   0.4431771   1.5824090  )
       207        O      tau( 207) = (   0.5134106   0.6764784   1.7758121  )
       208        O      tau( 208) = (   0.1836556   0.7783442   1.3761575  )
       209        O      tau( 209) = (   0.8104766   0.3105590   1.6473803  )
       210        O      tau( 210) = (   0.3044033   0.9850075   1.3843284  )
       211        O      tau( 211) = (   0.1301504   0.8965179   1.7717389  )
       212        O      tau( 212) = (   0.3197141   0.1653364   1.2298596  )
       213        O      tau( 213) = (   0.4699233   0.1934200   1.4196372  )
       214        O      tau( 214) = (   0.2809558   0.8612246   1.3097159  )
       215        O      tau( 215) = (   0.4264163   0.2824703   1.8051299  )
       216        O      tau( 216) = (   0.6599679   0.6539216   1.5790006  )
       217        O      tau( 217) = (   0.7349642   0.9291111   1.6364595  )
       218        O      tau( 218) = (   0.0099961   0.4612132   1.4800917  )
       219        O      tau( 219) = (   0.5892025   0.1978638   1.5290320  )
       220        O      tau( 220) = (   0.0485841   0.8646896   1.2765110  )
       221        O      tau( 221) = (   0.9732948   0.8322736   1.3845405  )
       222        O      tau( 222) = (   0.4005127   0.1467648   1.7001924  )
       223        O      tau( 223) = (   0.8561165   0.3880932   1.3551362  )
       224        O      tau( 224) = (   0.1908703   0.7320545   1.6493092  )
       225        O      tau( 225) = (   0.5316561   0.3624401   1.5720686  )
       226        O      tau( 226) = (   0.6407674   0.0341441   1.3503554  )
       227        O      tau( 227) = (   0.2507360   0.3493753   1.4464087  )
       228        O      tau( 228) = (   0.5138994   0.8709061   1.3834646  )
       229        O      tau( 229) = (   0.9079300   0.5013233   1.4088368  )
       230        O      tau( 230) = (   0.4395504   0.1937154   1.2966161  )
       231        O      tau( 231) = (   0.2308999   0.6103161   1.2990312  )
       232        O      tau( 232) = (   0.3685013   0.9700313   1.5258447  )
       233        O      tau( 233) = (   0.8514985   0.9494698   1.6877232  )
       234        O      tau( 234) = (   0.0187499   0.4824011   1.7364241  )
       235        O      tau( 235) = (   0.2414021   0.3421124   1.5740169  )
       236        O      tau( 236) = (   0.6097970   0.4413714   1.7163163  )
       237        O      tau( 237) = (   0.4788214   0.4352721   1.7472383  )
       238        O      tau( 238) = (   0.1395403   0.9630524   1.5257738  )
       239        O      tau( 239) = (   0.3787358   0.0784353   1.3203646  )
       240        O      tau( 240) = (   0.5839692   0.9685892   1.4551464  )
       241        O      tau( 241) = (   0.9110607   0.6557788   1.2003494  )
       242        O      tau( 242) = (   0.0686474   0.1043740   1.8437037  )
       243        O      tau( 243) = (   0.1460976   0.3999842   1.5060950  )
       244        O      tau( 244) = (   0.4166165   0.3782170   1.6358330  )
       245        O      tau( 245) = (   0.0075933   0.9084354   1.7265037  )
       246        O      tau( 246) = (   0.8482460   0.9888286   1.2074661  )
       247        O      tau( 247) = (   0.6787187   0.3475581   1.3906861  )
       248        O      tau( 248) = (   0.2793975   0.6318760   1.8700688  )
       249        O      tau( 249) = (   0.1753735   0.9662414   1.3957977  )
       250        O      tau( 250) = (   0.0079684   0.6039592   1.4520956  )
       251        O      tau( 251) = (   0.6799702   0.7916690   1.6137563  )
       252        O      tau( 252) = (   0.8228944   0.4963375   1.2716413  )
       253        O      tau( 253) = (   0.1652982   0.5553089   1.6491463  )
       254        O      tau( 254) = (   0.6527640   0.8346788   1.2935381  )
       255        O      tau( 255) = (   0.0358116   0.1810737   1.6422342  )
       256        O      tau( 256) = (   0.5638762   0.0484964   1.7892635  )
       257        O      tau( 257) = (   0.7314789   0.9670683   1.4359075  )
       258        O      tau( 258) = (   0.2559548   0.8899428   1.4535926  )
       259        O      tau( 259) = (   0.7774448   0.5773609   1.5598674  )
       260        O      tau( 260) = (   0.0868638   0.6515873   1.6288983  )
       261        O      tau( 261) = (   0.2614827   0.9212168   1.7891965  )
       262        O      tau( 262) = (   0.1954831   0.1735609   1.8664394  )
       263        O      tau( 263) = (   0.9906684   0.7948073   1.8435173  )
       264        O      tau( 264) = (   0.4575167   0.9955248   1.4051103  )
       265        O      tau( 265) = (   0.7735858   0.2011661   1.2118609  )
       266        O      tau( 266) = (   0.8814090   0.9281431   1.4499689  )
       267        O      tau( 267) = (   0.4072071   0.9256292   1.2771435  )
       268        O      tau( 268) = (   0.8399764   0.8937974   1.5751596  )
       269        O      tau( 269) = (   0.9802476   0.7272430   1.4739436  )
       270        O      tau( 270) = (   0.4029974   0.6353892   1.4077172  )
       271        O      tau( 271) = (   0.5236271   0.0940762   1.6637713  )
       272        O      tau( 272) = (   0.2291142   0.8566340   1.6031926  )
       273        O      tau( 273) = (   0.1369597   0.1529802   1.7410824  )
       274        O      tau( 274) = (   0.8956842   0.4684356   1.7728116  )
       275        O      tau( 275) = (   0.0304714   0.3296381   1.4668483  )
       276        O      tau( 276) = (   0.9261533   0.1126670   1.5937994  )
       277        O      tau( 277) = (   0.3196110   0.7473434   1.6269653  )
       278        O      tau( 278) = (   0.2346612   0.4755155   1.3381933  )
       279        O      tau( 279) = (   0.0309321   0.9618656   1.4299785  )
       280        O      tau( 280) = (   0.1026240   0.4047238   1.3770124  )
       281        O      tau( 281) = (   0.0996948   0.0720356   1.4419196  )
       282        O      tau( 282) = (   0.9796419   0.7336502   1.2951357  )
       283        O      tau( 283) = (   0.4798587   0.2721799   1.6719849  )
       284        O      tau( 284) = (   0.1447462   0.5042309   1.7791641  )
       285        O      tau( 285) = (   0.6584207   0.0850578   1.4744274  )
       286        O      tau( 286) = (   0.8447302   0.2856675   1.7867899  )
       287        O      tau( 287) = (   0.9236456   0.3532967   1.8933803  )
       288        O      tau( 288) = (   0.7131244   0.4260542   1.2089447  )
       289        O      tau( 289) = (   0.1815374   0.0351118   1.8104616  )
       290        O      tau( 290) = (   0.0329975   0.6097415   1.2681351  )
       291        O      tau( 291) = (   0.8998275   0.8951096   1.8045433  )
       292        O      tau( 292) = (   0.3016404   0.4593341   1.2337882  )
       293        O      tau( 293) = (   0.2631331   0.5633327   1.7490475  )
       294        O      tau( 294) = (   0.7023044   0.1539457   1.5910141  )
       295        O      tau( 295) = (   0.5450848   0.1349270   1.3303906  )
       296        O      tau( 296) = (   0.1632620   0.2443342   1.6379519  )
       297        O      tau( 297) = (   0.1916640   0.3894955   1.2601897  )
       298        O      tau( 298) = (   0.0615898   0.0043928   1.2718305  )
       299        O      tau( 299) = (   0.3967139   0.3875856   1.8762703  )
       300        O      tau( 300) = (   0.4846187   0.5410669   1.3666698  )
       301        O      tau( 301) = (   0.8186424   0.0168112   1.5820830  )
       302        O      tau( 302) = (   0.5974300   0.5762403   1.7036424  )
       303        O      tau( 303) = (   0.4323575   0.7667648   1.3386386  )
       304        O      tau( 304) = (   0.7719883   0.9374236   1.8028857  )
       305        O      tau( 305) = (   0.7672182   0.1900179   1.6976508  )
       306        O      tau( 306) = (   0.8994379   0.0650389   1.4672678  )
       307        O      tau( 307) = (   0.4462121   0.7426137   1.4731770  )
       308        O      tau( 308) = (   0.9211726   0.3961581   1.6533343  )
       309        O      tau( 309) = (   0.2420202   0.2200105   1.5251544  )
       310        O      tau( 310) = (   0.8842963   0.6436934   1.4589679  )
       311        O      tau( 311) = (   0.6482991   0.6785877   1.2330670  )
       312        O      tau( 312) = (   0.4832983   0.6325017   1.6039613  )
       313        O      tau( 313) = (   0.7361349   0.0571749   1.8732737  )
       314        O      tau( 314) = (   0.6649925   0.8590630   1.7336776  )
       315        O      tau( 315) = (   0.9130296   0.2721061   1.4159943  )
       316        O      tau( 316) = (   0.6511009   0.5989696   1.3506902  )
       317        O      tau( 317) = (   0.8131240   0.0898692   1.2825970  )
       318        O      tau( 318) = (   0.6524595   0.1336951   1.7108949  )
       319        O      tau( 319) = (   0.6784211   0.5695802   1.4690337  )
       320        O      tau( 320) = (   0.9018920   0.2183548   1.6834522  )
       321        O      tau( 321) = (   0.9678130   0.0358255   1.7940055  )
       322        O      tau( 322) = (   0.8368182   0.5391156   1.6776043  )
       323        O      tau( 323) = (   0.7668768   0.6856661   1.8697035  )
       324        O      tau( 324) = (   0.1531671   0.9301796   1.8945654  )
       325        O      tau( 325) = (   0.2178402   0.7542098   1.5177838  )
       326        O      tau( 326) = (   0.3614324   0.0782581   1.4600024  )
       327        O      tau( 327) = (   0.4053368   0.0766386   1.5793453  )
       328        O      tau( 328) = (   0.3320739   0.8564650   1.8828345  )
       329        O      tau( 329) = (   0.0914304   0.8126101   1.4681485  )
       330        O      tau( 330) = (   0.2416337   0.7445048   1.2588964  )
       331        O      tau( 331) = (   0.8232583   0.9617889   1.3373563  )
       332        O      tau( 332) = (   0.0224173   0.1103921   1.3331986  )
       333        O      tau( 333) = (   0.0827261   0.7743688   1.7158336  )
       334        O      tau( 334) = (   0.3058372   0.3697607   1.3216954  )
       335        O      tau( 335) = (   0.6940744   0.4843818   1.3763524  )
       336        O      tau( 336) = (   0.0505520   0.3569640   1.2588409  )
       337        O      tau( 337) = (   0.6956442   0.5556100   1.2255199  )
       338        O      tau( 338) = (   0.9205918   0.8444316   1.2442634  )
       339        Al     tau( 339) = (   0.9474166   0.9984982   1.4171699  )
       340        Al     tau( 340) = (   0.7317137   0.2651324   1.2660316  )
       341        C      tau( 341) = (   0.5214378   0.4015461   0.8746624  )
       342        C      tau( 342) = (   0.4479569   0.3909766   0.8617145  )
       343        C      tau( 343) = (   0.5653175   0.3422400   0.8868999  )
       344        C      tau( 344) = (   0.4205128   0.3214128   0.8614003  )
       345        C      tau( 345) = (   0.5488767   0.4711092   0.8749756  )
       346        C      tau( 346) = (   0.4040833   0.4502831   0.8494726  )
       347        C      tau( 347) = (   0.5371518   0.2734980   0.8863841  )
       348        C      tau( 348) = (   0.4648892   0.2631047   0.8736616  )
       349        C      tau( 349) = (   0.5045065   0.5294176   0.8627100  )
       350        C      tau( 350) = (   0.4322510   0.5190244   0.8499779  )
       351        H      tau( 351) = (   0.6219558   0.3491057   0.8969586  )
       352        H      tau( 352) = (   0.3641909   0.3120316   0.8515682  )
       353        H      tau( 353) = (   0.6051969   0.4804959   0.8848125  )
       354        H      tau( 354) = (   0.3474366   0.4434151   0.8394017  )
       355        H      tau( 355) = (   0.5716658   0.2280845   0.8959291  )
       356        H      tau( 356) = (   0.4429953   0.2095720   0.8732662  )
       357        H      tau( 357) = (   0.5264020   0.5829447   0.8631007  )
       358        H      tau( 358) = (   0.3977363   0.5644431   0.8404325  )

     number of k points=     1  Gaussian smearing, width (Ry)=  0.0100
                       cart. coord. in units 2pi/alat
        k(    1) = (   0.0000000   0.0000000   0.0000000), wk =   2.0000000

     Dense  grid: 15943719 G-vectors     FFT dimensions: ( 216, 216, 675)

     Smooth grid: 13361281 G-vectors     FFT dimensions: ( 216, 216, 625)

     Estimated max dynamical RAM per process >       4.14 GB

     Estimated total dynamical RAM >     331.13 GB

     Check: negative core charge=   -0.000001

     Initial potential from superposition of free atoms

     starting charge    1871.8703, renormalised to    1872.0000

     negative rho (up, down):  4.115E-02 0.000E+00
     Starting wfcs are 1419 randomized atomic wfcs
     Checking if some PAW data can be deallocated... 

     total cpu time spent up to now is      152.8 secs

     per-process dynamical memory:  1754.2 Mb

     Self-consistent Calculation

     iteration #  1     ecut=    80.00 Ry     beta= 0.10
     Davidson diagonalization with overlap
     ethr =  1.00E-02,  avg # of iterations =  3.0

     negative rho (up, down):  4.313E-02 0.000E+00

     total cpu time spent up to now is      673.4 secs

     total energy              =  -11693.37846776 Ry
     estimated scf accuracy    <     115.58576873 Ry

     iteration #  2     ecut=    80.00 Ry     beta= 0.10
     Davidson diagonalization with overlap
     ethr =  6.17E-03,  avg # of iterations =  1.0

     negative rho (up, down):  4.478E-02 0.000E+00

     total cpu time spent up to now is      964.3 secs

     total energy              =  -11688.11156544 Ry
     estimated scf accuracy    <      84.84600900 Ry

     iteration #  3     ecut=    80.00 Ry     beta= 0.10
     Davidson diagonalization with overlap
     ethr =  4.53E-03,  avg # of iterations =  1.0

     negative rho (up, down):  4.655E-02 0.000E+00

     total cpu time spent up to now is     1249.9 secs

     total energy              =  -11681.49126489 Ry
     estimated scf accuracy    <      59.12644289 Ry

     iteration #  4     ecut=    80.00 Ry     beta= 0.10
     Davidson diagonalization with overlap
     ethr =  3.16E-03,  avg # of iterations =  2.0

     negative rho (up, down):  4.760E-02 0.000E+00

     total cpu time spent up to now is     1570.8 secs

     total energy              =  -11682.82094187 Ry
     estimated scf accuracy    <      60.36175897 Ry

     iteration #  5     ecut=    80.00 Ry     beta= 0.10
     Davidson diagonalization with overlap
     ethr =  3.16E-03,  avg # of iterations =  1.0

     negative rho (up, down):  4.868E-02 0.000E+00

     total cpu time spent up to now is     1856.2 secs

     total energy              =  -11682.19262441 Ry
     estimated scf accuracy    <      39.46759652 Ry

     iteration #  6     ecut=    80.00 Ry     beta= 0.10
     Davidson diagonalization with overlap
     ethr =  2.11E-03,  avg # of iterations =  1.0

     negative rho (up, down):  4.950E-02 0.000E+00

     total cpu time spent up to now is     2140.8 secs

     total energy              =  -11682.42558051 Ry
     estimated scf accuracy    <      26.73416361 Ry

     iteration #  7     ecut=    80.00 Ry     beta= 0.10
     Davidson diagonalization with overlap
     ethr =  1.43E-03,  avg # of iterations =  2.0

     negative rho (up, down):  5.028E-02 0.000E+00

     total cpu time spent up to now is     2459.7 secs

     total energy              =  -11682.17124138 Ry
     estimated scf accuracy    <      34.93716177 Ry

     iteration #  8     ecut=    80.00 Ry     beta= 0.10
     Davidson diagonalization with overlap
     ethr =  1.43E-03,  avg # of iterations =  1.0

     negative rho (up, down):  5.084E-02 0.000E+00

     total cpu time spent up to now is     2744.3 secs

     total energy              =  -11682.31420204 Ry
     estimated scf accuracy    <      18.94012530 Ry

     iteration #  9     ecut=    80.00 Ry     beta= 0.10
     Davidson diagonalization with overlap
     ethr =  1.01E-03,  avg # of iterations =  2.0

     negative rho (up, down):  5.142E-02 0.000E+00

     total cpu time spent up to now is     3063.7 secs

     total energy              =  -11682.13544593 Ry
     estimated scf accuracy    <      18.34276781 Ry

     iteration # 10     ecut=    80.00 Ry     beta= 0.10
     Davidson diagonalization with overlap
     ethr =  9.80E-04,  avg # of iterations =  1.0

     negative rho (up, down):  5.191E-02 0.000E+00

     total cpu time spent up to now is     3348.7 secs

     total energy              =  -11682.15627648 Ry
     estimated scf accuracy    <      12.19702053 Ry

     iteration # 11     ecut=    80.00 Ry     beta= 0.10
     Davidson diagonalization with overlap
     ethr =  6.52E-04,  avg # of iterations =  2.0

     negative rho (up, down):  5.223E-02 0.000E+00

     total cpu time spent up to now is     3669.2 secs

     total energy              =  -11682.05051321 Ry
     estimated scf accuracy    <      21.52923151 Ry

     iteration # 12     ecut=    80.00 Ry     beta= 0.10
     Davidson diagonalization with overlap
     ethr =  6.52E-04,  avg # of iterations =  1.0

     negative rho (up, down):  5.252E-02 0.000E+00

     total cpu time spent up to now is     3954.9 secs

     total energy              =  -11682.31204503 Ry
     estimated scf accuracy    <       4.94355892 Ry

     iteration # 13     ecut=    80.00 Ry     beta= 0.10
     Davidson diagonalization with overlap
     ethr =  2.64E-04,  avg # of iterations = 16.0

     negative rho (up, down):  5.291E-02 0.000E+00

     total cpu time spent up to now is     4379.3 secs

     total energy              =  -11682.21013130 Ry
     estimated scf accuracy    <       5.99809207 Ry

     iteration # 14     ecut=    80.00 Ry     beta= 0.10
     Davidson diagonalization with overlap
     ethr =  2.64E-04,  avg # of iterations =  1.0

     negative rho (up, down):  5.345E-02 0.000E+00

     total cpu time spent up to now is     4664.5 secs

     total energy              =  -11682.09715137 Ry
     estimated scf accuracy    <       4.69169558 Ry

     iteration # 15     ecut=    80.00 Ry     beta= 0.10
     Davidson diagonalization with overlap
     ethr =  2.51E-04,  avg # of iterations =  1.0

     negative rho (up, down):  5.342E-02 0.000E+00

     total cpu time spent up to now is     4949.1 secs

     total energy              =  -11681.89018153 Ry
     estimated scf accuracy    <      18.89544131 Ry

     iteration # 16     ecut=    80.00 Ry     beta= 0.10
     Davidson diagonalization with overlap
     ethr =  2.51E-04,  avg # of iterations =  2.0

     negative rho (up, down):  5.377E-02 0.000E+00

     total cpu time spent up to now is     5268.3 secs

     total energy              =  -11682.13523249 Ry
     estimated scf accuracy    <       3.76330592 Ry

     iteration # 17     ecut=    80.00 Ry     beta= 0.10
     Davidson diagonalization with overlap
     ethr =  2.01E-04,  avg # of iterations =  1.0

     negative rho (up, down):  5.427E-02 0.000E+00

     total cpu time spent up to now is     5552.1 secs

     total energy              =  -11682.06966044 Ry
     estimated scf accuracy    <       3.32466562 Ry

     iteration # 18     ecut=    80.00 Ry     beta= 0.10
     Davidson diagonalization with overlap
     ethr =  1.78E-04,  avg # of iterations =  2.0

     negative rho (up, down):  5.427E-02 0.000E+00

     total cpu time spent up to now is     5870.9 secs

     total energy              =  -11681.96328255 Ry
     estimated scf accuracy    <       8.22854858 Ry

     iteration # 19     ecut=    80.00 Ry     beta= 0.10
     Davidson diagonalization with overlap
     ethr =  1.78E-04,  avg # of iterations =  1.0

     negative rho (up, down):  5.450E-02 0.000E+00

     total cpu time spent up to now is     6155.8 secs

     total energy              =  -11682.11936914 Ry
     estimated scf accuracy    <       3.04452119 Ry

     iteration # 20     ecut=    80.00 Ry     beta= 0.10
     Davidson diagonalization with overlap
     ethr =  1.63E-04,  avg # of iterations =  1.0

     negative rho (up, down):  5.498E-02 0.000E+00

     total cpu time spent up to now is     6440.2 secs

     total energy              =  -11682.06548854 Ry
     estimated scf accuracy    <       2.92305085 Ry

     iteration # 21     ecut=    80.00 Ry     beta= 0.10
     Davidson diagonalization with overlap
     ethr =  1.56E-04,  avg # of iterations =  1.0

     negative rho (up, down):  5.509E-02 0.000E+00

     total cpu time spent up to now is     6725.2 secs

     total energy              =  -11681.99108485 Ry
     estimated scf accuracy    <      10.25126745 Ry

     iteration # 22     ecut=    80.00 Ry     beta= 0.10
     Davidson diagonalization with overlap
     ethr =  1.56E-04,  avg # of iterations =  1.0

     negative rho (up, down):  5.519E-02 0.000E+00

     total cpu time spent up to now is     7010.3 secs

     total energy              =  -11682.04566530 Ry
     estimated scf accuracy    <       7.93120920 Ry

     iteration # 23     ecut=    80.00 Ry     beta= 0.10
     Davidson diagonalization with overlap
     ethr =  1.56E-04,  avg # of iterations =  1.0

     negative rho (up, down):  5.521E-02 0.000E+00

     total cpu time spent up to now is     7294.2 secs

     total energy              =  -11682.07545700 Ry
     estimated scf accuracy    <       4.62081127 Ry

     iteration # 24     ecut=    80.00 Ry     beta= 0.10
     Davidson diagonalization with overlap
     ethr =  1.56E-04,  avg # of iterations =  1.0

     negative rho (up, down):  5.572E-02 0.000E+00

     total cpu time spent up to now is     7578.4 secs

     total energy              =  -11682.06596973 Ry
     estimated scf accuracy    <       3.79934536 Ry

     iteration # 25     ecut=    80.00 Ry     beta= 0.10
     Davidson diagonalization with overlap
     ethr =  1.56E-04,  avg # of iterations =  1.0

     negative rho (up, down):  5.571E-02 0.000E+00

     total cpu time spent up to now is     7863.9 secs

     total energy              =  -11682.06801346 Ry
     estimated scf accuracy    <       2.59155959 Ry

     iteration # 26     ecut=    80.00 Ry     beta= 0.10
     Davidson diagonalization with overlap
     ethr =  1.38E-04,  avg # of iterations =  1.0

     negative rho (up, down):  5.592E-02 0.000E+00

     total cpu time spent up to now is     8149.1 secs

     total energy              =  -11682.08592957 Ry
     estimated scf accuracy    <       1.21075433 Ry

     iteration # 27     ecut=    80.00 Ry     beta= 0.10
     Davidson diagonalization with overlap
     ethr =  6.47E-05,  avg # of iterations =  1.0

     negative rho (up, down):  5.671E-02 0.000E+00

     total cpu time spent up to now is     8434.2 secs

     total energy              =  -11682.06739183 Ry
     estimated scf accuracy    <       1.83459620 Ry

     iteration # 28     ecut=    80.00 Ry     beta= 0.10
     Davidson diagonalization with overlap
     ethr =  6.47E-05,  avg # of iterations =  1.0

     negative rho (up, down):  5.605E-02 0.000E+00

     total cpu time spent up to now is     8719.2 secs

     total energy              =  -11681.98411712 Ry
     estimated scf accuracy    <       7.31097214 Ry

     iteration # 29     ecut=    80.00 Ry     beta= 0.10
     Davidson diagonalization with overlap
     ethr =  6.47E-05,  avg # of iterations =  1.0

     negative rho (up, down):  5.627E-02 0.000E+00

     total cpu time spent up to now is     9003.8 secs

     total energy              =  -11682.07352522 Ry
     estimated scf accuracy    <       4.26230785 Ry

     iteration # 30     ecut=    80.00 Ry     beta= 0.10
     Davidson diagonalization with overlap
     ethr =  6.47E-05,  avg # of iterations =  1.0

     negative rho (up, down):  5.643E-02 0.000E+00

     total cpu time spent up to now is     9288.5 secs

     total energy              =  -11682.08926127 Ry
     estimated scf accuracy    <       1.05979854 Ry

     iteration # 31     ecut=    80.00 Ry     beta= 0.10
     Davidson diagonalization with overlap
     ethr =  5.66E-05,  avg # of iterations =  1.0

     negative rho (up, down):  5.666E-02 0.000E+00

     total cpu time spent up to now is     9572.4 secs

     total energy              =  -11682.08933205 Ry
     estimated scf accuracy    <       1.80622172 Ry

     iteration # 32     ecut=    80.00 Ry     beta= 0.10
     Davidson diagonalization with overlap
     ethr =  5.66E-05,  avg # of iterations =  1.0

     negative rho (up, down):  5.666E-02 0.000E+00

     total cpu time spent up to now is     9864.0 secs

     total energy              =  -11682.07884699 Ry
     estimated scf accuracy    <       1.38666893 Ry

     iteration # 33     ecut=    80.00 Ry     beta= 0.10
     Davidson diagonalization with overlap
     ethr =  5.66E-05,  avg # of iterations =  1.0

     negative rho (up, down):  5.658E-02 0.000E+00

     total cpu time spent up to now is    10147.8 secs

     total energy              =  -11682.06487743 Ry
     estimated scf accuracy    <       5.06582635 Ry

     iteration # 34     ecut=    80.00 Ry     beta= 0.10
     Davidson diagonalization with overlap
     ethr =  5.66E-05,  avg # of iterations =  1.0

     negative rho (up, down):  5.681E-02 0.000E+00

     total cpu time spent up to now is    10433.9 secs

     total energy              =  -11682.09010858 Ry
     estimated scf accuracy    <       0.93976191 Ry

     iteration # 35     ecut=    80.00 Ry     beta= 0.10
     Davidson diagonalization with overlap
     ethr =  5.02E-05,  avg # of iterations =  1.0

     negative rho (up, down):  5.685E-02 0.000E+00

     total cpu time spent up to now is    10718.2 secs

     total energy              =  -11682.08125848 Ry
     estimated scf accuracy    <       1.73115984 Ry

     iteration # 36     ecut=    80.00 Ry     beta= 0.10
     Davidson diagonalization with overlap
     ethr =  5.02E-05,  avg # of iterations =  1.0

     negative rho (up, down):  5.693E-02 0.000E+00

     total cpu time spent up to now is    11004.3 secs

     total energy              =  -11682.09328259 Ry
     estimated scf accuracy    <       0.77895317 Ry

     iteration # 37     ecut=    80.00 Ry     beta= 0.10
     Davidson diagonalization with overlap
     ethr =  4.16E-05,  avg # of iterations =  1.0

     negative rho (up, down):  5.731E-02 0.000E+00

     total cpu time spent up to now is    11287.8 secs

     total energy              =  -11682.09004749 Ry
     estimated scf accuracy    <       0.31579575 Ry

     iteration # 38     ecut=    80.00 Ry     beta= 0.10
     Davidson diagonalization with overlap
     ethr =  1.69E-05,  avg # of iterations = 20.0

     negative rho (up, down):  5.702E-02 0.000E+00

     total cpu time spent up to now is    11717.4 secs

     total energy              =  -11682.03631820 Ry
     estimated scf accuracy    <       5.17816695 Ry

     iteration # 39     ecut=    80.00 Ry     beta= 0.10
     Davidson diagonalization with overlap
     ethr =  1.69E-05,  avg # of iterations =  2.0

     negative rho (up, down):  5.711E-02 0.000E+00

     total cpu time spent up to now is    12039.8 secs

     total energy              =  -11682.09051970 Ry
     estimated scf accuracy    <       1.49130672 Ry

     iteration # 40     ecut=    80.00 Ry     beta= 0.10
     Davidson diagonalization with overlap
     ethr =  1.69E-05,  avg # of iterations =  1.0

     negative rho (up, down):  5.719E-02 0.000E+00

     total cpu time spent up to now is    12323.8 secs

     total energy              =  -11682.09759090 Ry
     estimated scf accuracy    <       0.30992619 Ry

     iteration # 41     ecut=    80.00 Ry     beta= 0.10
     Davidson diagonalization with overlap
     ethr =  1.66E-05,  avg # of iterations =  1.0

     negative rho (up, down):  5.731E-02 0.000E+00

     total cpu time spent up to now is    12608.3 secs

     total energy              =  -11682.09691393 Ry
     estimated scf accuracy    <       0.43479243 Ry

     iteration # 42     ecut=    80.00 Ry     beta= 0.10
     Davidson diagonalization with overlap
     ethr =  1.66E-05,  avg # of iterations =  1.0

     negative rho (up, down):  5.745E-02 0.000E+00

     total cpu time spent up to now is    12892.4 secs

     total energy              =  -11682.09688620 Ry
     estimated scf accuracy    <       0.34909518 Ry

     iteration # 43     ecut=    80.00 Ry     beta= 0.10
     Davidson diagonalization with overlap
     ethr =  1.66E-05,  avg # of iterations =  1.0

     negative rho (up, down):  5.728E-02 0.000E+00

     total cpu time spent up to now is    13177.1 secs

     total energy              =  -11682.09081463 Ry
     estimated scf accuracy    <       0.75811499 Ry

     iteration # 44     ecut=    80.00 Ry     beta= 0.10
     Davidson diagonalization with overlap
     ethr =  1.66E-05,  avg # of iterations =  1.0

     negative rho (up, down):  5.759E-02 0.000E+00

     total cpu time spent up to now is    13462.1 secs

     total energy              =  -11682.09175355 Ry
     estimated scf accuracy    <       1.48039220 Ry

     iteration # 45     ecut=    80.00 Ry     beta= 0.10
     Davidson diagonalization with overlap
     ethr =  1.66E-05,  avg # of iterations =  1.0

     negative rho (up, down):  5.749E-02 0.000E+00

     total cpu time spent up to now is    13746.8 secs

     total energy              =  -11682.09549010 Ry
     estimated scf accuracy    <       0.24278809 Ry

     iteration # 46     ecut=    80.00 Ry     beta= 0.10
     Davidson diagonalization with overlap
     ethr =  1.30E-05,  avg # of iterations =  1.0

     negative rho (up, down):  5.754E-02 0.000E+00

     total cpu time spent up to now is    14031.3 secs

     total energy              =  -11682.09395626 Ry
     estimated scf accuracy    <       0.93825410 Ry

     iteration # 47     ecut=    80.00 Ry     beta= 0.10
     Davidson diagonalization with overlap
     ethr =  1.30E-05,  avg # of iterations =  1.0

     negative rho (up, down):  5.784E-02 0.000E+00

     total cpu time spent up to now is    14315.6 secs

     total energy              =  -11682.09961977 Ry
     estimated scf accuracy    <       0.24562073 Ry

     iteration # 48     ecut=    80.00 Ry     beta= 0.10
     Davidson diagonalization with overlap
     ethr =  1.30E-05,  avg # of iterations =  1.0

     negative rho (up, down):  5.789E-02 0.000E+00

     total cpu time spent up to now is    14600.4 secs

     total energy              =  -11682.09799055 Ry
     estimated scf accuracy    <       0.22593069 Ry

     iteration # 49     ecut=    80.00 Ry     beta= 0.10
     Davidson diagonalization with overlap
     ethr =  1.21E-05,  avg # of iterations =  1.0

     negative rho (up, down):  5.768E-02 0.000E+00

     total cpu time spent up to now is    14885.8 secs

     total energy              =  -11682.08607133 Ry
     estimated scf accuracy    <       1.86913613 Ry

     iteration # 50     ecut=    80.00 Ry     beta= 0.10
     Davidson diagonalization with overlap
     ethr =  1.21E-05,  avg # of iterations =  1.0

     negative rho (up, down):  5.773E-02 0.000E+00

     total cpu time spent up to now is    15170.6 secs

     total energy              =  -11682.09341410 Ry
     estimated scf accuracy    <       0.90681798 Ry

     iteration # 51     ecut=    80.00 Ry     beta= 0.10
     Davidson diagonalization with overlap
     ethr =  1.21E-05,  avg # of iterations =  1.0

     negative rho (up, down):  5.780E-02 0.000E+00

     total cpu time spent up to now is    15455.1 secs

     total energy              =  -11682.10034155 Ry
     estimated scf accuracy    <       0.20194038 Ry

     iteration # 52     ecut=    80.00 Ry     beta= 0.10
     Davidson diagonalization with overlap
     ethr =  1.08E-05,  avg # of iterations =  1.0

     negative rho (up, down):  5.787E-02 0.000E+00

     total cpu time spent up to now is    15738.9 secs

     total energy              =  -11682.10146341 Ry
     estimated scf accuracy    <       0.10244378 Ry

     iteration # 53     ecut=    80.00 Ry     beta= 0.10
     Davidson diagonalization with overlap
     ethr =  5.47E-06,  avg # of iterations =  1.0

     negative rho (up, down):  5.786E-02 0.000E+00

     total cpu time spent up to now is    16022.8 secs

     total energy              =  -11682.10063103 Ry
     estimated scf accuracy    <       0.14285410 Ry

     iteration # 54     ecut=    80.00 Ry     beta= 0.10
     Davidson diagonalization with overlap
     ethr =  5.47E-06,  avg # of iterations =  1.0

     negative rho (up, down):  5.794E-02 0.000E+00

     total cpu time spent up to now is    16307.3 secs

     total energy              =  -11682.10030598 Ry
     estimated scf accuracy    <       0.35955854 Ry

     iteration # 55     ecut=    80.00 Ry     beta= 0.10
     Davidson diagonalization with overlap
     ethr =  5.47E-06,  avg # of iterations =  1.0

     negative rho (up, down):  5.795E-02 0.000E+00

     total cpu time spent up to now is    16591.8 secs

     total energy              =  -11682.10181971 Ry
     estimated scf accuracy    <       0.05115257 Ry

     iteration # 56     ecut=    80.00 Ry     beta= 0.10
     Davidson diagonalization with overlap
     ethr =  2.73E-06,  avg # of iterations =  1.0

     negative rho (up, down):  5.795E-02 0.000E+00

     total cpu time spent up to now is    16876.6 secs

     total energy              =  -11682.10089795 Ry
     estimated scf accuracy    <       0.21716908 Ry

     iteration # 57     ecut=    80.00 Ry     beta= 0.10
     Davidson diagonalization with overlap
     ethr =  2.73E-06,  avg # of iterations =  1.0

     negative rho (up, down):  5.806E-02 0.000E+00

     total cpu time spent up to now is    17160.8 secs

     total energy              =  -11682.10263846 Ry
     estimated scf accuracy    <       0.03496314 Ry

     iteration # 58     ecut=    80.00 Ry     beta= 0.10
     Davidson diagonalization with overlap
     ethr =  1.87E-06,  avg # of iterations =  1.0

     negative rho (up, down):  5.813E-02 0.000E+00

     total cpu time spent up to now is    17445.1 secs

     total energy              =  -11682.10268670 Ry
     estimated scf accuracy    <       0.04389174 Ry

     iteration # 59     ecut=    80.00 Ry     beta= 0.10
     Davidson diagonalization with overlap
     ethr =  1.87E-06,  avg # of iterations =  1.0

     negative rho (up, down):  5.812E-02 0.000E+00

     total cpu time spent up to now is    17729.1 secs

     total energy              =  -11682.10218928 Ry
     estimated scf accuracy    <       0.07158249 Ry

     iteration # 60     ecut=    80.00 Ry     beta= 0.10
     Davidson diagonalization with overlap
     ethr =  1.87E-06,  avg # of iterations =  1.0

     negative rho (up, down):  5.808E-02 0.000E+00

     total cpu time spent up to now is    18014.0 secs

     total energy              =  -11682.10084336 Ry
     estimated scf accuracy    <       0.18551561 Ry

     iteration # 61     ecut=    80.00 Ry     beta= 0.10
     Davidson diagonalization with overlap
     ethr =  1.87E-06,  avg # of iterations =  1.0

     negative rho (up, down):  5.813E-02 0.000E+00

     total cpu time spent up to now is    18299.5 secs

     total energy              =  -11682.10028286 Ry
     estimated scf accuracy    <       0.32947713 Ry

     iteration # 62     ecut=    80.00 Ry     beta= 0.10
     Davidson diagonalization with overlap
     ethr =  1.87E-06,  avg # of iterations =  1.0

     negative rho (up, down):  5.815E-02 0.000E+00

     total cpu time spent up to now is    18584.2 secs

     total energy              =  -11682.10222724 Ry
     estimated scf accuracy    <       0.09575914 Ry

     iteration # 63     ecut=    80.00 Ry     beta= 0.10
     Davidson diagonalization with overlap
     ethr =  1.87E-06,  avg # of iterations =  1.0

     negative rho (up, down):  5.819E-02 0.000E+00

     total cpu time spent up to now is    18867.9 secs

     total energy              =  -11682.10262609 Ry
     estimated scf accuracy    <       0.08376117 Ry

     iteration # 64     ecut=    80.00 Ry     beta= 0.10
     Davidson diagonalization with overlap
     ethr =  1.87E-06,  avg # of iterations =  1.0

     negative rho (up, down):  5.824E-02 0.000E+00

     total cpu time spent up to now is    19152.8 secs

     total energy              =  -11682.10206885 Ry
     estimated scf accuracy    <       0.23114281 Ry

     iteration # 65     ecut=    80.00 Ry     beta= 0.10
     Davidson diagonalization with overlap
     ethr =  1.87E-06,  avg # of iterations =  1.0

     negative rho (up, down):  5.823E-02 0.000E+00

     total cpu time spent up to now is    19437.3 secs

     total energy              =  -11682.10308935 Ry
     estimated scf accuracy    <       0.01880623 Ry

     iteration # 66     ecut=    80.00 Ry     beta= 0.10
     Davidson diagonalization with overlap
     ethr =  1.00E-06,  avg # of iterations =  1.0

     negative rho (up, down):  5.820E-02 0.000E+00

     total cpu time spent up to now is    19722.4 secs

     total energy              =  -11682.10249097 Ry
     estimated scf accuracy    <       0.11652300 Ry

     iteration # 67     ecut=    80.00 Ry     beta= 0.10
     Davidson diagonalization with overlap
     ethr =  1.00E-06,  avg # of iterations =  1.0

     negative rho (up, down):  5.826E-02 0.000E+00

     total cpu time spent up to now is    20006.6 secs

     total energy              =  -11682.10343690 Ry
     estimated scf accuracy    <       0.02194976 Ry

     iteration # 68     ecut=    80.00 Ry     beta= 0.10
     Davidson diagonalization with overlap
     ethr =  1.00E-06,  avg # of iterations =  1.0

     negative rho (up, down):  5.829E-02 0.000E+00

     total cpu time spent up to now is    20290.9 secs

     total energy              =  -11682.10352721 Ry
     estimated scf accuracy    <       0.01155058 Ry

     iteration # 69     ecut=    80.00 Ry     beta= 0.10
     Davidson diagonalization with overlap
     ethr =  6.17E-07,  avg # of iterations =  1.0

     negative rho (up, down):  5.831E-02 0.000E+00

     total cpu time spent up to now is    20574.8 secs

     total energy              =  -11682.10353320 Ry
     estimated scf accuracy    <       0.01269274 Ry

     iteration # 70     ecut=    80.00 Ry     beta= 0.10
     Davidson diagonalization with overlap
     ethr =  6.17E-07,  avg # of iterations =  1.0

     negative rho (up, down):  5.832E-02 0.000E+00

     total cpu time spent up to now is    20859.2 secs

     total energy              =  -11682.10326165 Ry
     estimated scf accuracy    <       0.05731409 Ry

     iteration # 71     ecut=    80.00 Ry     beta= 0.10
     Davidson diagonalization with overlap
     ethr =  6.17E-07,  avg # of iterations =  1.0

     negative rho (up, down):  5.833E-02 0.000E+00

     total cpu time spent up to now is    21144.9 secs

     total energy              =  -11682.10341106 Ry
     estimated scf accuracy    <       0.03885366 Ry

     iteration # 72     ecut=    80.00 Ry     beta= 0.10
     Davidson diagonalization with overlap
     ethr =  6.17E-07,  avg # of iterations =  1.0

     negative rho (up, down):  5.833E-02 0.000E+00

     total cpu time spent up to now is    21430.8 secs

     total energy              =  -11682.10348273 Ry
     estimated scf accuracy    <       0.02669133 Ry

     iteration # 73     ecut=    80.00 Ry     beta= 0.10
     Davidson diagonalization with overlap
     ethr =  6.17E-07,  avg # of iterations =  1.0

     negative rho (up, down):  5.839E-02 0.000E+00

     total cpu time spent up to now is    21715.4 secs

     total energy              =  -11682.10364885 Ry
     estimated scf accuracy    <       0.03084716 Ry

     iteration # 74     ecut=    80.00 Ry     beta= 0.10
     Davidson diagonalization with overlap
     ethr =  6.17E-07,  avg # of iterations =  1.0

     negative rho (up, down):  5.839E-02 0.000E+00

     total cpu time spent up to now is    21999.6 secs

     total energy              =  -11682.10347285 Ry
     estimated scf accuracy    <       0.06057712 Ry

     iteration # 75     ecut=    80.00 Ry     beta= 0.10
     Davidson diagonalization with overlap
     ethr =  6.17E-07,  avg # of iterations =  1.0

     negative rho (up, down):  5.842E-02 0.000E+00

     total cpu time spent up to now is    22284.6 secs

     total energy              =  -11682.10384653 Ry
     estimated scf accuracy    <       0.00920936 Ry

     iteration # 76     ecut=    80.00 Ry     beta= 0.10
     Davidson diagonalization with overlap
     ethr =  4.92E-07,  avg # of iterations =  1.0

     negative rho (up, down):  5.836E-02 0.000E+00

     total cpu time spent up to now is    22568.5 secs

     total energy              =  -11682.10337792 Ry
     estimated scf accuracy    <       0.04562099 Ry

     iteration # 77     ecut=    80.00 Ry     beta= 0.10
     Davidson diagonalization with overlap
     ethr =  4.92E-07,  avg # of iterations =  1.0

     negative rho (up, down):  5.841E-02 0.000E+00

     total cpu time spent up to now is    22853.9 secs

     total energy              =  -11682.10374187 Ry
     estimated scf accuracy    <       0.03334515 Ry

     iteration # 78     ecut=    80.00 Ry     beta= 0.10
     Davidson diagonalization with overlap
     ethr =  4.92E-07,  avg # of iterations =  1.0

     negative rho (up, down):  5.842E-02 0.000E+00

     total cpu time spent up to now is    23138.5 secs

     total energy              =  -11682.10386914 Ry
     estimated scf accuracy    <       0.00939191 Ry

     iteration # 79     ecut=    80.00 Ry     beta= 0.10
     Davidson diagonalization with overlap
     ethr =  4.92E-07,  avg # of iterations =  1.0

     negative rho (up, down):  5.845E-02 0.000E+00

     total cpu time spent up to now is    23422.3 secs

     total energy              =  -11682.10398465 Ry
     estimated scf accuracy    <       0.00538040 Ry

     iteration # 80     ecut=    80.00 Ry     beta= 0.10
     Davidson diagonalization with overlap
     ethr =  2.87E-07,  avg # of iterations =  1.0

     negative rho (up, down):  5.845E-02 0.000E+00

     total cpu time spent up to now is    23706.9 secs

     total energy              =  -11682.10390375 Ry
     estimated scf accuracy    <       0.01473378 Ry

     iteration # 81     ecut=    80.00 Ry     beta= 0.10
     Davidson diagonalization with overlap
     ethr =  2.87E-07,  avg # of iterations =  1.0

     negative rho (up, down):  5.846E-02 0.000E+00

     total cpu time spent up to now is    23991.9 secs

     total energy              =  -11682.10391231 Ry
     estimated scf accuracy    <       0.01568731 Ry

     iteration # 82     ecut=    80.00 Ry     beta= 0.10
     Davidson diagonalization with overlap
     ethr =  2.87E-07,  avg # of iterations =  1.0

     negative rho (up, down):  5.846E-02 0.000E+00

     total cpu time spent up to now is    24276.0 secs

     total energy              =  -11682.10395549 Ry
     estimated scf accuracy    <       0.00992804 Ry

     iteration # 83     ecut=    80.00 Ry     beta= 0.10
     Davidson diagonalization with overlap
     ethr =  2.87E-07,  avg # of iterations =  1.0

     negative rho (up, down):  5.850E-02 0.000E+00

     total cpu time spent up to now is    24560.6 secs

     total energy              =  -11682.10403900 Ry
     estimated scf accuracy    <       0.01073709 Ry

     iteration # 84     ecut=    80.00 Ry     beta= 0.10
     Davidson diagonalization with overlap
     ethr =  2.87E-07,  avg # of iterations =  1.0

     negative rho (up, down):  5.849E-02 0.000E+00

     total cpu time spent up to now is    24844.4 secs

     total energy              =  -11682.10399085 Ry
     estimated scf accuracy    <       0.01605440 Ry

     iteration # 85     ecut=    80.00 Ry     beta= 0.10
     Davidson diagonalization with overlap
     ethr =  2.87E-07,  avg # of iterations =  1.0

     negative rho (up, down):  5.852E-02 0.000E+00

     total cpu time spent up to now is    25129.1 secs

     total energy              =  -11682.10411618 Ry
     estimated scf accuracy    <       0.00513256 Ry

     iteration # 86     ecut=    80.00 Ry     beta= 0.10
     Davidson diagonalization with overlap
     ethr =  2.74E-07,  avg # of iterations =  1.0

     negative rho (up, down):  5.849E-02 0.000E+00

     total cpu time spent up to now is    25414.1 secs

     total energy              =  -11682.10396970 Ry
     estimated scf accuracy    <       0.00950837 Ry

     iteration # 87     ecut=    80.00 Ry     beta= 0.10
     Davidson diagonalization with overlap
     ethr =  2.74E-07,  avg # of iterations =  1.0

     negative rho (up, down):  5.854E-02 0.000E+00

     total cpu time spent up to now is    25698.9 secs

     total energy              =  -11682.10401335 Ry
     estimated scf accuracy    <       0.02816047 Ry

     iteration # 88     ecut=    80.00 Ry     beta= 0.10
     Davidson diagonalization with overlap
     ethr =  2.74E-07,  avg # of iterations =  1.0

     negative rho (up, down):  5.852E-02 0.000E+00

     total cpu time spent up to now is    25991.6 secs

     total energy              =  -11682.10406616 Ry
     estimated scf accuracy    <       0.00633878 Ry

     iteration # 89     ecut=    80.00 Ry     beta= 0.10
     Davidson diagonalization with overlap
     ethr =  2.74E-07,  avg # of iterations =  1.0

     negative rho (up, down):  5.855E-02 0.000E+00

     total cpu time spent up to now is    26275.5 secs

     total energy              =  -11682.10417590 Ry
     estimated scf accuracy    <       0.00368263 Ry

     iteration # 90     ecut=    80.00 Ry     beta= 0.10
     Davidson diagonalization with overlap
     ethr =  1.97E-07,  avg # of iterations =  1.0

     negative rho (up, down):  5.856E-02 0.000E+00

     total cpu time spent up to now is    26559.5 secs

     total energy              =  -11682.10415464 Ry
     estimated scf accuracy    <       0.00632426 Ry

     iteration # 91     ecut=    80.00 Ry     beta= 0.10
     Davidson diagonalization with overlap
     ethr =  1.97E-07,  avg # of iterations =  1.0

     negative rho (up, down):  5.856E-02 0.000E+00

     total cpu time spent up to now is    26843.9 secs

     total energy              =  -11682.10415260 Ry
     estimated scf accuracy    <       0.00687196 Ry

     iteration # 92     ecut=    80.00 Ry     beta= 0.10
     Davidson diagonalization with overlap
     ethr =  1.97E-07,  avg # of iterations =  1.0

     negative rho (up, down):  5.856E-02 0.000E+00

     total cpu time spent up to now is    27130.0 secs

     total energy              =  -11682.10416620 Ry
     estimated scf accuracy    <       0.00513421 Ry

     iteration # 93     ecut=    80.00 Ry     beta= 0.10
     Davidson diagonalization with overlap
     ethr =  1.97E-07,  avg # of iterations =  1.0

     negative rho (up, down):  5.858E-02 0.000E+00

     total cpu time spent up to now is    27414.0 secs

     total energy              =  -11682.10420665 Ry
     estimated scf accuracy    <       0.00596499 Ry

     iteration # 94     ecut=    80.00 Ry     beta= 0.10
     Davidson diagonalization with overlap
     ethr =  1.97E-07,  avg # of iterations =  1.0

     negative rho (up, down):  5.858E-02 0.000E+00

     total cpu time spent up to now is    27697.8 secs

     total energy              =  -11682.10418989 Ry
     estimated scf accuracy    <       0.00647003 Ry

     iteration # 95     ecut=    80.00 Ry     beta= 0.10
     Davidson diagonalization with overlap
     ethr =  1.97E-07,  avg # of iterations =  1.0

     negative rho (up, down):  5.860E-02 0.000E+00

     total cpu time spent up to now is    27982.0 secs

     total energy              =  -11682.10425650 Ry
     estimated scf accuracy    <       0.00237679 Ry

     iteration # 96     ecut=    80.00 Ry     beta= 0.10
     Davidson diagonalization with overlap
     ethr =  1.27E-07,  avg # of iterations =  1.0

     negative rho (up, down):  5.860E-02 0.000E+00

     total cpu time spent up to now is    28266.4 secs

     total energy              =  -11682.10422083 Ry
     estimated scf accuracy    <       0.00291668 Ry

     iteration # 97     ecut=    80.00 Ry     beta= 0.10
     Davidson diagonalization with overlap
     ethr =  1.27E-07,  avg # of iterations =  1.0

     negative rho (up, down):  5.863E-02 0.000E+00

     total cpu time spent up to now is    28550.8 secs

     total energy              =  -11682.10418880 Ry
     estimated scf accuracy    <       0.01890085 Ry

     iteration # 98     ecut=    80.00 Ry     beta= 0.10
     Davidson diagonalization with overlap
     ethr =  1.27E-07,  avg # of iterations =  1.0

     negative rho (up, down):  5.860E-02 0.000E+00

     total cpu time spent up to now is    28834.9 secs

     total energy              =  -11682.10422442 Ry
     estimated scf accuracy    <       0.00278131 Ry

     iteration # 99     ecut=    80.00 Ry     beta= 0.10
     Davidson diagonalization with overlap
     ethr =  1.27E-07,  avg # of iterations =  1.0

     negative rho (up, down):  5.863E-02 0.000E+00

     total cpu time spent up to now is    29119.2 secs

     total energy              =  -11682.10427751 Ry
     estimated scf accuracy    <       0.00288237 Ry

     iteration #100     ecut=    80.00 Ry     beta= 0.10
     Davidson diagonalization with overlap
     ethr =  1.27E-07,  avg # of iterations =  1.0

     negative rho (up, down):  5.864E-02 0.000E+00

     total cpu time spent up to now is    29404.1 secs

     total energy              =  -11682.10427509 Ry
     estimated scf accuracy    <       0.00392083 Ry

     iteration #101     ecut=    80.00 Ry     beta= 0.10
     Davidson diagonalization with overlap
     ethr =  1.27E-07,  avg # of iterations =  1.0

     negative rho (up, down):  5.864E-02 0.000E+00

     total cpu time spent up to now is    29688.7 secs

     total energy              =  -11682.10427091 Ry
     estimated scf accuracy    <       0.00436749 Ry

     iteration #102     ecut=    80.00 Ry     beta= 0.10
     Davidson diagonalization with overlap
     ethr =  1.27E-07,  avg # of iterations =  1.0

     negative rho (up, down):  5.864E-02 0.000E+00

     total cpu time spent up to now is    29973.0 secs

     total energy              =  -11682.10428189 Ry
     estimated scf accuracy    <       0.00308608 Ry

     iteration #103     ecut=    80.00 Ry     beta= 0.10
     Davidson diagonalization with overlap
     ethr =  1.27E-07,  avg # of iterations =  1.0

     negative rho (up, down):  5.865E-02 0.000E+00

     total cpu time spent up to now is    30257.8 secs

     total energy              =  -11682.10429719 Ry
     estimated scf accuracy    <       0.00399732 Ry

     iteration #104     ecut=    80.00 Ry     beta= 0.10
     Davidson diagonalization with overlap
     ethr =  1.27E-07,  avg # of iterations =  1.0

     negative rho (up, down):  5.864E-02 0.000E+00

     total cpu time spent up to now is    30542.1 secs

     total energy              =  -11682.10429422 Ry
     estimated scf accuracy    <       0.00311751 Ry

     iteration #105     ecut=    80.00 Ry     beta= 0.10
     Davidson diagonalization with overlap
     ethr =  1.27E-07,  avg # of iterations =  1.0

     negative rho (up, down):  5.866E-02 0.000E+00

     total cpu time spent up to now is    30826.4 secs

     total energy              =  -11682.10432537 Ry
     estimated scf accuracy    <       0.00142648 Ry

     iteration #106     ecut=    80.00 Ry     beta= 0.10
     Davidson diagonalization with overlap
     ethr =  7.62E-08,  avg # of iterations =  1.0

     negative rho (up, down):  5.868E-02 0.000E+00

     total cpu time spent up to now is    31110.7 secs

     total energy              =  -11682.10433791 Ry
     estimated scf accuracy    <       0.00080061 Ry

     iteration #107     ecut=    80.00 Ry     beta= 0.10
     Davidson diagonalization with overlap
     ethr =  4.28E-08,  avg # of iterations =  1.0

     negative rho (up, down):  5.868E-02 0.000E+00

     total cpu time spent up to now is    31395.3 secs

     total energy              =  -11682.10431601 Ry
     estimated scf accuracy    <       0.00571637 Ry

     iteration #108     ecut=    80.00 Ry     beta= 0.10
     Davidson diagonalization with overlap
     ethr =  4.28E-08,  avg # of iterations =  1.0

     negative rho (up, down):  5.867E-02 0.000E+00

     total cpu time spent up to now is    31679.8 secs

     total energy              =  -11682.10432348 Ry
     estimated scf accuracy    <       0.00082881 Ry

     iteration #109     ecut=    80.00 Ry     beta= 0.10
     Davidson diagonalization with overlap
     ethr =  4.28E-08,  avg # of iterations =  1.0

     negative rho (up, down):  5.869E-02 0.000E+00

     total cpu time spent up to now is    31963.8 secs

     total energy              =  -11682.10433772 Ry
     estimated scf accuracy    <       0.00217189 Ry

     iteration #110     ecut=    80.00 Ry     beta= 0.10
     Davidson diagonalization with overlap
     ethr =  4.28E-08,  avg # of iterations =  1.0

     negative rho (up, down):  5.870E-02 0.000E+00

     total cpu time spent up to now is    32248.2 secs

     total energy              =  -11682.10434837 Ry
     estimated scf accuracy    <       0.00180864 Ry

     iteration #111     ecut=    80.00 Ry     beta= 0.10
     Davidson diagonalization with overlap
     ethr =  4.28E-08,  avg # of iterations =  1.0

     negative rho (up, down):  5.870E-02 0.000E+00

     total cpu time spent up to now is    32533.2 secs

     total energy              =  -11682.10434594 Ry
     estimated scf accuracy    <       0.00215622 Ry

     iteration #112     ecut=    80.00 Ry     beta= 0.10
     Davidson diagonalization with overlap
     ethr =  4.28E-08,  avg # of iterations =  1.0

     negative rho (up, down):  5.871E-02 0.000E+00

     total cpu time spent up to now is    32817.0 secs

     total energy              =  -11682.10434978 Ry
     estimated scf accuracy    <       0.00182111 Ry

     iteration #113     ecut=    80.00 Ry     beta= 0.10
     Davidson diagonalization with overlap
     ethr =  4.28E-08,  avg # of iterations =  1.0

     negative rho (up, down):  5.871E-02 0.000E+00

     total cpu time spent up to now is    33100.9 secs

     total energy              =  -11682.10434792 Ry
     estimated scf accuracy    <       0.00300039 Ry

     iteration #114     ecut=    80.00 Ry     beta= 0.10
     Davidson diagonalization with overlap
     ethr =  4.28E-08,  avg # of iterations =  1.0

     negative rho (up, down):  5.870E-02 0.000E+00

     total cpu time spent up to now is    33385.6 secs

     total energy              =  -11682.10435073 Ry
     estimated scf accuracy    <       0.00193023 Ry

     iteration #115     ecut=    80.00 Ry     beta= 0.10
     Davidson diagonalization with overlap
     ethr =  4.28E-08,  avg # of iterations =  1.0

     negative rho (up, down):  5.871E-02 0.000E+00

     total cpu time spent up to now is    33670.0 secs

     total energy              =  -11682.10436562 Ry
     estimated scf accuracy    <       0.00107284 Ry

     iteration #116     ecut=    80.00 Ry     beta= 0.10
     Davidson diagonalization with overlap
     ethr =  4.28E-08,  avg # of iterations =  1.0

     negative rho (up, down):  5.872E-02 0.000E+00

     total cpu time spent up to now is    33954.2 secs

     total energy              =  -11682.10437961 Ry
     estimated scf accuracy    <       0.00034032 Ry

     iteration #117     ecut=    80.00 Ry     beta= 0.10
     Davidson diagonalization with overlap
     ethr =  1.82E-08,  avg # of iterations =  1.0

     negative rho (up, down):  5.872E-02 0.000E+00

     total cpu time spent up to now is    34239.0 secs

     total energy              =  -11682.10437059 Ry
     estimated scf accuracy    <       0.00163347 Ry

     iteration #118     ecut=    80.00 Ry     beta= 0.10
     Davidson diagonalization with overlap
     ethr =  1.82E-08,  avg # of iterations =  1.0

     negative rho (up, down):  5.872E-02 0.000E+00

     total cpu time spent up to now is    34523.3 secs

     total energy              =  -11682.10437567 Ry
     estimated scf accuracy    <       0.00036889 Ry

     iteration #119     ecut=    80.00 Ry     beta= 0.10
     Davidson diagonalization with overlap
     ethr =  1.82E-08,  avg # of iterations =  1.0

     negative rho (up, down):  5.873E-02 0.000E+00

     total cpu time spent up to now is    34807.3 secs

     total energy              =  -11682.10437713 Ry
     estimated scf accuracy    <       0.00103733 Ry

     iteration #120     ecut=    80.00 Ry     beta= 0.10
     Davidson diagonalization with overlap
     ethr =  1.82E-08,  avg # of iterations =  1.0

     negative rho (up, down):  5.874E-02 0.000E+00

     total cpu time spent up to now is    35094.4 secs

     total energy              =  -11682.10438587 Ry
     estimated scf accuracy    <       0.00055945 Ry

     iteration #121     ecut=    80.00 Ry     beta= 0.10
     Davidson diagonalization with overlap
     ethr =  1.82E-08,  avg # of iterations =  1.0

     negative rho (up, down):  5.874E-02 0.000E+00

     total cpu time spent up to now is    35377.8 secs

     total energy              =  -11682.10438556 Ry
     estimated scf accuracy    <       0.00087652 Ry

     iteration #122     ecut=    80.00 Ry     beta= 0.10
     Davidson diagonalization with overlap
     ethr =  1.82E-08,  avg # of iterations =  1.0

     negative rho (up, down):  5.875E-02 0.000E+00

     total cpu time spent up to now is    35661.9 secs

     total energy              =  -11682.10438841 Ry
     estimated scf accuracy    <       0.00075085 Ry

     iteration #123     ecut=    80.00 Ry     beta= 0.10
     Davidson diagonalization with overlap
     ethr =  1.82E-08,  avg # of iterations =  1.0

     negative rho (up, down):  5.875E-02 0.000E+00

     total cpu time spent up to now is    35946.2 secs

     total energy              =  -11682.10438352 Ry
     estimated scf accuracy    <       0.00132800 Ry

     iteration #124     ecut=    80.00 Ry     beta= 0.10
     Davidson diagonalization with overlap
     ethr =  1.82E-08,  avg # of iterations =  1.0

     negative rho (up, down):  5.874E-02 0.000E+00

     total cpu time spent up to now is    36231.2 secs

     total energy              =  -11682.10438430 Ry
     estimated scf accuracy    <       0.00111078 Ry

     iteration #125     ecut=    80.00 Ry     beta= 0.10
     Davidson diagonalization with overlap
     ethr =  1.82E-08,  avg # of iterations =  1.0

     negative rho (up, down):  5.875E-02 0.000E+00

     total cpu time spent up to now is    36516.0 secs

     total energy              =  -11682.10438777 Ry
     estimated scf accuracy    <       0.00095341 Ry

     iteration #126     ecut=    80.00 Ry     beta= 0.10
     Davidson diagonalization with overlap
     ethr =  1.82E-08,  avg # of iterations =  1.0

     negative rho (up, down):  5.876E-02 0.000E+00

     total cpu time spent up to now is    36800.7 secs

     total energy              =  -11682.10440010 Ry
     estimated scf accuracy    <       0.00023992 Ry

     iteration #127     ecut=    80.00 Ry     beta= 0.10
     Davidson diagonalization with overlap
     ethr =  1.28E-08,  avg # of iterations =  1.0

     negative rho (up, down):  5.876E-02 0.000E+00

     total cpu time spent up to now is    37095.0 secs

     total energy              =  -11682.10439411 Ry
     estimated scf accuracy    <       0.00069467 Ry

     iteration #128     ecut=    80.00 Ry     beta= 0.10
     Davidson diagonalization with overlap
     ethr =  1.28E-08,  avg # of iterations =  1.0

     negative rho (up, down):  5.876E-02 0.000E+00

     total cpu time spent up to now is    37379.5 secs

     total energy              =  -11682.10439885 Ry
     estimated scf accuracy    <       0.00025500 Ry

     iteration #129     ecut=    80.00 Ry     beta= 0.10
     Davidson diagonalization with overlap
     ethr =  1.28E-08,  avg # of iterations =  1.0

     negative rho (up, down):  5.876E-02 0.000E+00

     total cpu time spent up to now is    37663.1 secs

     total energy              =  -11682.10439916 Ry
     estimated scf accuracy    <       0.00037580 Ry

     iteration #130     ecut=    80.00 Ry     beta= 0.10
     Davidson diagonalization with overlap
     ethr =  1.28E-08,  avg # of iterations =  1.0

     negative rho (up, down):  5.877E-02 0.000E+00

     total cpu time spent up to now is    37947.7 secs

     total energy              =  -11682.10440310 Ry
     estimated scf accuracy    <       0.00022024 Ry

     iteration #131     ecut=    80.00 Ry     beta= 0.10
     Davidson diagonalization with overlap
     ethr =  1.18E-08,  avg # of iterations =  1.0

     negative rho (up, down):  5.877E-02 0.000E+00

     total cpu time spent up to now is    38233.2 secs

     total energy              =  -11682.10440409 Ry
     estimated scf accuracy    <       0.00029319 Ry

     iteration #132     ecut=    80.00 Ry     beta= 0.10
     Davidson diagonalization with overlap
     ethr =  1.18E-08,  avg # of iterations =  1.0

     negative rho (up, down):  5.878E-02 0.000E+00

     total cpu time spent up to now is    38516.6 secs

     total energy              =  -11682.10440585 Ry
     estimated scf accuracy    <       0.00025340 Ry

     iteration #133     ecut=    80.00 Ry     beta= 0.10
     Davidson diagonalization with overlap
     ethr =  1.18E-08,  avg # of iterations =  1.0

     negative rho (up, down):  5.877E-02 0.000E+00

     total cpu time spent up to now is    38799.6 secs

     total energy              =  -11682.10440290 Ry
     estimated scf accuracy    <       0.00047798 Ry

     iteration #134     ecut=    80.00 Ry     beta= 0.10
     Davidson diagonalization with overlap
     ethr =  1.18E-08,  avg # of iterations =  1.0

     negative rho (up, down):  5.878E-02 0.000E+00

     total cpu time spent up to now is    39083.8 secs

     total energy              =  -11682.10440434 Ry
     estimated scf accuracy    <       0.00060176 Ry

     iteration #135     ecut=    80.00 Ry     beta= 0.10
     Davidson diagonalization with overlap
     ethr =  1.18E-08,  avg # of iterations =  1.0

     negative rho (up, down):  5.878E-02 0.000E+00

     total cpu time spent up to now is    39367.4 secs

     total energy              =  -11682.10440282 Ry
     estimated scf accuracy    <       0.00059635 Ry

     iteration #136     ecut=    80.00 Ry     beta= 0.10
     Davidson diagonalization with overlap
     ethr =  1.18E-08,  avg # of iterations =  1.0

     negative rho (up, down):  5.879E-02 0.000E+00

     total cpu time spent up to now is    39652.3 secs

     total energy              =  -11682.10441034 Ry
     estimated scf accuracy    <       0.00018312 Ry

     iteration #137     ecut=    80.00 Ry     beta= 0.10
     Davidson diagonalization with overlap
     ethr =  9.78E-09,  avg # of iterations =  1.0

     negative rho (up, down):  5.878E-02 0.000E+00

     total cpu time spent up to now is    39936.8 secs

     total energy              =  -11682.10440691 Ry
     estimated scf accuracy    <       0.00032641 Ry

     iteration #138     ecut=    80.00 Ry     beta= 0.10
     Davidson diagonalization with overlap
     ethr =  9.78E-09,  avg # of iterations =  1.0

     negative rho (up, down):  5.879E-02 0.000E+00

     total cpu time spent up to now is    40221.0 secs

     total energy              =  -11682.10440914 Ry
     estimated scf accuracy    <       0.00029971 Ry

     iteration #139     ecut=    80.00 Ry     beta= 0.10
     Davidson diagonalization with overlap
     ethr =  9.78E-09,  avg # of iterations =  1.0

     negative rho (up, down):  5.879E-02 0.000E+00

     total cpu time spent up to now is    40512.9 secs

     total energy              =  -11682.10441006 Ry
     estimated scf accuracy    <       0.00017322 Ry

     iteration #140     ecut=    80.00 Ry     beta= 0.10
     Davidson diagonalization with overlap
     ethr =  9.25E-09,  avg # of iterations =  1.0

     negative rho (up, down):  5.879E-02 0.000E+00

     total cpu time spent up to now is    40796.8 secs

     total energy              =  -11682.10441183 Ry
     estimated scf accuracy    <       0.00013699 Ry

     iteration #141     ecut=    80.00 Ry     beta= 0.10
     Davidson diagonalization with overlap
     ethr =  7.32E-09,  avg # of iterations =  1.0

     negative rho (up, down):  5.879E-02 0.000E+00

     total cpu time spent up to now is    41081.0 secs

     total energy              =  -11682.10441270 Ry
     estimated scf accuracy    <       0.00012560 Ry

     iteration #142     ecut=    80.00 Ry     beta= 0.10
     Davidson diagonalization with overlap
     ethr =  6.71E-09,  avg # of iterations =  1.0

     negative rho (up, down):  5.880E-02 0.000E+00

     total cpu time spent up to now is    41364.5 secs

     total energy              =  -11682.10441381 Ry
     estimated scf accuracy    <       0.00009049 Ry

     iteration #143     ecut=    80.00 Ry     beta= 0.10
     Davidson diagonalization with overlap
     ethr =  4.83E-09,  avg # of iterations =  1.0

     negative rho (up, down):  5.879E-02 0.000E+00

     total cpu time spent up to now is    41648.6 secs

     total energy              =  -11682.10441288 Ry
     estimated scf accuracy    <       0.00015244 Ry

     iteration #144     ecut=    80.00 Ry     beta= 0.10
     Davidson diagonalization with overlap
     ethr =  4.83E-09,  avg # of iterations =  1.0

     negative rho (up, down):  5.880E-02 0.000E+00

     total cpu time spent up to now is    41932.6 secs

     total energy              =  -11682.10441440 Ry
     estimated scf accuracy    <       0.00024220 Ry

     iteration #145     ecut=    80.00 Ry     beta= 0.10
     Davidson diagonalization with overlap
     ethr =  4.83E-09,  avg # of iterations =  1.0

     negative rho (up, down):  5.880E-02 0.000E+00

     total cpu time spent up to now is    42217.7 secs

     total energy              =  -11682.10441308 Ry
     estimated scf accuracy    <       0.00021762 Ry

     iteration #146     ecut=    80.00 Ry     beta= 0.10
     Davidson diagonalization with overlap
     ethr =  4.83E-09,  avg # of iterations =  1.0

     negative rho (up, down):  5.881E-02 0.000E+00

     total cpu time spent up to now is    42501.6 secs

     total energy              =  -11682.10441604 Ry
     estimated scf accuracy    <       0.00010677 Ry

     iteration #147     ecut=    80.00 Ry     beta= 0.10
     Davidson diagonalization with overlap
     ethr =  4.83E-09,  avg # of iterations =  1.0

     negative rho (up, down):  5.880E-02 0.000E+00

     total cpu time spent up to now is    42785.8 secs

     total energy              =  -11682.10441461 Ry
     estimated scf accuracy    <       0.00013655 Ry

     iteration #148     ecut=    80.00 Ry     beta= 0.10
     Davidson diagonalization with overlap
     ethr =  4.83E-09,  avg # of iterations =  1.0

     negative rho (up, down):  5.880E-02 0.000E+00

     total cpu time spent up to now is    43070.0 secs

     total energy              =  -11682.10441522 Ry
     estimated scf accuracy    <       0.00024419 Ry

     iteration #149     ecut=    80.00 Ry     beta= 0.10
     Davidson diagonalization with overlap
     ethr =  4.83E-09,  avg # of iterations =  1.0

     negative rho (up, down):  5.880E-02 0.000E+00

     total cpu time spent up to now is    43354.6 secs

     total energy              =  -11682.10441551 Ry
     estimated scf accuracy    <       0.00013424 Ry

     iteration #150     ecut=    80.00 Ry     beta= 0.10
     Davidson diagonalization with overlap
     ethr =  4.83E-09,  avg # of iterations =  1.0

     negative rho (up, down):  5.881E-02 0.000E+00

     total cpu time spent up to now is    43638.9 secs

     total energy              =  -11682.10441654 Ry
     estimated scf accuracy    <       0.00011985 Ry

     iteration #151     ecut=    80.00 Ry     beta= 0.10
     Davidson diagonalization with overlap
     ethr =  4.83E-09,  avg # of iterations =  1.0

     negative rho (up, down):  5.881E-02 0.000E+00

     total cpu time spent up to now is    43922.4 secs

     total energy              =  -11682.10441719 Ry
     estimated scf accuracy    <       0.00008513 Ry

     iteration #152     ecut=    80.00 Ry     beta= 0.10
     Davidson diagonalization with overlap
     ethr =  4.55E-09,  avg # of iterations =  1.0

     negative rho (up, down):  5.881E-02 0.000E+00

     total cpu time spent up to now is    44206.1 secs

     total energy              =  -11682.10441786 Ry
     estimated scf accuracy    <       0.00004856 Ry

     iteration #153     ecut=    80.00 Ry     beta= 0.10
     Davidson diagonalization with overlap
     ethr =  2.59E-09,  avg # of iterations =  1.0

     negative rho (up, down):  5.881E-02 0.000E+00

     total cpu time spent up to now is    44489.9 secs

     total energy              =  -11682.10441774 Ry
     estimated scf accuracy    <       0.00005665 Ry

     iteration #154     ecut=    80.00 Ry     beta= 0.10
     Davidson diagonalization with overlap
     ethr =  2.59E-09,  avg # of iterations =  1.0

     negative rho (up, down):  5.881E-02 0.000E+00

     total cpu time spent up to now is    44774.0 secs

     total energy              =  -11682.10441865 Ry
     estimated scf accuracy    <       0.00008545 Ry

     iteration #155     ecut=    80.00 Ry     beta= 0.10
     Davidson diagonalization with overlap
     ethr =  2.59E-09,  avg # of iterations =  1.0

     negative rho (up, down):  5.881E-02 0.000E+00

     total cpu time spent up to now is    45058.2 secs

     total energy              =  -11682.10441821 Ry
     estimated scf accuracy    <       0.00005966 Ry

     iteration #156     ecut=    80.00 Ry     beta= 0.10
     Davidson diagonalization with overlap
     ethr =  2.59E-09,  avg # of iterations =  1.0

     negative rho (up, down):  5.882E-02 0.000E+00

     total cpu time spent up to now is    45342.1 secs

     total energy              =  -11682.10441905 Ry
     estimated scf accuracy    <       0.00004901 Ry

     iteration #157     ecut=    80.00 Ry     beta= 0.10
     Davidson diagonalization with overlap
     ethr =  2.59E-09,  avg # of iterations =  1.0

     negative rho (up, down):  5.882E-02 0.000E+00

     total cpu time spent up to now is    45625.8 secs

     total energy              =  -11682.10441894 Ry
     estimated scf accuracy    <       0.00004526 Ry

     iteration #158     ecut=    80.00 Ry     beta= 0.10
     Davidson diagonalization with overlap
     ethr =  2.42E-09,  avg # of iterations =  1.0

     negative rho (up, down):  5.882E-02 0.000E+00

     total cpu time spent up to now is    45911.4 secs

     total energy              =  -11682.10441901 Ry
     estimated scf accuracy    <       0.00014276 Ry

     iteration #159     ecut=    80.00 Ry     beta= 0.10
     Davidson diagonalization with overlap
     ethr =  2.42E-09,  avg # of iterations =  1.0

     negative rho (up, down):  5.882E-02 0.000E+00

     total cpu time spent up to now is    46195.5 secs

     total energy              =  -11682.10441909 Ry
     estimated scf accuracy    <       0.00006875 Ry

     iteration #160     ecut=    80.00 Ry     beta= 0.10
     Davidson diagonalization with overlap
     ethr =  2.42E-09,  avg # of iterations =  1.0

     negative rho (up, down):  5.882E-02 0.000E+00

     total cpu time spent up to now is    46479.4 secs

     total energy              =  -11682.10441935 Ry
     estimated scf accuracy    <       0.00009336 Ry

     iteration #161     ecut=    80.00 Ry     beta= 0.10
     Davidson diagonalization with overlap
     ethr =  2.42E-09,  avg # of iterations =  1.0

     negative rho (up, down):  5.882E-02 0.000E+00

     total cpu time spent up to now is    46764.1 secs

     total energy              =  -11682.10441966 Ry
     estimated scf accuracy    <       0.00007061 Ry

     iteration #162     ecut=    80.00 Ry     beta= 0.10
     Davidson diagonalization with overlap
     ethr =  2.42E-09,  avg # of iterations =  1.0

     negative rho (up, down):  5.882E-02 0.000E+00

     total cpu time spent up to now is    47048.8 secs

     total energy              =  -11682.10442005 Ry
     estimated scf accuracy    <       0.00003605 Ry

     iteration #163     ecut=    80.00 Ry     beta= 0.10
     Davidson diagonalization with overlap
     ethr =  1.93E-09,  avg # of iterations =  1.0

     negative rho (up, down):  5.882E-02 0.000E+00

     total cpu time spent up to now is    47332.3 secs

     total energy              =  -11682.10442010 Ry
     estimated scf accuracy    <       0.00003244 Ry

     iteration #164     ecut=    80.00 Ry     beta= 0.10
     Davidson diagonalization with overlap
     ethr =  1.73E-09,  avg # of iterations =  1.0

     negative rho (up, down):  5.882E-02 0.000E+00

     total cpu time spent up to now is    47615.9 secs

     total energy              =  -11682.10442060 Ry
     estimated scf accuracy    <       0.00004581 Ry

     iteration #165     ecut=    80.00 Ry     beta= 0.10
     Davidson diagonalization with overlap
     ethr =  1.73E-09,  avg # of iterations =  1.0

     negative rho (up, down):  5.882E-02 0.000E+00

     total cpu time spent up to now is    47899.8 secs

     total energy              =  -11682.10442053 Ry
     estimated scf accuracy    <       0.00002024 Ry

     iteration #166     ecut=    80.00 Ry     beta= 0.10
     Davidson diagonalization with overlap
     ethr =  1.08E-09,  avg # of iterations =  1.0

     negative rho (up, down):  5.883E-02 0.000E+00

     total cpu time spent up to now is    48184.1 secs

     total energy              =  -11682.10442075 Ry
     estimated scf accuracy    <       0.00002398 Ry

     iteration #167     ecut=    80.00 Ry     beta= 0.10
     Davidson diagonalization with overlap
     ethr =  1.08E-09,  avg # of iterations =  1.0

     negative rho (up, down):  5.883E-02 0.000E+00

     total cpu time spent up to now is    48468.4 secs

     total energy              =  -11682.10442099 Ry
     estimated scf accuracy    <       0.00001481 Ry

     iteration #168     ecut=    80.00 Ry     beta= 0.10
     Davidson diagonalization with overlap
     ethr =  7.91E-10,  avg # of iterations =  1.0

     negative rho (up, down):  5.883E-02 0.000E+00

     total cpu time spent up to now is    48753.6 secs

     total energy              =  -11682.10442103 Ry
     estimated scf accuracy    <       0.00005589 Ry

     iteration #169     ecut=    80.00 Ry     beta= 0.10
     Davidson diagonalization with overlap
     ethr =  7.91E-10,  avg # of iterations =  1.0

     negative rho (up, down):  5.883E-02 0.000E+00

     total cpu time spent up to now is    49037.6 secs

     total energy              =  -11682.10442113 Ry
     estimated scf accuracy    <       0.00002315 Ry

     iteration #170     ecut=    80.00 Ry     beta= 0.10
     Davidson diagonalization with overlap
     ethr =  7.91E-10,  avg # of iterations =  1.0

     negative rho (up, down):  5.883E-02 0.000E+00

     total cpu time spent up to now is    49321.5 secs

     total energy              =  -11682.10442105 Ry
     estimated scf accuracy    <       0.00005602 Ry

     iteration #171     ecut=    80.00 Ry     beta= 0.10
     Davidson diagonalization with overlap
     ethr =  7.91E-10,  avg # of iterations =  1.0

     negative rho (up, down):  5.883E-02 0.000E+00

     total cpu time spent up to now is    49605.8 secs

     total energy              =  -11682.10442117 Ry
     estimated scf accuracy    <       0.00004237 Ry

     iteration #172     ecut=    80.00 Ry     beta= 0.10
     Davidson diagonalization with overlap
     ethr =  7.91E-10,  avg # of iterations =  1.0

     negative rho (up, down):  5.883E-02 0.000E+00

     total cpu time spent up to now is    49890.2 secs

     total energy              =  -11682.10442129 Ry
     estimated scf accuracy    <       0.00002653 Ry

     iteration #173     ecut=    80.00 Ry     beta= 0.10
     Davidson diagonalization with overlap
     ethr =  7.91E-10,  avg # of iterations =  1.0

     negative rho (up, down):  5.883E-02 0.000E+00

     total cpu time spent up to now is    50173.6 secs

     total energy              =  -11682.10442135 Ry
     estimated scf accuracy    <       0.00002440 Ry

     iteration #174     ecut=    80.00 Ry     beta= 0.10
     Davidson diagonalization with overlap
     ethr =  7.91E-10,  avg # of iterations =  1.0

     negative rho (up, down):  5.883E-02 0.000E+00

     total cpu time spent up to now is    50458.5 secs

     total energy              =  -11682.10442160 Ry
     estimated scf accuracy    <       0.00004248 Ry

     iteration #175     ecut=    80.00 Ry     beta= 0.10
     Davidson diagonalization with overlap
     ethr =  7.91E-10,  avg # of iterations =  1.0

     negative rho (up, down):  5.883E-02 0.000E+00

     total cpu time spent up to now is    50742.9 secs

     total energy              =  -11682.10442169 Ry
     estimated scf accuracy    <       0.00001151 Ry

     iteration #176     ecut=    80.00 Ry     beta= 0.10
     Davidson diagonalization with overlap
     ethr =  6.15E-10,  avg # of iterations =  1.0

     negative rho (up, down):  5.883E-02 0.000E+00

     total cpu time spent up to now is    51027.9 secs

     total energy              =  -11682.10442170 Ry
     estimated scf accuracy    <       0.00001519 Ry

     iteration #177     ecut=    80.00 Ry     beta= 0.10
     Davidson diagonalization with overlap
     ethr =  6.15E-10,  avg # of iterations =  1.0

     negative rho (up, down):  5.883E-02 0.000E+00

     total cpu time spent up to now is    51311.6 secs

     total energy              =  -11682.10442194 Ry
     estimated scf accuracy    <       0.00000722 Ry

     iteration #178     ecut=    80.00 Ry     beta= 0.10
     Davidson diagonalization with overlap
     ethr =  3.86E-10,  avg # of iterations =  1.0

     negative rho (up, down):  5.884E-02 0.000E+00

     total cpu time spent up to now is    51594.7 secs

     total energy              =  -11682.10442198 Ry
     estimated scf accuracy    <       0.00001686 Ry

     iteration #179     ecut=    80.00 Ry     beta= 0.10
     Davidson diagonalization with overlap
     ethr =  3.86E-10,  avg # of iterations =  1.0

     negative rho (up, down):  5.884E-02 0.000E+00

     total cpu time spent up to now is    51877.9 secs

     total energy              =  -11682.10442206 Ry
     estimated scf accuracy    <       0.00000767 Ry

     iteration #180     ecut=    80.00 Ry     beta= 0.10
     Davidson diagonalization with overlap
     ethr =  3.86E-10,  avg # of iterations =  1.0

     negative rho (up, down):  5.884E-02 0.000E+00

     total cpu time spent up to now is    52162.2 secs

     total energy              =  -11682.10442201 Ry
     estimated scf accuracy    <       0.00002294 Ry

     iteration #181     ecut=    80.00 Ry     beta= 0.10
     Davidson diagonalization with overlap
     ethr =  3.86E-10,  avg # of iterations =  1.0

     negative rho (up, down):  5.884E-02 0.000E+00

     total cpu time spent up to now is    52446.2 secs

     total energy              =  -11682.10442205 Ry
     estimated scf accuracy    <       0.00001838 Ry

     iteration #182     ecut=    80.00 Ry     beta= 0.10
     Davidson diagonalization with overlap
     ethr =  3.86E-10,  avg # of iterations =  1.0

     negative rho (up, down):  5.884E-02 0.000E+00

     total cpu time spent up to now is    52731.4 secs

     total energy              =  -11682.10442207 Ry
     estimated scf accuracy    <       0.00001508 Ry

     iteration #183     ecut=    80.00 Ry     beta= 0.10
     Davidson diagonalization with overlap
     ethr =  3.86E-10,  avg # of iterations =  1.0

     negative rho (up, down):  5.884E-02 0.000E+00

     total cpu time spent up to now is    53014.5 secs

     total energy              =  -11682.10442210 Ry
     estimated scf accuracy    <       0.00001714 Ry

     iteration #184     ecut=    80.00 Ry     beta= 0.10
     Davidson diagonalization with overlap
     ethr =  3.86E-10,  avg # of iterations =  1.0

     negative rho (up, down):  5.884E-02 0.000E+00

     total cpu time spent up to now is    53298.0 secs

     total energy              =  -11682.10442215 Ry
     estimated scf accuracy    <       0.00003688 Ry

     iteration #185     ecut=    80.00 Ry     beta= 0.10
     Davidson diagonalization with overlap
     ethr =  3.86E-10,  avg # of iterations =  1.0

     negative rho (up, down):  5.884E-02 0.000E+00

     total cpu time spent up to now is    53582.3 secs

     total energy              =  -11682.10442232 Ry
     estimated scf accuracy    <       0.00000764 Ry

     iteration #186     ecut=    80.00 Ry     beta= 0.10
     Davidson diagonalization with overlap
     ethr =  3.86E-10,  avg # of iterations =  1.0

     negative rho (up, down):  5.884E-02 0.000E+00

     total cpu time spent up to now is    53866.3 secs

     total energy              =  -11682.10442222 Ry
     estimated scf accuracy    <       0.00001059 Ry

     iteration #187     ecut=    80.00 Ry     beta= 0.10
     Davidson diagonalization with overlap
     ethr =  3.86E-10,  avg # of iterations =  1.0

     negative rho (up, down):  5.884E-02 0.000E+00

     total cpu time spent up to now is    54151.2 secs

     total energy              =  -11682.10442240 Ry
     estimated scf accuracy    <       0.00000551 Ry

     iteration #188     ecut=    80.00 Ry     beta= 0.10
     Davidson diagonalization with overlap
     ethr =  2.94E-10,  avg # of iterations =  1.0

     negative rho (up, down):  5.884E-02 0.000E+00

     total cpu time spent up to now is    54435.5 secs

     total energy              =  -11682.10442242 Ry
     estimated scf accuracy    <       0.00000698 Ry

     iteration #189     ecut=    80.00 Ry     beta= 0.10
     Davidson diagonalization with overlap
     ethr =  2.94E-10,  avg # of iterations =  1.0

     negative rho (up, down):  5.884E-02 0.000E+00

     total cpu time spent up to now is    54718.7 secs

     total energy              =  -11682.10442248 Ry
     estimated scf accuracy    <       0.00000323 Ry

     iteration #190     ecut=    80.00 Ry     beta= 0.10
     Davidson diagonalization with overlap
     ethr =  1.72E-10,  avg # of iterations =  1.0

     negative rho (up, down):  5.884E-02 0.000E+00

     total cpu time spent up to now is    55003.0 secs

     total energy              =  -11682.10442247 Ry
     estimated scf accuracy    <       0.00000843 Ry

     iteration #191     ecut=    80.00 Ry     beta= 0.10
     Davidson diagonalization with overlap
     ethr =  1.72E-10,  avg # of iterations =  1.0

     negative rho (up, down):  5.884E-02 0.000E+00

     total cpu time spent up to now is    55287.0 secs

     total energy              =  -11682.10442249 Ry
     estimated scf accuracy    <       0.00000697 Ry

     iteration #192     ecut=    80.00 Ry     beta= 0.10
     Davidson diagonalization with overlap
     ethr =  1.72E-10,  avg # of iterations =  1.0

     negative rho (up, down):  5.884E-02 0.000E+00

     total cpu time spent up to now is    55570.1 secs

     total energy              =  -11682.10442251 Ry
     estimated scf accuracy    <       0.00000695 Ry

     iteration #193     ecut=    80.00 Ry     beta= 0.10
     Davidson diagonalization with overlap
     ethr =  1.72E-10,  avg # of iterations =  1.0

     negative rho (up, down):  5.884E-02 0.000E+00

     total cpu time spent up to now is    55854.0 secs

     total energy              =  -11682.10442253 Ry
     estimated scf accuracy    <       0.00000867 Ry

     iteration #194     ecut=    80.00 Ry     beta= 0.10
     Davidson diagonalization with overlap
     ethr =  1.72E-10,  avg # of iterations =  1.0

     negative rho (up, down):  5.884E-02 0.000E+00

     total cpu time spent up to now is    56138.7 secs

     total energy              =  -11682.10442251 Ry
     estimated scf accuracy    <       0.00002006 Ry

     iteration #195     ecut=    80.00 Ry     beta= 0.10
     Davidson diagonalization with overlap
     ethr =  1.72E-10,  avg # of iterations =  1.0

     negative rho (up, down):  5.884E-02 0.000E+00

     total cpu time spent up to now is    56425.0 secs

     total energy              =  -11682.10442263 Ry
     estimated scf accuracy    <       0.00000427 Ry

     iteration #196     ecut=    80.00 Ry     beta= 0.10
     Davidson diagonalization with overlap
     ethr =  1.72E-10,  avg # of iterations =  1.0

     negative rho (up, down):  5.884E-02 0.000E+00

     total cpu time spent up to now is    56709.3 secs

     total energy              =  -11682.10442253 Ry
     estimated scf accuracy    <       0.00000578 Ry

     iteration #197     ecut=    80.00 Ry     beta= 0.10
     Davidson diagonalization with overlap
     ethr =  1.72E-10,  avg # of iterations =  1.0

     negative rho (up, down):  5.884E-02 0.000E+00

     total cpu time spent up to now is    56993.2 secs

     total energy              =  -11682.10442264 Ry
     estimated scf accuracy    <       0.00000538 Ry

     iteration #198     ecut=    80.00 Ry     beta= 0.10
     Davidson diagonalization with overlap
     ethr =  1.72E-10,  avg # of iterations =  1.0

     negative rho (up, down):  5.884E-02 0.000E+00

     total cpu time spent up to now is    57278.0 secs

     total energy              =  -11682.10442264 Ry
     estimated scf accuracy    <       0.00000476 Ry

     iteration #199     ecut=    80.00 Ry     beta= 0.10
     Davidson diagonalization with overlap
     ethr =  1.72E-10,  avg # of iterations =  1.0

     negative rho (up, down):  5.884E-02 0.000E+00

     total cpu time spent up to now is    57562.2 secs

     total energy              =  -11682.10442269 Ry
     estimated scf accuracy    <       0.00000206 Ry

     iteration #200     ecut=    80.00 Ry     beta= 0.10
     Davidson diagonalization with overlap
     ethr =  1.10E-10,  avg # of iterations =  1.0

     negative rho (up, down):  5.884E-02 0.000E+00

     total cpu time spent up to now is    57846.4 secs

     total energy              =  -11682.10442269 Ry
     estimated scf accuracy    <       0.00000400 Ry

     iteration #201     ecut=    80.00 Ry     beta= 0.10
     Davidson diagonalization with overlap
     ethr =  1.10E-10,  avg # of iterations =  1.0

     negative rho (up, down):  5.884E-02 0.000E+00

     total cpu time spent up to now is    58130.4 secs

     total energy              =  -11682.10442270 Ry
     estimated scf accuracy    <       0.00000301 Ry

     iteration #202     ecut=    80.00 Ry     beta= 0.10
     Davidson diagonalization with overlap
     ethr =  1.10E-10,  avg # of iterations =  1.0

     negative rho (up, down):  5.884E-02 0.000E+00

     total cpu time spent up to now is    58413.8 secs

     total energy              =  -11682.10442272 Ry
     estimated scf accuracy    <       0.00000281 Ry

     iteration #203     ecut=    80.00 Ry     beta= 0.10
     Davidson diagonalization with overlap
     ethr =  1.10E-10,  avg # of iterations =  1.0

     negative rho (up, down):  5.885E-02 0.000E+00

     total cpu time spent up to now is    58697.7 secs

     total energy              =  -11682.10442273 Ry
     estimated scf accuracy    <       0.00000322 Ry

     iteration #204     ecut=    80.00 Ry     beta= 0.10
     Davidson diagonalization with overlap
     ethr =  1.10E-10,  avg # of iterations =  1.0

     negative rho (up, down):  5.885E-02 0.000E+00

     total cpu time spent up to now is    58981.6 secs

     total energy              =  -11682.10442271 Ry
     estimated scf accuracy    <       0.00000768 Ry

     iteration #205     ecut=    80.00 Ry     beta= 0.10
     Davidson diagonalization with overlap
     ethr =  1.10E-10,  avg # of iterations =  1.0

     negative rho (up, down):  5.885E-02 0.000E+00

     total cpu time spent up to now is    59265.5 secs

     total energy              =  -11682.10442277 Ry
     estimated scf accuracy    <       0.00000202 Ry

     iteration #206     ecut=    80.00 Ry     beta= 0.10
     Davidson diagonalization with overlap
     ethr =  1.08E-10,  avg # of iterations =  1.0

     negative rho (up, down):  5.885E-02 0.000E+00

     total cpu time spent up to now is    59549.3 secs

     total energy              =  -11682.10442273 Ry
     estimated scf accuracy    <       0.00000222 Ry

     iteration #207     ecut=    80.00 Ry     beta= 0.10
     Davidson diagonalization with overlap
     ethr =  1.08E-10,  avg # of iterations =  1.0

     negative rho (up, down):  5.885E-02 0.000E+00

     total cpu time spent up to now is    59833.1 secs

     total energy              =  -11682.10442276 Ry
     estimated scf accuracy    <       0.00000493 Ry

     iteration #208     ecut=    80.00 Ry     beta= 0.10
     Davidson diagonalization with overlap
     ethr =  1.08E-10,  avg # of iterations =  1.0

     negative rho (up, down):  5.885E-02 0.000E+00

     total cpu time spent up to now is    60117.7 secs

     total energy              =  -11682.10442277 Ry
     estimated scf accuracy    <       0.00000317 Ry

     iteration #209     ecut=    80.00 Ry     beta= 0.10
     Davidson diagonalization with overlap
     ethr =  1.08E-10,  avg # of iterations =  1.0

     negative rho (up, down):  5.885E-02 0.000E+00

     total cpu time spent up to now is    60401.6 secs

     total energy              =  -11682.10442279 Ry
     estimated scf accuracy    <       0.00000162 Ry

     iteration #210     ecut=    80.00 Ry     beta= 0.10
     Davidson diagonalization with overlap
     ethr =  8.68E-11,  avg # of iterations =  1.0

     negative rho (up, down):  5.885E-02 0.000E+00

     total cpu time spent up to now is    60686.2 secs

     total energy              =  -11682.10442279 Ry
     estimated scf accuracy    <       0.00000252 Ry

     iteration #211     ecut=    80.00 Ry     beta= 0.10
     Davidson diagonalization with overlap
     ethr =  8.68E-11,  avg # of iterations =  1.0

     negative rho (up, down):  5.885E-02 0.000E+00

     total cpu time spent up to now is    60970.2 secs

     total energy              =  -11682.10442280 Ry
     estimated scf accuracy    <       0.00000174 Ry

     iteration #212     ecut=    80.00 Ry     beta= 0.10
     Davidson diagonalization with overlap
     ethr =  8.68E-11,  avg # of iterations =  1.0

     negative rho (up, down):  5.885E-02 0.000E+00

     total cpu time spent up to now is    61254.9 secs

     total energy              =  -11682.10442281 Ry
     estimated scf accuracy    <       0.00000135 Ry

     iteration #213     ecut=    80.00 Ry     beta= 0.10
     Davidson diagonalization with overlap
     ethr =  7.19E-11,  avg # of iterations =  1.0

     negative rho (up, down):  5.885E-02 0.000E+00

     total cpu time spent up to now is    61539.5 secs

     total energy              =  -11682.10442282 Ry
     estimated scf accuracy    <       0.00000129 Ry

     iteration #214     ecut=    80.00 Ry     beta= 0.10
     Davidson diagonalization with overlap
     ethr =  6.87E-11,  avg # of iterations =  1.0

     negative rho (up, down):  5.885E-02 0.000E+00

     total cpu time spent up to now is    61823.3 secs

     total energy              =  -11682.10442281 Ry
     estimated scf accuracy    <       0.00000278 Ry

     iteration #215     ecut=    80.00 Ry     beta= 0.10
     Davidson diagonalization with overlap
     ethr =  6.87E-11,  avg # of iterations =  1.0

     negative rho (up, down):  5.885E-02 0.000E+00

     total cpu time spent up to now is    62107.7 secs

     total energy              =  -11682.10442283 Ry
     estimated scf accuracy    <       0.00000088 Ry

     iteration #216     ecut=    80.00 Ry     beta= 0.10
     Davidson diagonalization with overlap
     ethr =  4.72E-11,  avg # of iterations =  1.0

     negative rho (up, down):  5.885E-02 0.000E+00

     total cpu time spent up to now is    62392.3 secs

     total energy              =  -11682.10442283 Ry
     estimated scf accuracy    <       0.00000072 Ry

     iteration #217     ecut=    80.00 Ry     beta= 0.10
     Davidson diagonalization with overlap
     ethr =  3.86E-11,  avg # of iterations =  1.0

     negative rho (up, down):  5.885E-02 0.000E+00

     total cpu time spent up to now is    62676.3 secs

     total energy              =  -11682.10442283 Ry
     estimated scf accuracy    <       0.00000296 Ry

     iteration #218     ecut=    80.00 Ry     beta= 0.10
     Davidson diagonalization with overlap
     ethr =  3.86E-11,  avg # of iterations =  1.0

     negative rho (up, down):  5.885E-02 0.000E+00

     total cpu time spent up to now is    62960.6 secs

     total energy              =  -11682.10442283 Ry
     estimated scf accuracy    <       0.00000152 Ry

     iteration #219     ecut=    80.00 Ry     beta= 0.10
     Davidson diagonalization with overlap
     ethr =  3.86E-11,  avg # of iterations =  1.0

     negative rho (up, down):  5.885E-02 0.000E+00

     total cpu time spent up to now is    63243.8 secs

     total energy              =  -11682.10442284 Ry
     estimated scf accuracy    <       0.00000116 Ry

     iteration #220     ecut=    80.00 Ry     beta= 0.10
     Davidson diagonalization with overlap
     ethr =  3.86E-11,  avg # of iterations =  1.0

     negative rho (up, down):  5.885E-02 0.000E+00

     total cpu time spent up to now is    63528.1 secs

     total energy              =  -11682.10442284 Ry
     estimated scf accuracy    <       0.00000164 Ry

     iteration #221     ecut=    80.00 Ry     beta= 0.10
     Davidson diagonalization with overlap
     ethr =  3.86E-11,  avg # of iterations =  1.0

     negative rho (up, down):  5.885E-02 0.000E+00

     total cpu time spent up to now is    63812.2 secs

     total energy              =  -11682.10442284 Ry
     estimated scf accuracy    <       0.00000125 Ry

     iteration #222     ecut=    80.00 Ry     beta= 0.10
     Davidson diagonalization with overlap
     ethr =  3.86E-11,  avg # of iterations =  1.0

     negative rho (up, down):  5.885E-02 0.000E+00

     total cpu time spent up to now is    64098.0 secs

     total energy              =  -11682.10442285 Ry
     estimated scf accuracy    <       0.00000094 Ry

     iteration #223     ecut=    80.00 Ry     beta= 0.10
     Davidson diagonalization with overlap
     ethr =  3.86E-11,  avg # of iterations =  1.0

     negative rho (up, down):  5.885E-02 0.000E+00

     total cpu time spent up to now is    64381.7 secs

     total energy              =  -11682.10442286 Ry
     estimated scf accuracy    <       0.00000076 Ry

     iteration #224     ecut=    80.00 Ry     beta= 0.10
     Davidson diagonalization with overlap
     ethr =  3.86E-11,  avg # of iterations =  1.0

     negative rho (up, down):  5.885E-02 0.000E+00

     total cpu time spent up to now is    64665.8 secs

     total energy              =  -11682.10442285 Ry
     estimated scf accuracy    <       0.00000133 Ry

     iteration #225     ecut=    80.00 Ry     beta= 0.10
     Davidson diagonalization with overlap
     ethr =  3.86E-11,  avg # of iterations =  1.0

     negative rho (up, down):  5.885E-02 0.000E+00

     total cpu time spent up to now is    64948.9 secs

     total energy              =  -11682.10442286 Ry
     estimated scf accuracy    <       0.00000046 Ry

     iteration #226     ecut=    80.00 Ry     beta= 0.10
     Davidson diagonalization with overlap
     ethr =  2.46E-11,  avg # of iterations =  1.0

     negative rho (up, down):  5.885E-02 0.000E+00

     total cpu time spent up to now is    65232.6 secs

     total energy              =  -11682.10442286 Ry
     estimated scf accuracy    <       0.00000025 Ry

     iteration #227     ecut=    80.00 Ry     beta= 0.10
     Davidson diagonalization with overlap
     ethr =  1.35E-11,  avg # of iterations =  1.0

     negative rho (up, down):  5.885E-02 0.000E+00

     total cpu time spent up to now is    65516.6 secs

     total energy              =  -11682.10442286 Ry
     estimated scf accuracy    <       0.00000105 Ry

     iteration #228     ecut=    80.00 Ry     beta= 0.10
     Davidson diagonalization with overlap
     ethr =  1.35E-11,  avg # of iterations =  1.0

     negative rho (up, down):  5.885E-02 0.000E+00

     total cpu time spent up to now is    65801.6 secs

     total energy              =  -11682.10442286 Ry
     estimated scf accuracy    <       0.00000061 Ry

     iteration #229     ecut=    80.00 Ry     beta= 0.10
     Davidson diagonalization with overlap
     ethr =  1.35E-11,  avg # of iterations =  1.0

     negative rho (up, down):  5.885E-02 0.000E+00

     total cpu time spent up to now is    66086.3 secs

     total energy              =  -11682.10442286 Ry
     estimated scf accuracy    <       0.00000064 Ry

     iteration #230     ecut=    80.00 Ry     beta= 0.10
     Davidson diagonalization with overlap
     ethr =  1.35E-11,  avg # of iterations =  1.0

     negative rho (up, down):  5.885E-02 0.000E+00

     total cpu time spent up to now is    66370.5 secs

     total energy              =  -11682.10442286 Ry
     estimated scf accuracy    <       0.00000088 Ry

     iteration #231     ecut=    80.00 Ry     beta= 0.10
     Davidson diagonalization with overlap
     ethr =  1.35E-11,  avg # of iterations =  1.0

     negative rho (up, down):  5.885E-02 0.000E+00

     total cpu time spent up to now is    66654.4 secs

     total energy              =  -11682.10442286 Ry
     estimated scf accuracy    <       0.00000085 Ry

     iteration #232     ecut=    80.00 Ry     beta= 0.10
     Davidson diagonalization with overlap
     ethr =  1.35E-11,  avg # of iterations =  1.0

     negative rho (up, down):  5.885E-02 0.000E+00

     total cpu time spent up to now is    66939.1 secs

     total energy              =  -11682.10442286 Ry
     estimated scf accuracy    <       0.00000072 Ry

     iteration #233     ecut=    80.00 Ry     beta= 0.10
     Davidson diagonalization with overlap
     ethr =  1.35E-11,  avg # of iterations =  1.0

     negative rho (up, down):  5.885E-02 0.000E+00

     total cpu time spent up to now is    67223.8 secs

     total energy              =  -11682.10442287 Ry
     estimated scf accuracy    <       0.00000055 Ry

     iteration #234     ecut=    80.00 Ry     beta= 0.10
     Davidson diagonalization with overlap
     ethr =  1.35E-11,  avg # of iterations =  1.0

     negative rho (up, down):  5.885E-02 0.000E+00

     total cpu time spent up to now is    67507.8 secs

     total energy              =  -11682.10442286 Ry
     estimated scf accuracy    <       0.00000084 Ry

     iteration #235     ecut=    80.00 Ry     beta= 0.10
     Davidson diagonalization with overlap
     ethr =  1.35E-11,  avg # of iterations =  1.0

     negative rho (up, down):  5.885E-02 0.000E+00

     total cpu time spent up to now is    67791.7 secs

     total energy              =  -11682.10442287 Ry
     estimated scf accuracy    <       0.00000038 Ry

     iteration #236     ecut=    80.00 Ry     beta= 0.10
     Davidson diagonalization with overlap
     ethr =  1.35E-11,  avg # of iterations =  1.0

     negative rho (up, down):  5.885E-02 0.000E+00

     total cpu time spent up to now is    68076.4 secs

     total energy              =  -11682.10442287 Ry
     estimated scf accuracy    <       0.00000013 Ry

     iteration #237     ecut=    80.00 Ry     beta= 0.10
     Davidson diagonalization with overlap
     ethr =  6.85E-12,  avg # of iterations =  1.0

     negative rho (up, down):  5.885E-02 0.000E+00

     total cpu time spent up to now is    68360.4 secs

     total energy              =  -11682.10442287 Ry
     estimated scf accuracy    <       0.00000034 Ry

     iteration #238     ecut=    80.00 Ry     beta= 0.10
     Davidson diagonalization with overlap
     ethr =  6.85E-12,  avg # of iterations =  1.0

     negative rho (up, down):  5.885E-02 0.000E+00

     total cpu time spent up to now is    68644.3 secs

     total energy              =  -11682.10442287 Ry
     estimated scf accuracy    <       0.00000025 Ry

     iteration #239     ecut=    80.00 Ry     beta= 0.10
     Davidson diagonalization with overlap
     ethr =  6.85E-12,  avg # of iterations =  1.0

     negative rho (up, down):  5.885E-02 0.000E+00

     total cpu time spent up to now is    68927.8 secs

     total energy              =  -11682.10442287 Ry
     estimated scf accuracy    <       0.00000028 Ry

     iteration #240     ecut=    80.00 Ry     beta= 0.10
     Davidson diagonalization with overlap
     ethr =  6.85E-12,  avg # of iterations =  1.0

     negative rho (up, down):  5.885E-02 0.000E+00

     total cpu time spent up to now is    69212.4 secs

     total energy              =  -11682.10442287 Ry
     estimated scf accuracy    <       0.00000035 Ry

     iteration #241     ecut=    80.00 Ry     beta= 0.10
     Davidson diagonalization with overlap
     ethr =  6.85E-12,  avg # of iterations =  1.0

     negative rho (up, down):  5.885E-02 0.000E+00

     total cpu time spent up to now is    69496.5 secs

     total energy              =  -11682.10442287 Ry
     estimated scf accuracy    <       0.00000044 Ry

     iteration #242     ecut=    80.00 Ry     beta= 0.10
     Davidson diagonalization with overlap
     ethr =  6.85E-12,  avg # of iterations =  1.0

     negative rho (up, down):  5.885E-02 0.000E+00

     total cpu time spent up to now is    69780.6 secs

     total energy              =  -11682.10442287 Ry
     estimated scf accuracy    <       0.00000043 Ry

     iteration #243     ecut=    80.00 Ry     beta= 0.10
     Davidson diagonalization with overlap
     ethr =  6.85E-12,  avg # of iterations =  1.0

     negative rho (up, down):  5.885E-02 0.000E+00

     total cpu time spent up to now is    70064.8 secs

     total energy              =  -11682.10442287 Ry
     estimated scf accuracy    <       0.00000033 Ry

     iteration #244     ecut=    80.00 Ry     beta= 0.10
     Davidson diagonalization with overlap
     ethr =  6.85E-12,  avg # of iterations =  1.0

     negative rho (up, down):  5.885E-02 0.000E+00

     total cpu time spent up to now is    70348.9 secs

     total energy              =  -11682.10442287 Ry
     estimated scf accuracy    <       0.00000050 Ry

     iteration #245     ecut=    80.00 Ry     beta= 0.10
     Davidson diagonalization with overlap
     ethr =  6.85E-12,  avg # of iterations =  1.0

     negative rho (up, down):  5.885E-02 0.000E+00

     total cpu time spent up to now is    70633.0 secs

     total energy              =  -11682.10442287 Ry
     estimated scf accuracy    <       0.00000038 Ry

     iteration #246     ecut=    80.00 Ry     beta= 0.10
     Davidson diagonalization with overlap
     ethr =  6.85E-12,  avg # of iterations =  1.0

     negative rho (up, down):  5.885E-02 0.000E+00

     total cpu time spent up to now is    70917.1 secs

     total energy              =  -11682.10442287 Ry
     estimated scf accuracy    <       0.00000010 Ry

     iteration #247     ecut=    80.00 Ry     beta= 0.10
     Davidson diagonalization with overlap
     ethr =  5.26E-12,  avg # of iterations =  1.0

     negative rho (up, down):  5.885E-02 0.000E+00

     total cpu time spent up to now is    71201.3 secs

     total energy              =  -11682.10442287 Ry
     estimated scf accuracy    <       0.00000017 Ry

     iteration #248     ecut=    80.00 Ry     beta= 0.10
     Davidson diagonalization with overlap
     ethr =  5.26E-12,  avg # of iterations =  1.0

     negative rho (up, down):  5.885E-02 0.000E+00

     total cpu time spent up to now is    71485.2 secs

     total energy              =  -11682.10442287 Ry
     estimated scf accuracy    <       0.00000014 Ry

     iteration #249     ecut=    80.00 Ry     beta= 0.10
     Davidson diagonalization with overlap
     ethr =  5.26E-12,  avg # of iterations =  1.0

     negative rho (up, down):  5.885E-02 0.000E+00

     total cpu time spent up to now is    71769.5 secs

     total energy              =  -11682.10442287 Ry
     estimated scf accuracy    <       0.00000012 Ry

     iteration #250     ecut=    80.00 Ry     beta= 0.10
     Davidson diagonalization with overlap
     ethr =  5.26E-12,  avg # of iterations =  1.0

     negative rho (up, down):  5.885E-02 0.000E+00

     total cpu time spent up to now is    72053.9 secs

     total energy              =  -11682.10442287 Ry
     estimated scf accuracy    <       0.00000013 Ry

     iteration #251     ecut=    80.00 Ry     beta= 0.10
     Davidson diagonalization with overlap
     ethr =  5.26E-12,  avg # of iterations =  1.0

     negative rho (up, down):  5.885E-02 0.000E+00

     total cpu time spent up to now is    72340.2 secs

     total energy              =  -11682.10442287 Ry
     estimated scf accuracy    <       0.00000018 Ry

     iteration #252     ecut=    80.00 Ry     beta= 0.10
     Davidson diagonalization with overlap
     ethr =  5.26E-12,  avg # of iterations =  1.0

     negative rho (up, down):  5.885E-02 0.000E+00

     total cpu time spent up to now is    72624.8 secs

     total energy              =  -11682.10442287 Ry
     estimated scf accuracy    <       0.00000019 Ry

     iteration #253     ecut=    80.00 Ry     beta= 0.10
     Davidson diagonalization with overlap
     ethr =  5.26E-12,  avg # of iterations =  1.0

     negative rho (up, down):  5.885E-02 0.000E+00

     total cpu time spent up to now is    72909.0 secs

     total energy              =  -11682.10442287 Ry
     estimated scf accuracy    <       0.00000014 Ry

     iteration #254     ecut=    80.00 Ry     beta= 0.10
     Davidson diagonalization with overlap
     ethr =  5.26E-12,  avg # of iterations =  1.0

     negative rho (up, down):  5.885E-02 0.000E+00

     total cpu time spent up to now is    73193.5 secs

     total energy              =  -11682.10442287 Ry
     estimated scf accuracy    <       0.00000025 Ry

     iteration #255     ecut=    80.00 Ry     beta= 0.10
     Davidson diagonalization with overlap
     ethr =  5.26E-12,  avg # of iterations =  1.0

     negative rho (up, down):  5.885E-02 0.000E+00

     total cpu time spent up to now is    73477.5 secs

     total energy              =  -11682.10442287 Ry
     estimated scf accuracy    <       0.00000029 Ry

     iteration #256     ecut=    80.00 Ry     beta= 0.10
     Davidson diagonalization with overlap
     ethr =  5.26E-12,  avg # of iterations =  1.0

     negative rho (up, down):  5.885E-02 0.000E+00

     total cpu time spent up to now is    73761.4 secs

     total energy              =  -11682.10442287 Ry
     estimated scf accuracy    <       0.00000009 Ry

     iteration #257     ecut=    80.00 Ry     beta= 0.10
     Davidson diagonalization with overlap
     ethr =  4.73E-12,  avg # of iterations =  1.0

     negative rho (up, down):  5.885E-02 0.000E+00

     total cpu time spent up to now is    74045.7 secs

     total energy              =  -11682.10442287 Ry
     estimated scf accuracy    <       0.00000010 Ry

     iteration #258     ecut=    80.00 Ry     beta= 0.10
     Davidson diagonalization with overlap
     ethr =  4.73E-12,  avg # of iterations =  1.0

     negative rho (up, down):  5.885E-02 0.000E+00

     total cpu time spent up to now is    74329.8 secs

     total energy              =  -11682.10442287 Ry
     estimated scf accuracy    <       0.00000010 Ry

     iteration #259     ecut=    80.00 Ry     beta= 0.10
     Davidson diagonalization with overlap
     ethr =  4.73E-12,  avg # of iterations =  1.0

     negative rho (up, down):  5.885E-02 0.000E+00

     total cpu time spent up to now is    74613.6 secs

     total energy              =  -11682.10442287 Ry
     estimated scf accuracy    <       0.00000007 Ry

     iteration #260     ecut=    80.00 Ry     beta= 0.10
     Davidson diagonalization with overlap
     ethr =  3.68E-12,  avg # of iterations =  1.0

     negative rho (up, down):  5.885E-02 0.000E+00

     total cpu time spent up to now is    74897.8 secs

     total energy              =  -11682.10442287 Ry
     estimated scf accuracy    <       0.00000006 Ry

     iteration #261     ecut=    80.00 Ry     beta= 0.10
     Davidson diagonalization with overlap
     ethr =  3.37E-12,  avg # of iterations =  1.0

     negative rho (up, down):  5.885E-02 0.000E+00

     total cpu time spent up to now is    75182.5 secs

     total energy              =  -11682.10442287 Ry
     estimated scf accuracy    <       0.00000007 Ry

     iteration #262     ecut=    80.00 Ry     beta= 0.10
     Davidson diagonalization with overlap
     ethr =  3.37E-12,  avg # of iterations =  1.0

     negative rho (up, down):  5.885E-02 0.000E+00

     total cpu time spent up to now is    75465.5 secs

     total energy              =  -11682.10442287 Ry
     estimated scf accuracy    <       0.00000007 Ry

     iteration #263     ecut=    80.00 Ry     beta= 0.10
     Davidson diagonalization with overlap
     ethr =  3.37E-12,  avg # of iterations =  1.0

     negative rho (up, down):  5.885E-02 0.000E+00

     total cpu time spent up to now is    75749.5 secs

     total energy              =  -11682.10442287 Ry
     estimated scf accuracy    <       0.00000006 Ry

     iteration #264     ecut=    80.00 Ry     beta= 0.10
     Davidson diagonalization with overlap
     ethr =  3.02E-12,  avg # of iterations =  1.0

     negative rho (up, down):  5.885E-02 0.000E+00

     total cpu time spent up to now is    76033.1 secs

     total energy              =  -11682.10442287 Ry
     estimated scf accuracy    <       0.00000010 Ry

     iteration #265     ecut=    80.00 Ry     beta= 0.10
     Davidson diagonalization with overlap
     ethr =  3.02E-12,  avg # of iterations =  1.0

     negative rho (up, down):  5.885E-02 0.000E+00

     total cpu time spent up to now is    76318.2 secs

     total energy              =  -11682.10442287 Ry
     estimated scf accuracy    <       0.00000013 Ry

     iteration #266     ecut=    80.00 Ry     beta= 0.10
     Davidson diagonalization with overlap
     ethr =  3.02E-12,  avg # of iterations =  1.0

     negative rho (up, down):  5.885E-02 0.000E+00

     total cpu time spent up to now is    76602.3 secs

     total energy              =  -11682.10442287 Ry
     estimated scf accuracy    <       0.00000007 Ry

     iteration #267     ecut=    80.00 Ry     beta= 0.10
     Davidson diagonalization with overlap
     ethr =  3.02E-12,  avg # of iterations =  1.0

     negative rho (up, down):  5.885E-02 0.000E+00

     total cpu time spent up to now is    76887.2 secs

     total energy              =  -11682.10442287 Ry
     estimated scf accuracy    <       0.00000005 Ry

     iteration #268     ecut=    80.00 Ry     beta= 0.10
     Davidson diagonalization with overlap
     ethr =  2.58E-12,  avg # of iterations =  1.0

     negative rho (up, down):  5.885E-02 0.000E+00

     total cpu time spent up to now is    77171.5 secs

     total energy              =  -11682.10442287 Ry
     estimated scf accuracy    <       0.00000008 Ry

     iteration #269     ecut=    80.00 Ry     beta= 0.10
     Davidson diagonalization with overlap
     ethr =  2.58E-12,  avg # of iterations =  1.0

     negative rho (up, down):  5.885E-02 0.000E+00

     total cpu time spent up to now is    77455.4 secs

     total energy              =  -11682.10442287 Ry
     estimated scf accuracy    <       0.00000004 Ry

     iteration #270     ecut=    80.00 Ry     beta= 0.10
     Davidson diagonalization with overlap
     ethr =  2.39E-12,  avg # of iterations =  1.0

     negative rho (up, down):  5.885E-02 0.000E+00

     total cpu time spent up to now is    77739.2 secs

     total energy              =  -11682.10442287 Ry
     estimated scf accuracy    <       0.00000004 Ry

     iteration #271     ecut=    80.00 Ry     beta= 0.10
     Davidson diagonalization with overlap
     ethr =  2.33E-12,  avg # of iterations =  1.0

     negative rho (up, down):  5.885E-02 0.000E+00

     total cpu time spent up to now is    78023.6 secs

     total energy              =  -11682.10442286 Ry
     estimated scf accuracy    <       0.00000004 Ry

     iteration #272     ecut=    80.00 Ry     beta= 0.10
     Davidson diagonalization with overlap
     ethr =  2.22E-12,  avg # of iterations =  1.0

     negative rho (up, down):  5.885E-02 0.000E+00

     total cpu time spent up to now is    78310.6 secs

     total energy              =  -11682.10442287 Ry
     estimated scf accuracy    <       0.00000004 Ry

     iteration #273     ecut=    80.00 Ry     beta= 0.10
     Davidson diagonalization with overlap
     ethr =  1.91E-12,  avg # of iterations =  1.0

     negative rho (up, down):  5.885E-02 0.000E+00

     total cpu time spent up to now is    78593.6 secs

     total energy              =  -11682.10442287 Ry
     estimated scf accuracy    <       0.00000002 Ry

     iteration #274     ecut=    80.00 Ry     beta= 0.10
     Davidson diagonalization with overlap
     ethr =  1.31E-12,  avg # of iterations =  1.0

     negative rho (up, down):  5.885E-02 0.000E+00

     total cpu time spent up to now is    78876.9 secs

     total energy              =  -11682.10442287 Ry
     estimated scf accuracy    <       0.00000004 Ry

     iteration #275     ecut=    80.00 Ry     beta= 0.10
     Davidson diagonalization with overlap
     ethr =  1.31E-12,  avg # of iterations =  1.0

     negative rho (up, down):  5.885E-02 0.000E+00

     total cpu time spent up to now is    79160.7 secs

     total energy              =  -11682.10442286 Ry
     estimated scf accuracy    <       0.00000004 Ry

     iteration #276     ecut=    80.00 Ry     beta= 0.10
     Davidson diagonalization with overlap
     ethr =  1.31E-12,  avg # of iterations =  1.0

     negative rho (up, down):  5.885E-02 0.000E+00

     total cpu time spent up to now is    79444.1 secs

     total energy              =  -11682.10442286 Ry
     estimated scf accuracy    <       0.00000004 Ry

     iteration #277     ecut=    80.00 Ry     beta= 0.10
     Davidson diagonalization with overlap
     ethr =  1.31E-12,  avg # of iterations =  1.0

     negative rho (up, down):  5.885E-02 0.000E+00

     total cpu time spent up to now is    79731.5 secs

     total energy              =  -11682.10442286 Ry
     estimated scf accuracy    <       0.00000002 Ry

     iteration #278     ecut=    80.00 Ry     beta= 0.10
     Davidson diagonalization with overlap
     ethr =  1.09E-12,  avg # of iterations =  1.0

     negative rho (up, down):  5.885E-02 0.000E+00

     total cpu time spent up to now is    80015.3 secs

     total energy              =  -11682.10442286 Ry
     estimated scf accuracy    <       0.00000006 Ry

     iteration #279     ecut=    80.00 Ry     beta= 0.10
     Davidson diagonalization with overlap
     ethr =  1.09E-12,  avg # of iterations =  1.0

     negative rho (up, down):  5.885E-02 0.000E+00

     total cpu time spent up to now is    80299.2 secs

     total energy              =  -11682.10442286 Ry
     estimated scf accuracy    <       0.00000003 Ry

     iteration #280     ecut=    80.00 Ry     beta= 0.10
     Davidson diagonalization with overlap
     ethr =  1.09E-12,  avg # of iterations =  1.0

     negative rho (up, down):  5.885E-02 0.000E+00

     total cpu time spent up to now is    80583.3 secs

     total energy              =  -11682.10442286 Ry
     estimated scf accuracy    <       0.00000003 Ry

     iteration #281     ecut=    80.00 Ry     beta= 0.10
     Davidson diagonalization with overlap
     ethr =  1.09E-12,  avg # of iterations =  1.0

     negative rho (up, down):  5.885E-02 0.000E+00

     total cpu time spent up to now is    80867.0 secs

     total energy              =  -11682.10442286 Ry
     estimated scf accuracy    <       0.00000003 Ry

     iteration #282     ecut=    80.00 Ry     beta= 0.10
     Davidson diagonalization with overlap
     ethr =  1.09E-12,  avg # of iterations =  1.0

     negative rho (up, down):  5.885E-02 0.000E+00

     total cpu time spent up to now is    81151.5 secs

     total energy              =  -11682.10442286 Ry
     estimated scf accuracy    <       0.00000002 Ry

     iteration #283     ecut=    80.00 Ry     beta= 0.10
     Davidson diagonalization with overlap
     ethr =  1.09E-12,  avg # of iterations =  1.0

     negative rho (up, down):  5.885E-02 0.000E+00

     total cpu time spent up to now is    81435.5 secs

     total energy              =  -11682.10442286 Ry
     estimated scf accuracy    <       0.00000001 Ry

     iteration #284     ecut=    80.00 Ry     beta= 0.10
     Davidson diagonalization with overlap
     ethr =  7.44E-13,  avg # of iterations =  1.0

     negative rho (up, down):  5.885E-02 0.000E+00

     total cpu time spent up to now is    81719.9 secs

     total energy              =  -11682.10442286 Ry
     estimated scf accuracy    <       0.00000002 Ry

     iteration #285     ecut=    80.00 Ry     beta= 0.10
     Davidson diagonalization with overlap
     ethr =  7.44E-13,  avg # of iterations =  1.0

     negative rho (up, down):  5.885E-02 0.000E+00

     total cpu time spent up to now is    82003.8 secs

     total energy              =  -11682.10442286 Ry
     estimated scf accuracy    <       0.00000001 Ry

     iteration #286     ecut=    80.00 Ry     beta= 0.10
     Davidson diagonalization with overlap
     ethr =  6.86E-13,  avg # of iterations =  1.0

     negative rho (up, down):  5.885E-02 0.000E+00

     total cpu time spent up to now is    82287.4 secs

     total energy              =  -11682.10442286 Ry
     estimated scf accuracy    <       0.00000002 Ry

     iteration #287     ecut=    80.00 Ry     beta= 0.10
     Davidson diagonalization with overlap
     ethr =  6.86E-13,  avg # of iterations =  1.0

     negative rho (up, down):  5.885E-02 0.000E+00

     total cpu time spent up to now is    82570.9 secs

     End of self-consistent calculation

          k = 0.0000 0.0000 0.0000 (****** PWs)   bands (ev):

   -58.1813 -56.3959 -56.0525 -56.0253 -55.7983 -55.7848 -55.2215 -55.1731
   -54.9511 -54.6955 -54.0566 -30.1080 -30.0908 -30.0527 -28.3467 -28.3040
   -28.2627 -27.9858 -27.9782 -27.9620 -27.9435 -27.9383 -27.9205 -27.7526
   -27.7313 -27.7039 -27.6868 -27.6665 -27.6582 -27.3230 -27.1923 -27.1322
   -27.1256 -27.0975 -27.0652 -27.0448 -26.9437 -26.8920 -26.8514 -26.6719
   -26.6332 -26.5780 -26.4462 -26.3205 -26.0622 -26.0073 -25.9794 -25.9615
   -25.9598 -25.9492 -25.8155 -25.7698 -25.7507 -25.7434 -25.6454 -25.5585
   -25.4897 -25.4287 -25.3797 -25.3226 -25.3022 -25.2481 -25.2236 -25.2064
   -25.1936 -25.1874 -25.1378 -25.0983 -25.0899 -25.0778 -25.0432 -25.0417
   -24.9914 -24.9779 -24.9494 -24.9260 -24.8999 -24.8611 -24.8364 -24.8193
   -24.8012 -24.7972 -24.7637 -24.7423 -24.7274 -24.7031 -24.6797 -24.6465
   -24.6329 -24.5977 -24.5938 -24.5693 -24.5556 -24.5294 -24.5179 -24.4963
   -24.4831 -24.4568 -24.4502 -24.4365 -24.4090 -24.4028 -24.3761 -24.3651
   -24.3436 -24.3173 -24.2970 -24.2889 -24.2726 -24.2534 -24.2390 -24.2128
   -24.1812 -24.1670 -24.1542 -24.1326 -24.1164 -24.0901 -24.0611 -24.0578
   -24.0042 -23.9833 -23.9799 -23.9639 -23.9473 -23.9318 -23.9225 -23.9099
   -23.8956 -23.8900 -23.8830 -23.8754 -23.8673 -23.8567 -23.8275 -23.8134
   -23.7993 -23.7928 -23.7802 -23.7530 -23.7480 -23.7342 -23.7154 -23.7060
   -23.6945 -23.6826 -23.6651 -23.6332 -23.6078 -23.5977 -23.5801 -23.5778
   -23.5503 -23.5362 -23.5322 -23.4994 -23.4925 -23.4827 -23.4704 -23.4517
   -23.4415 -23.4111 -23.4036 -23.3860 -23.3763 -23.3471 -23.3381 -23.3163
   -23.3159 -23.2915 -23.2796 -23.2717 -23.2530 -23.2437 -23.2426 -23.2269
   -23.2096 -23.2010 -23.1864 -23.1489 -23.1212 -23.1011 -23.0971 -23.0808
   -23.0734 -23.0501 -23.0372 -23.0242 -23.0185 -22.9912 -22.9837 -22.9656
   -22.9581 -22.9400 -22.9039 -22.8987 -22.8939 -22.8876 -22.8573 -22.8518
   -22.8307 -22.7535 -22.7212 -22.7096 -22.6668 -22.6432 -22.5966 -22.5857
   -22.5798 -22.5758 -22.5719 -22.5166 -22.4554 -22.4350 -22.4291 -22.4094
   -22.3986 -22.3633 -22.3030 -22.2202 -22.1755 -22.1668 -22.1245 -22.0279
   -21.8406 -21.7708 -21.7668 -21.7451 -21.6968 -21.6439 -21.6225 -21.5840
   -21.5229 -21.4975 -20.8315 -20.7868 -20.7536 -20.7445 -20.7425 -20.7161
   -20.7136 -20.6616 -20.6576 -20.5523 -20.5501 -20.3547 -20.2713 -20.2647
   -20.2039 -20.0190 -19.9254 -19.9231 -19.9210 -19.9085 -19.9039 -19.9031
   -19.8991 -19.8732 -19.8650 -19.8575 -19.7932 -19.0848 -18.7139 -17.8649
   -17.1077 -16.3115 -15.5410 -15.4008 -15.3388 -15.2680 -15.1589 -15.0790
   -15.0437 -14.9756 -14.9404 -14.8968 -14.8469 -14.7793 -14.7706 -14.7205
   -14.6953 -14.6092 -14.5312 -14.4744 -14.4009 -14.3719 -14.3191 -14.2881
   -14.2196 -14.1984 -14.1960 -14.1471 -14.1097 -14.0931 -14.0676 -14.0045
   -13.9846 -13.9397 -13.9339 -13.8776 -13.8490 -13.7944 -13.7262 -13.7121
   -13.6806 -13.6349 -13.6298 -13.6117 -13.5628 -13.5117 -13.4872 -13.4764
   -13.4329 -13.4072 -13.4009 -13.3418 -13.3189 -13.2779 -13.2703 -13.2415
   -13.1980 -13.1809 -13.1522 -13.1164 -13.0955 -13.0733 -13.0388 -13.0157
   -12.9909 -12.9631 -12.9242 -12.9134 -12.8575 -12.8383 -12.8163 -12.7389
   -12.7280 -12.7081 -12.6714 -12.6304 -12.6035 -12.5640 -12.5494 -12.5162
   -12.5063 -12.4882 -12.4790 -12.4182 -12.4000 -12.3551 -12.3353 -12.3151
   -12.2743 -12.2304 -12.2108 -12.1884 -12.1667 -12.1371 -12.1051 -12.0766
   -12.0552 -12.0418 -12.0160 -11.9972 -11.9737 -11.9380 -11.9305 -11.8956
   -11.8907 -11.8815 -11.8351 -11.8236 -11.7913 -11.7867 -11.7713 -11.7557
   -11.7338 -11.7246 -11.7065 -11.6836 -11.6705 -11.6527 -11.6486 -11.6323
   -11.6128 -11.6016 -11.5741 -11.5633 -11.5595 -11.5210 -11.4995 -11.4837
   -11.4627 -11.4538 -11.4373 -11.4041 -11.3853 -11.3635 -11.3614 -11.3543
   -11.3319 -11.3275 -11.3086 -11.2874 -11.2726 -11.2581 -11.2547 -11.2296
   -11.1797 -11.1756 -11.1507 -11.1389 -11.1161 -11.0894 -11.0830 -11.0692
   -11.0650 -11.0642 -11.0449 -11.0404 -11.0196 -11.0114 -10.9998 -10.9689
   -10.9663 -10.9285 -10.9078 -10.8981 -10.8817 -10.8782 -10.8501 -10.8417
   -10.8031 -10.7756 -10.7716 -10.7524 -10.7361 -10.7288 -10.7069 -10.6785
   -10.6636 -10.6502 -10.6195 -10.5790 -10.5675 -10.5217 -10.4998 -10.4847
   -10.4714 -10.4222 -10.4006 -10.3952 -10.3702 -10.3527 -10.2995 -10.2642
   -10.2610 -10.2362 -10.2191 -10.1788 -10.1607 -10.1003 -10.0866 -10.0632
   -10.0487 -10.0239 -10.0041  -9.9880  -9.9737  -9.9522  -9.9275  -9.9109
    -9.8558  -9.8369  -9.7802  -9.7756  -9.7577  -9.7269  -9.7180  -9.7013
    -9.6842  -9.6732  -9.6543  -9.6465  -9.6084  -9.5873  -9.5618  -9.5530
    -9.5525  -9.5270  -9.5244  -9.5135  -9.5094  -9.5004  -9.4924  -9.4792
    -9.4365  -9.4204  -9.4125  -9.3792  -9.3672  -9.3591  -9.3361  -9.3309
    -9.3109  -9.2972  -9.2672  -9.2481  -9.2317  -9.2080  -9.2047  -9.1655
    -9.1579  -9.1318  -9.1021  -9.0991  -9.0704  -9.0540  -9.0458  -9.0371
    -9.0274  -9.0123  -8.9941  -8.9724  -8.9607  -8.9518  -8.9271  -8.9246
    -8.9123  -8.8980  -8.8891  -8.8741  -8.8542  -8.8496  -8.8443  -8.8314
    -8.8279  -8.8113  -8.7824  -8.7758  -8.7614  -8.7605  -8.7596  -8.7596
    -8.7409  -8.7288  -8.7222  -8.7029  -8.6997  -8.6893  -8.6789  -8.6623
    -8.6523  -8.6464  -8.6324  -8.6213  -8.6066  -8.5845  -8.5800  -8.5748
    -8.5625  -8.5558  -8.5499  -8.5359  -8.5225  -8.5165  -8.5007  -8.4929
    -8.4863  -8.4743  -8.4581  -8.4522  -8.4520  -8.4379  -8.4260  -8.4114
    -8.4051  -8.3928  -8.3824  -8.3661  -8.3608  -8.3526  -8.3350  -8.3306
    -8.3293  -8.3177  -8.2979  -8.2795  -8.2724  -8.2605  -8.2533  -8.2382
    -8.2271  -8.2244  -8.2174  -8.2089  -8.1997  -8.1946  -8.1855  -8.1772
    -8.1698  -8.1481  -8.1389  -8.1328  -8.1290  -8.1060  -8.1014  -8.0975
    -8.0746  -8.0709  -8.0582  -8.0471  -8.0401  -8.0282  -8.0240  -8.0119
    -8.0109  -7.9954  -7.9896  -7.9807  -7.9669  -7.9627  -7.9524  -7.9388
    -7.9352  -7.9289  -7.9225  -7.9071  -7.9052  -7.8915  -7.8830  -7.8692
    -7.8621  -7.8615  -7.8423  -7.8354  -7.8301  -7.8156  -7.8110  -7.8027
    -7.7878  -7.7854  -7.7737  -7.7627  -7.7609  -7.7427  -7.7401  -7.7270
    -7.7250  -7.7015  -7.6942  -7.6898  -7.6825  -7.6711  -7.6571  -7.6556
    -7.6395  -7.6351  -7.6299  -7.6147  -7.6079  -7.6004  -7.5964  -7.5897
    -7.5741  -7.5673  -7.5610  -7.5526  -7.5469  -7.5172  -7.5033  -7.4886
    -7.4819  -7.4796  -7.4749  -7.4637  -7.4515  -7.4446  -7.4360  -7.4209
    -7.4132  -7.4000  -7.3926  -7.3765  -7.3735  -7.3713  -7.3627  -7.3521
    -7.3416  -7.3290  -7.3189  -7.3086  -7.3019  -7.2832  -7.2733  -7.2650
    -7.2528  -7.2489  -7.2372  -7.2278  -7.2166  -7.2097  -7.1973  -7.1935
    -7.1829  -7.1783  -7.1703  -7.1545  -7.1466  -7.1414  -7.1262  -7.1123
    -7.0953  -7.0873  -7.0765  -7.0641  -7.0530  -7.0429  -7.0340  -7.0301
    -7.0185  -7.0152  -6.9974  -6.9803  -6.9727  -6.9662  -6.9543  -6.9440
    -6.9326  -6.9239  -6.9122  -6.9056  -6.8942  -6.8849  -6.8755  -6.8702
    -6.8630  -6.8487  -6.8410  -6.8263  -6.8155  -6.8109  -6.8011  -6.7964
    -6.7865  -6.7794  -6.7789  -6.7722  -6.7437  -6.7423  -6.7216  -6.7032
    -6.6959  -6.6814  -6.6768  -6.6750  -6.6696  -6.6590  -6.6572  -6.6424
    -6.6379  -6.6248  -6.6210  -6.6094  -6.5954  -6.5908  -6.5772  -6.5686
    -6.5628  -6.5461  -6.5396  -6.5361  -6.5178  -6.5091  -6.4949  -6.4868
    -6.4715  -6.4689  -6.4551  -6.4426  -6.4360  -6.4278  -6.4130  -6.4086
    -6.4009  -6.3826  -6.3698  -6.3663  -6.3550  -6.3341  -6.3310  -6.2967
    -6.2861  -6.2722  -6.2654  -6.2514  -6.2460  -6.2251  -6.2216  -6.2001
    -6.1821  -6.1766  -6.1620  -6.1455  -6.1397  -6.1291  -6.1255  -6.1139
    -6.1067  -6.0965  -6.0751  -6.0680  -6.0566  -6.0364  -6.0340  -6.0277
    -6.0175  -5.9998  -5.9867  -5.9709  -5.9651  -5.9566  -5.9361  -5.9209
    -5.9138  -5.9096  -5.9057  -5.8907  -5.8757  -5.8722  -5.8654  -5.8416
    -5.8376  -5.8194  -5.8095  -5.7980  -5.7899  -5.7754  -5.7630  -5.7558
    -5.7353  -5.7072  -5.6862  -5.6693  -5.6547  -5.6442  -5.6358  -5.6265
    -5.6031  -5.5915  -5.5777  -5.5664  -5.5323  -5.5290  -5.5242  -5.5223
    -5.5135  -5.5036  -5.4634  -5.4559  -5.4394  -5.4180  -5.4154  -5.4059
    -5.3606  -5.3439  -5.3266  -5.3000  -5.2532  -5.2482  -5.2426  -5.2190
    -5.1934  -5.1596  -5.0560  -5.0417  -5.0282  -5.0218  -5.0162  -5.0042
    -4.9511  -4.9505  -4.9119  -4.9031  -4.8736  -4.8532  -4.7990  -4.7943
    -4.7759  -4.6975  -4.6688  -4.6478  -4.6452  -4.6350  -4.6294  -4.6172
    -4.5344  -4.4412  -4.3962  -4.3941  -4.3376  -4.3009  -4.2333  -4.2289
    -4.2216  -4.2099  -4.1984  -4.1651  -4.1447  -4.1252  -4.1094  -4.1005
    -4.0911  -4.0868  -4.0741  -4.0407  -4.0374  -4.0316  -4.0254  -4.0229
    -4.0162  -4.0072  -4.0021  -3.9938  -3.9898  -3.9863  -3.9786  -3.9757
    -3.9719  -3.9670  -3.9519  -3.9372  -3.9326  -3.9243  -3.9145  -3.9105
    -3.9015  -3.9012  -3.8670  -3.8583  -3.8393  -3.8215  -3.8204  -3.8078
    -3.7258  -3.6425  -3.5770  -3.5291  -3.5110  -3.4706  -3.3700  -3.2992
    -2.9160  -2.8188  -2.4228  -2.1914  -1.7705  -0.8300  -0.8100  -0.6723
    -0.6133  -0.5953  -0.4642  -0.4331  -0.3564  -0.3015  -0.2219  -0.2026
    -0.1484  -0.0433   0.0598   0.1303   0.2015   0.2740   0.3362   0.4339
     0.4868   0.5215   0.5466   0.5797   0.6290   0.6883   0.7191   0.7488
     0.7872   0.8290   0.8620   0.8691   0.9086   0.9479   0.9568   1.0167
     1.0241   1.0462   1.0664   1.0980   1.1440   1.1711   1.1769   1.2060
     1.2169   1.2447   1.2584   1.2909   1.3167   1.3266   1.3365   1.3703
     1.3951   1.4369   1.4563   1.4646   1.4835   1.5005   1.5477   1.5615
     1.5847   1.5997   1.6164   1.6239   1.6541   1.6772   1.6890   1.7111
     1.7280   1.7393   1.7716   1.7807   1.8068   1.8160   1.8368   1.8587
     1.8709   1.8796   1.9086   1.9132   1.9358   1.9554   1.9701   1.9827
     1.9932   2.0103   2.0173   2.0261   2.0325   2.0508   2.0684   2.0796
     2.0984   2.1002   2.1234   2.1368   2.1411   2.1496   2.1698   2.1788
     2.1992   2.2139   2.2355   2.2451   2.2617   2.2710   2.2855   2.2984
     2.3148   2.3294   2.3355   2.3565   2.3716   2.3741   2.3820   2.3926
     2.3955   2.4149   2.4313   2.4398   2.4569   2.4632   2.4701   2.4827
     2.4876   2.5062   2.5155   2.5175   2.5310   2.5361   2.5509   2.5567
     2.5737   2.5756   2.5801   2.5866   2.5975   2.6039   2.6171   2.6223
     2.6281   2.6413   2.6519   2.6566   2.6716   2.6803   2.6888   2.7005
     2.7096   2.7122   2.7294   2.7310   2.7395   2.7476   2.7588   2.7792
     2.7807   2.7879   2.7944   2.8032   2.8149   2.8238   2.8294   2.8344
     2.8453   2.8561   2.8714

     the Fermi energy is    -3.8758 ev

!    total energy              =  -11682.10442284 Ry
     estimated scf accuracy    <          8.3E-09 Ry
     smearing contrib. (-TS)   =      -0.11103846 Ry
     internal energy E=F+TS    =  -11681.99338439 Ry

     The total energy is F=E-TS. E is the sum of the following terms:
     one-electron contribution = -368118.03524760 Ry
     hartree contribution      =  184509.00233494 Ry
     xc contribution           =   -2470.89476525 Ry
     ewald contribution        =  176757.63936638 Ry
     one-center paw contrib.   =   -2359.70507287 Ry

     convergence has been achieved in 287 iterations

     negative rho (up, down):  5.885E-02 0.000E+00

     Forces acting on atoms (cartesian axes, Ry/au):

     atom    1 type  1   force =     0.01199580    0.01350443    0.05506489
     atom    2 type  1   force =     0.02829396    0.02473849   -0.00008986
     atom    3 type  1   force =     0.00760127    0.00108519   -0.00347883
     atom    4 type  1   force =    -0.01245862   -0.01522995   -0.01030864
     atom    5 type  1   force =     0.01480412   -0.02245921   -0.02701911
     atom    6 type  1   force =     0.00346208   -0.00152693    0.00484750
     atom    7 type  1   force =    -0.00850931    0.01187708    0.01216454
     atom    8 type  1   force =    -0.01215122   -0.03114031    0.00347927
     atom    9 type  1   force =    -0.00149569    0.00641044    0.01348528
     atom   10 type  1   force =     0.01822522   -0.00181317    0.01770319
     atom   11 type  1   force =    -0.01119909   -0.00522231   -0.01231365
     atom   12 type  2   force =     0.00696008    0.12283490   -0.04037150
     atom   13 type  2   force =     0.13680266    0.10053411   -0.00110223
     atom   14 type  2   force =     0.08062998    0.03192528   -0.06288532
     atom   15 type  2   force =     0.14704560   -0.03951720   -0.15272781
     atom   16 type  2   force =     0.02147451    0.03841886    0.04011724
     atom   17 type  2   force =     0.15426345    0.01514799    0.25449996
     atom   18 type  2   force =    -0.01248743   -0.04663457   -0.04945125
     atom   19 type  2   force =    -0.01070412    0.03863950   -0.10068360
     atom   20 type  2   force =    -0.02585877   -0.01329103   -0.04177874
     atom   21 type  2   force =    -0.05465594    0.13496488   -0.03938326
     atom   22 type  2   force =     0.03547529   -0.13281187    0.09225305
     atom   23 type  2   force =    -0.03933755   -0.06824517   -0.05870687
     atom   24 type  2   force =     0.03247568    0.02647392    0.01013255
     atom   25 type  2   force =     0.06553416    0.00682960    0.07213334
     atom   26 type  2   force =    -0.01635775   -0.00955926   -0.01100355
     atom   27 type  2   force =     0.04184764    0.11792949   -0.07342396
     atom   28 type  2   force =    -0.00193028   -0.05841139   -0.01134892
     atom   29 type  2   force =    -0.03140344   -0.05047676    0.08153587
     atom   30 type  2   force =     0.03232567   -0.03167486   -0.03952751
     atom   31 type  2   force =     0.03577089    0.02199412    0.00225360
     atom   32 type  2   force =    -0.00990577   -0.06581239    0.08802089
     atom   33 type  2   force =    -0.05573714    0.01800945   -0.05538300
     atom   34 type  2   force =     0.06102792   -0.02692524   -0.02231162
     atom   35 type  3   force =    -0.01331656   -0.07802182    0.00317093
     atom   36 type  3   force =    -0.16448674    0.08800790   -0.04861643
     atom   37 type  3   force =    -0.06763354    0.03587125   -0.01401368
     atom   38 type  3   force =    -0.05433161   -0.00011428   -0.00932246
     atom   39 type  3   force =     0.07404064    0.00716224    0.01037202
     atom   40 type  3   force =     0.08667944    0.02283589   -0.04332405
     atom   41 type  3   force =    -0.10903086   -0.09027004   -0.13255379
     atom   42 type  3   force =     0.01174169   -0.06037054    0.06468297
     atom   43 type  3   force =     0.01844846   -0.02227547   -0.04846336
     atom   44 type  3   force =     0.06108589    0.10577046    0.04124330
     atom   45 type  3   force =    -0.03242609   -0.00090466   -0.03152786
     atom   46 type  3   force =    -0.03636020    0.12452587    0.05980446
     atom   47 type  3   force =    -0.05594582    0.00756464   -0.14730543
     atom   48 type  3   force =    -0.02875675   -0.12206428   -0.13758173
     atom   49 type  3   force =     0.06188696    0.18235004    0.05228562
     atom   50 type  3   force =     0.04381367   -0.02197019   -0.09763081
     atom   51 type  3   force =    -0.01913105    0.04787782    0.07065393
     atom   52 type  3   force =    -0.12113982   -0.10572343    0.11943339
     atom   53 type  3   force =    -0.12317432   -0.10993661   -0.05462297
     atom   54 type  3   force =    -0.03652616   -0.02308180    0.10029858
     atom   55 type  3   force =    -0.14974503    0.03084502    0.03099572
     atom   56 type  3   force =    -0.02263471    0.01122199    0.12156547
     atom   57 type  3   force =     0.00705939   -0.09506636   -0.04893490
     atom   58 type  3   force =     0.06105706   -0.00845745    0.04776970
     atom   59 type  3   force =    -0.03557579   -0.01076337    0.03899982
     atom   60 type  3   force =     0.07903979   -0.07455201   -0.00354799
     atom   61 type  3   force =     0.01544186    0.19122329    0.03558448
     atom   62 type  3   force =    -0.01925824   -0.01656669   -0.00613483
     atom   63 type  3   force =     0.01624905    0.01188543   -0.00634742
     atom   64 type  3   force =     0.00300149    0.05905401    0.08280279
     atom   65 type  3   force =    -0.00777648    0.02312143    0.02012445
     atom   66 type  3   force =    -0.01591292    0.00338397   -0.01871399
     atom   67 type  3   force =     0.03181747    0.00069651    0.10173831
     atom   68 type  3   force =    -0.06481297   -0.03465890    0.07981190
     atom   69 type  3   force =     0.04495921    0.03724574    0.03187351
     atom   70 type  3   force =    -0.05035830   -0.06711782   -0.05577137
     atom   71 type  3   force =     0.04845895   -0.03742021    0.05252283
     atom   72 type  3   force =     0.01423844    0.11139420    0.19924284
     atom   73 type  3   force =    -0.07868678    0.05104918   -0.07639459
     atom   74 type  3   force =     0.00535993   -0.06455006   -0.04794648
     atom   75 type  3   force =    -0.06311211    0.00863289   -0.00229118
     atom   76 type  3   force =     0.04453710   -0.10614809   -0.06057699
     atom   77 type  3   force =    -0.03079874    0.07742663    0.03350006
     atom   78 type  3   force =    -0.09862683   -0.02063163   -0.06888048
     atom   79 type  3   force =    -0.00397809   -0.04278403    0.03498833
     atom   80 type  3   force =    -0.03151346    0.03988533   -0.00623964
     atom   81 type  3   force =     0.03053594    0.01863488   -0.03976479
     atom   82 type  3   force =    -0.04202881    0.01746791   -0.05410435
     atom   83 type  3   force =    -0.05122283    0.09449835    0.02439645
     atom   84 type  3   force =    -0.02490111    0.04023065   -0.04040640
     atom   85 type  3   force =    -0.01126299   -0.09864414    0.07704677
     atom   86 type  3   force =    -0.02856881   -0.07921674   -0.10454961
     atom   87 type  3   force =     0.02220956   -0.00707346   -0.06813081
     atom   88 type  3   force =    -0.00062540    0.05374898   -0.11881937
     atom   89 type  3   force =    -0.04881860   -0.02047577    0.06484958
     atom   90 type  3   force =     0.05369702   -0.04773376   -0.04653806
     atom   91 type  3   force =     0.06645880    0.04065676   -0.01539200
     atom   92 type  3   force =    -0.00908725   -0.00583478   -0.02088476
     atom   93 type  3   force =    -0.08709371   -0.10490437   -0.00534759
     atom   94 type  3   force =     0.07176771    0.08988028    0.05023725
     atom   95 type  3   force =    -0.01085647   -0.01075989   -0.06887907
     atom   96 type  3   force =    -0.09370360   -0.01180639    0.15326032
     atom   97 type  3   force =    -0.02819230   -0.04657480   -0.00175037
     atom   98 type  3   force =     0.10436323    0.01081891    0.09550695
     atom   99 type  3   force =    -0.05541112   -0.00677606    0.03651616
     atom  100 type  3   force =     0.02257749   -0.07806323    0.07965273
     atom  101 type  3   force =    -0.06014904    0.02732432   -0.01091445
     atom  102 type  3   force =     0.03018633    0.01706290    0.03127785
     atom  103 type  3   force =     0.04697099    0.03112431    0.09745532
     atom  104 type  3   force =    -0.08243821   -0.07743241   -0.00516827
     atom  105 type  3   force =     0.02909731    0.05417177   -0.00657394
     atom  106 type  3   force =     0.03832793    0.11431828   -0.01539708
     atom  107 type  3   force =    -0.02839731   -0.00300108    0.02824120
     atom  108 type  3   force =     0.04672202   -0.01053558    0.04565669
     atom  109 type  3   force =     0.10903076    0.02064708   -0.03997384
     atom  110 type  3   force =     0.13934750    0.00801707   -0.06092937
     atom  111 type  3   force =    -0.02036762   -0.01789483    0.01781550
     atom  112 type  3   force =    -0.06697403    0.09518659   -0.01067393
     atom  113 type  3   force =     0.02128692   -0.01982912   -0.05615536
     atom  114 type  3   force =    -0.03898372    0.02175459    0.08108189
     atom  115 type  3   force =     0.01333422   -0.02840351    0.07661103
     atom  116 type  3   force =     0.08474110    0.00791227   -0.04834860
     atom  117 type  3   force =    -0.06884135    0.00327579    0.03779251
     atom  118 type  3   force =    -0.11801340    0.11153878    0.02569013
     atom  119 type  3   force =     0.07045617   -0.00672433    0.03245770
     atom  120 type  3   force =     0.00918774    0.02808827    0.10531907
     atom  121 type  3   force =     0.12995787    0.07610942    0.01659318
     atom  122 type  4   force =     0.03928943    0.01292529    0.02857467
     atom  123 type  4   force =    -0.06150520   -0.04010032   -0.00947131
     atom  124 type  4   force =     0.00360602    0.02432592   -0.04632499
     atom  125 type  4   force =     0.01812557   -0.00579816   -0.00430756
     atom  126 type  4   force =    -0.13138279   -0.14924302   -0.01141546
     atom  127 type  4   force =    -0.09951023   -0.12885822   -0.07374491
     atom  128 type  4   force =     0.01054742   -0.04946194    0.05951475
     atom  129 type  4   force =     0.00877738   -0.06139133   -0.01160221
     atom  130 type  4   force =     0.00890636   -0.02172986    0.00936324
     atom  131 type  4   force =     0.00673274   -0.01827016   -0.01307242
     atom  132 type  4   force =     0.04931642   -0.03836609   -0.01677640
     atom  133 type  4   force =    -0.03659150   -0.05918383    0.03629702
     atom  134 type  4   force =    -0.09349670    0.00757437   -0.04010778
     atom  135 type  4   force =     0.02240996   -0.02688736    0.12451902
     atom  136 type  4   force =     0.01795236   -0.01015585   -0.01840199
     atom  137 type  4   force =     0.05383483    0.04126678   -0.03421091
     atom  138 type  4   force =     0.01574615    0.00199285   -0.01532997
     atom  139 type  4   force =    -0.00674353    0.02803923   -0.02079743
     atom  140 type  4   force =     0.02154400   -0.06866750    0.02200565
     atom  141 type  4   force =     0.05845673   -0.01195711    0.00210559
     atom  142 type  4   force =    -0.10497775   -0.05309333    0.04674076
     atom  143 type  4   force =    -0.15056019   -0.03717928   -0.09755973
     atom  144 type  4   force =    -0.00562718   -0.01755315    0.02992395
     atom  145 type  4   force =    -0.04010939    0.03666193    0.01598461
     atom  146 type  4   force =    -0.02192157    0.01688157   -0.02251092
     atom  147 type  4   force =    -0.13171946   -0.04974768    0.03207151
     atom  148 type  4   force =     0.01369131   -0.02071192   -0.01297406
     atom  149 type  4   force =     0.06869609    0.03543010    0.01729009
     atom  150 type  4   force =    -0.06354372   -0.05298162   -0.02004403
     atom  151 type  4   force =     0.05092550    0.03695184    0.02446247
     atom  152 type  4   force =    -0.05808208    0.02464441    0.01510373
     atom  153 type  4   force =     0.07627838    0.01869720    0.07641198
     atom  154 type  4   force =    -0.09645565    0.00591264    0.00665240
     atom  155 type  4   force =    -0.01241786   -0.01459101   -0.00930183
     atom  156 type  4   force =    -0.05024516    0.04124038   -0.02249255
     atom  157 type  4   force =     0.04245002   -0.01054409   -0.00374317
     atom  158 type  4   force =     0.01334444    0.01209001   -0.02431212
     atom  159 type  4   force =     0.06700920    0.00748247   -0.05884042
     atom  160 type  4   force =     0.03929418   -0.08922265    0.01381922
     atom  161 type  4   force =     0.00301121   -0.02877238    0.07140259
     atom  162 type  4   force =     0.05271376    0.09513083    0.01489227
     atom  163 type  4   force =    -0.01544363    0.05817147   -0.01562049
     atom  164 type  4   force =     0.02449508    0.02901305    0.06694915
     atom  165 type  4   force =    -0.07481692    0.00933714    0.04935244
     atom  166 type  4   force =    -0.00155411   -0.10196968    0.00500923
     atom  167 type  4   force =    -0.03919976   -0.04011050   -0.01524933
     atom  168 type  4   force =     0.01687318   -0.18427805    0.05835383
     atom  169 type  4   force =     0.05231674    0.04495441   -0.09520375
     atom  170 type  4   force =     0.02789945   -0.04776661   -0.03584650
     atom  171 type  4   force =     0.01258286   -0.01692228    0.00344358
     atom  172 type  4   force =    -0.07006296    0.01224667   -0.04400673
     atom  173 type  4   force =    -0.03890442    0.00709842   -0.02555686
     atom  174 type  4   force =     0.05690207    0.08618306    0.01853685
     atom  175 type  4   force =     0.01310689    0.04179625    0.00303374
     atom  176 type  4   force =     0.03804874   -0.00537498    0.02578124
     atom  177 type  4   force =     0.06442690   -0.00479971   -0.00870555
     atom  178 type  4   force =    -0.00354912    0.03682668    0.04530225
     atom  179 type  4   force =    -0.01187798    0.02841558    0.00296504
     atom  180 type  4   force =    -0.05734025    0.00563924   -0.00722186
     atom  181 type  4   force =    -0.00000127   -0.00053153    0.09591768
     atom  182 type  4   force =    -0.02452988   -0.06135538    0.05014208
     atom  183 type  4   force =    -0.03303017    0.10653712   -0.05854008
     atom  184 type  4   force =     0.01826594   -0.01127236    0.05175477
     atom  185 type  4   force =     0.04935685   -0.03494262   -0.01726301
     atom  186 type  4   force =    -0.01141181   -0.01735720    0.00163405
     atom  187 type  4   force =    -0.02755679   -0.01186177    0.05024161
     atom  188 type  4   force =    -0.02038531   -0.01787189   -0.04715974
     atom  189 type  4   force =    -0.01990387    0.03548170   -0.00027756
     atom  190 type  4   force =     0.05860734   -0.03610659    0.00663095
     atom  191 type  4   force =    -0.01850460   -0.00335496   -0.00673087
     atom  192 type  4   force =    -0.03514672    0.02414499   -0.03100267
     atom  193 type  4   force =     0.03626315   -0.06461600    0.02160142
     atom  194 type  4   force =    -0.04963111    0.00127126   -0.00628987
     atom  195 type  4   force =    -0.01021413   -0.00657388    0.01844092
     atom  196 type  4   force =     0.00243001   -0.02552104   -0.06112170
     atom  197 type  4   force =     0.00928057    0.01571197   -0.00014870
     atom  198 type  4   force =    -0.03842937    0.04138329   -0.01355637
     atom  199 type  4   force =     0.00814007   -0.02587971    0.00625137
     atom  200 type  4   force =    -0.00959043   -0.03603831    0.05783320
     atom  201 type  4   force =    -0.01078827   -0.04760141   -0.02854790
     atom  202 type  4   force =     0.01620454    0.01501601    0.04152383
     atom  203 type  4   force =    -0.05688801   -0.05915328   -0.10310021
     atom  204 type  4   force =    -0.00238382    0.01815946    0.06243684
     atom  205 type  4   force =     0.01019105    0.07388864   -0.01371590
     atom  206 type  4   force =    -0.04069616   -0.03139734   -0.04467984
     atom  207 type  4   force =    -0.00466091   -0.03032995    0.03530849
     atom  208 type  4   force =    -0.00082099    0.01180729   -0.01005663
     atom  209 type  4   force =    -0.04446898    0.03169547   -0.05089044
     atom  210 type  4   force =    -0.01137061    0.01308156   -0.05118981
     atom  211 type  4   force =    -0.00048026   -0.03480259   -0.05646466
     atom  212 type  4   force =     0.04238831   -0.03951959   -0.03328182
     atom  213 type  4   force =     0.04284431   -0.14884047   -0.08361687
     atom  214 type  4   force =     0.05164812    0.06498336   -0.05761324
     atom  215 type  4   force =    -0.02678952   -0.02904487    0.00518723
     atom  216 type  4   force =    -0.02211609    0.07576006    0.04091135
     atom  217 type  4   force =    -0.02413621    0.03766299   -0.04189507
     atom  218 type  4   force =     0.01497390    0.02512282   -0.00790041
     atom  219 type  4   force =    -0.04401812   -0.04014270   -0.00919918
     atom  220 type  4   force =     0.01251829   -0.04160800    0.02308263
     atom  221 type  4   force =    -0.00426924    0.03038327    0.06498287
     atom  222 type  4   force =     0.10391239   -0.01656117    0.00584982
     atom  223 type  4   force =     0.02184614    0.08578718   -0.05094798
     atom  224 type  4   force =     0.03971296    0.02492700   -0.01339366
     atom  225 type  4   force =     0.06108076    0.04951508   -0.00339038
     atom  226 type  4   force =     0.02004844   -0.02508665    0.02078619
     atom  227 type  4   force =    -0.02257555    0.05200704    0.04175243
     atom  228 type  4   force =     0.00322662   -0.01709513   -0.02723105
     atom  229 type  4   force =     0.01371434    0.00002379    0.05414633
     atom  230 type  4   force =     0.05285469    0.04915754   -0.00144820
     atom  231 type  4   force =     0.04237631   -0.02103947    0.07132027
     atom  232 type  4   force =     0.04274529   -0.06426170   -0.00879940
     atom  233 type  4   force =     0.03888260    0.05820121    0.02902278
     atom  234 type  4   force =    -0.03304795   -0.05984246   -0.11439371
     atom  235 type  4   force =    -0.01907584    0.15898670   -0.01452220
     atom  236 type  4   force =     0.08808540   -0.01639239   -0.04575517
     atom  237 type  4   force =     0.00619908    0.00678488    0.01213954
     atom  238 type  4   force =    -0.01093875   -0.01289479    0.04261706
     atom  239 type  4   force =     0.01907139   -0.03603559    0.00736749
     atom  240 type  4   force =     0.07765403    0.03085706    0.02820577
     atom  241 type  4   force =     0.03140635   -0.01975185   -0.00500834
     atom  242 type  4   force =    -0.20436055   -0.02978976    0.07890714
     atom  243 type  4   force =     0.02974082    0.00104725    0.02041651
     atom  244 type  4   force =    -0.05117811   -0.00158975   -0.04531998
     atom  245 type  4   force =    -0.01912587   -0.02914518   -0.09481729
     atom  246 type  4   force =     0.02449866   -0.00896240   -0.03126700
     atom  247 type  4   force =    -0.00635480   -0.01715960   -0.06720896
     atom  248 type  4   force =    -0.01645475    0.03017766    0.05872198
     atom  249 type  4   force =     0.03808616    0.02614445   -0.06222596
     atom  250 type  4   force =    -0.08194751   -0.01672162    0.00421195
     atom  251 type  4   force =    -0.00777483   -0.00391755   -0.01948877
     atom  252 type  4   force =    -0.07079139    0.01897390   -0.05197617
     atom  253 type  4   force =     0.00125830   -0.04522528   -0.11038049
     atom  254 type  4   force =    -0.09103578    0.01338220   -0.01478184
     atom  255 type  4   force =     0.01623079   -0.01882175    0.02038248
     atom  256 type  4   force =     0.03194868   -0.00800304    0.03524815
     atom  257 type  4   force =     0.02692990   -0.02500837    0.03378833
     atom  258 type  4   force =     0.00067430    0.01270088   -0.02909559
     atom  259 type  4   force =     0.04802588    0.01503031   -0.00891175
     atom  260 type  4   force =    -0.04570171   -0.01159687   -0.06094182
     atom  261 type  4   force =     0.04154987    0.02785217   -0.03932924
     atom  262 type  4   force =    -0.05475282   -0.01075473    0.04593459
     atom  263 type  4   force =     0.09631098   -0.02622232    0.01764284
     atom  264 type  4   force =    -0.04573301    0.04263042   -0.02251108
     atom  265 type  4   force =     0.02501759    0.01573571   -0.03989850
     atom  266 type  4   force =     0.02701071    0.02036704   -0.04800160
     atom  267 type  4   force =     0.07735725   -0.00411187   -0.04245375
     atom  268 type  4   force =     0.02719009   -0.04396507   -0.03136809
     atom  269 type  4   force =    -0.01663321   -0.06671981    0.00511033
     atom  270 type  4   force =    -0.07175136   -0.01327190   -0.02964441
     atom  271 type  4   force =     0.06961080    0.01180941    0.00867086
     atom  272 type  4   force =     0.02760937    0.05490517   -0.01276897
     atom  273 type  4   force =     0.00244076   -0.00628302    0.04765795
     atom  274 type  4   force =    -0.02440403    0.00276156    0.02710962
     atom  275 type  4   force =    -0.01179089   -0.02053727    0.01815999
     atom  276 type  4   force =     0.04365507    0.07911854    0.06965351
     atom  277 type  4   force =     0.02660938   -0.01173333   -0.07657899
     atom  278 type  4   force =    -0.02163598    0.06298084    0.04430268
     atom  279 type  4   force =    -0.01201297   -0.02155928    0.00405677
     atom  280 type  4   force =    -0.02689110    0.05667811    0.00936254
     atom  281 type  4   force =     0.04153542    0.03161253    0.04327119
     atom  282 type  4   force =     0.03679205   -0.05141188    0.01537354
     atom  283 type  4   force =     0.00388405   -0.06518599   -0.03214604
     atom  284 type  4   force =     0.07176477   -0.05364373   -0.03053035
     atom  285 type  4   force =     0.01850549   -0.01659535    0.01459053
     atom  286 type  4   force =    -0.11830447   -0.02981641   -0.06917704
     atom  287 type  4   force =    -0.01598893   -0.00142619    0.04440612
     atom  288 type  4   force =     0.06698707   -0.00416808   -0.05576788
     atom  289 type  4   force =     0.02102494    0.09115119   -0.02695403
     atom  290 type  4   force =     0.10201258   -0.05839495   -0.11032200
     atom  291 type  4   force =    -0.03028962    0.01406348   -0.01559563
     atom  292 type  4   force =    -0.01969296   -0.01141646    0.01443976
     atom  293 type  4   force =    -0.00648928   -0.02628355   -0.04963052
     atom  294 type  4   force =     0.08007267   -0.02996273    0.16773422
     atom  295 type  4   force =    -0.05387107    0.06400487    0.06795904
     atom  296 type  4   force =    -0.05990397    0.01921320    0.03731215
     atom  297 type  4   force =    -0.01794634    0.01393740   -0.02443043
     atom  298 type  4   force =     0.01298931    0.01345847    0.01805979
     atom  299 type  4   force =    -0.06667985   -0.14464599   -0.02721110
     atom  300 type  4   force =    -0.01170460   -0.05289264   -0.03414080
     atom  301 type  4   force =    -0.07375512    0.03965777    0.02584648
     atom  302 type  4   force =     0.00579434    0.12645929    0.11048407
     atom  303 type  4   force =    -0.01421400   -0.02296890   -0.03987668
     atom  304 type  4   force =    -0.03900267   -0.00164681    0.01126608
     atom  305 type  4   force =    -0.03630065   -0.01653101    0.00696498
     atom  306 type  4   force =     0.00812369    0.01577341   -0.05869955
     atom  307 type  4   force =     0.02342241    0.02015766    0.04235135
     atom  308 type  4   force =     0.00975512    0.00088606   -0.05118958
     atom  309 type  4   force =     0.00197063   -0.02056606    0.01388961
     atom  310 type  4   force =     0.09237900   -0.00427325    0.11083122
     atom  311 type  4   force =    -0.03284143   -0.01349839    0.01134291
     atom  312 type  4   force =    -0.02337970    0.02160112    0.01457710
     atom  313 type  4   force =     0.01447781   -0.08754371    0.01934685
     atom  314 type  4   force =    -0.04556766    0.01302869   -0.02397320
     atom  315 type  4   force =    -0.01720824   -0.00381386   -0.02792495
     atom  316 type  4   force =    -0.00559980   -0.00391698    0.01814916
     atom  317 type  4   force =    -0.00154534    0.06905225    0.04019701
     atom  318 type  4   force =     0.04039945    0.00254309   -0.01762848
     atom  319 type  4   force =    -0.02971015   -0.01473330   -0.06108879
     atom  320 type  4   force =     0.04269234   -0.01855927   -0.02679780
     atom  321 type  4   force =    -0.02612695    0.12890653    0.03820147
     atom  322 type  4   force =     0.02391223    0.01096012   -0.06530758
     atom  323 type  4   force =     0.03519186   -0.03550419    0.04973412
     atom  324 type  4   force =     0.05181593    0.00480028   -0.02339149
     atom  325 type  4   force =     0.03439556   -0.02324769   -0.02835375
     atom  326 type  4   force =    -0.00824074    0.11665960    0.05598041
     atom  327 type  4   force =     0.04740654    0.04959803   -0.03982202
     atom  328 type  4   force =     0.02044200    0.00101029   -0.01988914
     atom  329 type  4   force =     0.10557873    0.01068980    0.01855091
     atom  330 type  4   force =     0.02362811   -0.03637049   -0.05432407
     atom  331 type  4   force =     0.03238792    0.04216880   -0.00806438
     atom  332 type  4   force =     0.02200149    0.05079660   -0.01242142
     atom  333 type  4   force =    -0.05390450   -0.05586168    0.02738183
     atom  334 type  4   force =     0.02369739    0.04556139   -0.02802888
     atom  335 type  4   force =     0.06794683    0.02172912   -0.02188431
     atom  336 type  4   force =    -0.03963795   -0.03104319   -0.04420393
     atom  337 type  4   force =    -0.00519313   -0.00459236   -0.02303698
     atom  338 type  4   force =    -0.05724069    0.04313359   -0.01902201
     atom  339 type  5   force =    -0.02048249    0.02371932    0.03467616
     atom  340 type  5   force =     0.00634097   -0.02890319    0.02861163
     atom  341 type  6   force =     0.02475664    0.00389590    0.00420158
     atom  342 type  6   force =    -0.02475480   -0.00363805   -0.00423930
     atom  343 type  6   force =     0.00262327   -0.04231586    0.00354655
     atom  344 type  6   force =     0.00791397   -0.04169839    0.00440191
     atom  345 type  6   force =    -0.00740823    0.04172549   -0.00421834
     atom  346 type  6   force =    -0.00346958    0.04224721   -0.00339448
     atom  347 type  6   force =     0.02931682    0.02267966    0.00403783
     atom  348 type  6   force =    -0.03404768    0.01381744   -0.00736245
     atom  349 type  6   force =     0.03395251   -0.01353121    0.00730567
     atom  350 type  6   force =    -0.02912821   -0.02310310   -0.00377096
     atom  351 type  7   force =     0.00306161    0.00582844   -0.00004839
     atom  352 type  7   force =    -0.00419009    0.00475583   -0.00127623
     atom  353 type  7   force =     0.00414139   -0.00452392    0.00103547
     atom  354 type  7   force =    -0.00273487   -0.00575510   -0.00021428
     atom  355 type  7   force =     0.00377238   -0.00346226    0.00086815
     atom  356 type  7   force =    -0.00270402   -0.00425865   -0.00028533
     atom  357 type  7   force =     0.00295281    0.00415317    0.00039282
     atom  358 type  7   force =    -0.00373509    0.00324566   -0.00098020

     Total force =     1.686523     Total SCF correction =     0.000152


     Computing stress (Cartesian axis) and pressure


     negative rho (up, down):  5.885E-02 0.000E+00
          total   stress  (Ry/bohr**3)                   (kbar)     P=        7.98
   0.00005256   0.00000157  -0.00000261            7.73        0.23       -0.38
   0.00000157   0.00006097   0.00000341            0.23        8.97        0.50
  -0.00000261   0.00000341   0.00004926           -0.38        0.50        7.25


     Writing all to output data dir ./outputs/pwscf.save/ :
     XML data file, charge density, pseudopotentials, collected wavefunctions
 
     init_run     :    147.54s CPU    152.41s WALL (       1 calls)
     electrons    :  80844.46s CPU  82420.63s WALL (       1 calls)
     forces       :     92.62s CPU     95.79s WALL (       1 calls)
     stress       :    349.81s CPU    354.89s WALL (       1 calls)

     Called by init_run:
     wfcinit      :    131.63s CPU    135.22s WALL (       1 calls)
     potinit      :      1.18s CPU      1.28s WALL (       1 calls)
     hinit0       :      1.39s CPU      1.45s WALL (       1 calls)

     Called by electrons:
     c_bands      :  67593.91s CPU  68556.96s WALL (     287 calls)
     sum_band     :  11898.14s CPU  12243.25s WALL (     287 calls)
     v_of_rho     :    129.66s CPU    135.46s WALL (     288 calls)
     newd         :    970.98s CPU   1226.55s WALL (     288 calls)
     PAW_pot      :    163.60s CPU    164.77s WALL (     288 calls)
     mix_rho      :     71.17s CPU     74.95s WALL (     287 calls)

     Called by c_bands:
     init_us_2    :    631.94s CPU    641.44s WALL (     576 calls)
     cegterg      :  66743.13s CPU  67691.98s WALL (     287 calls)

     Called by *egterg:
     cdiaghg      :    962.39s CPU    970.95s WALL (     617 calls)
     h_psi        :  37228.73s CPU  37668.32s WALL (     618 calls)
     s_psi        :  11109.94s CPU  11211.87s WALL (     618 calls)
     g_psi        :     44.11s CPU     44.74s WALL (     330 calls)

     Called by h_psi:
     h_psi:calbec :  11090.20s CPU  11167.18s WALL (     618 calls)
     vloc_psi     :  14980.18s CPU  15155.15s WALL (     618 calls)
                                        0.00s GPU  (     618 calls)
     add_vuspsi   :  11095.75s CPU  11205.07s WALL (     618 calls)

     General routines
     calbec       :  16926.48s CPU  17042.69s WALL (     922 calls)
     fft          :    131.67s CPU    138.85s WALL (    3767 calls)
     ffts         :     11.43s CPU     12.08s WALL (     575 calls)
     fftw         :  14505.94s CPU  14655.63s WALL ( 1619301 calls)
     interpolate  :     15.92s CPU     16.76s WALL (     288 calls)
 
     Parallel routines
 
     PWSCF        :     22h37m CPU     23h 5m WALL

 
   This run was terminated on:  10:50:22   5Mar2026            

=------------------------------------------------------------------------------=
   JOB DONE.
=------------------------------------------------------------------------------=
