
     Program PWSCF v.7.5 starts on  7Mar2026 at  4:32:58 

     This program is part of the open-source Quantum ESPRESSO suite
     for quantum simulation of materials; please cite
         "P. Giannozzi et al., J. Phys.:Condens. Matter 21 395502 (2009);
         "P. Giannozzi et al., J. Phys.:Condens. Matter 29 465901 (2017);
         "P. Giannozzi et al., J. Chem. Phys. 152 154105 (2020);
          URL http://www.quantum-espresso.org", 
     in publications or presentations arising from this work. More details at
     http://www.quantum-espresso.org/quote

     Parallel version (MPI), running on    80 processors

     MPI processes distributed on     4 nodes
     82570 MiB available memory on the printing compute node when the environment starts
 
     Reading input from NaphthaleneOnGlassSite2Snapshot20.in
Warning: card &CELL ignored
Warning: card &FCP ignored
Warning: card &RISM ignored

     Current dimensions of program PWSCF are:
     Max number of different atomic species (ntypx) = 10
     Max number of k-points (npk) =  40000
     Max angular momentum in pseudopotentials (lmaxx) =  4
     file Na.paw.z_9.ld1.psl.v1.0.0-low.upf: wavefunction(s)  2P renormalized
     file O.pbe-n-kjpaw_psl.0.1.UPF: wavefunction(s)  2P renormalized
     file Al.pbe-n-kjpaw_psl.1.0.0.UPF: wavefunction(s)  3S 3P renormalized
     file C.pbe-n-kjpaw_psl.1.0.0.UPF: wavefunction(s)  2S 2P renormalized
 
     R & G space division:  proc/nbgrp/npool/nimage =      80
     Subspace diagonalization in iterative solution of the eigenvalue problem:
     one sub-group per band group will be used
     custom distributed-memory algorithm (size of sub-group:  8*  8 procs)

 
     Parallelization info
     --------------------
     sticks:   dense  smooth     PW     G-vecs:    dense   smooth      PW
     Min         450     400    100               199276   167008   20874
     Max         451     401    101               199303   167021   20885
     Sum       36073   32057   8021             15943719 13361281 1670237
 
     Using Slab Decomposition
 


     bravais-lattice index     =            0
     lattice parameter (alat)  =      35.4885  a.u.
     unit-cell volume          =  138228.4306 (a.u.)^3
     number of atoms/cell      =          358
     number of atomic types    =            7
     number of electrons       =      1872.00
     number of Kohn-Sham states=         1123
     kinetic-energy cutoff     =      80.0000  Ry
     charge density cutoff     =     360.0000  Ry
     scf convergence threshold =      1.0E-08
     mixing beta               =       0.1000
     number of iterations used =            8  plain     mixing
     Exchange-correlation= PBE
                           (   1   4   3   4   0   0   0)

     celldm(1)=  35.488539  celldm(2)=   0.000000  celldm(3)=   0.000000
     celldm(4)=   0.000000  celldm(5)=   0.000000  celldm(6)=   0.000000

     crystal axes: (cart. coord. in units of alat)
               a(1) = (   1.000000   0.000000   0.000000 )  
               a(2) = (   0.000000   1.000000   0.000000 )  
               a(3) = (   0.000000   0.000000   3.092666 )  

     reciprocal axes: (cart. coord. in units 2 pi/alat)
               b(1) = (  1.000000  0.000000  0.000000 )  
               b(2) = (  0.000000  1.000000  0.000000 )  
               b(3) = (  0.000000  0.000000  0.323346 )  


     PseudoPot. # 1 for Na read from file:
     /home/sabeel/VOCC_Simulation/pseudopotentials/SSSP_Precision/Na.paw.z_9.ld1.psl.v1.0.0-low.upf
     MD5 check sum: 32bccecb13d7399e6c7dae6fe6685ff0
     Pseudo is Projector augmented-wave + core cor, Zval =  9.0
     Generated using &quot;atomic&quot; code by A. Dal Corso  v.6.3MaX
     Shape of augmentation charge: PSQ
     Using radial grid of 1121 points,  4 beta functions with: 
                l(1) =   0
                l(2) =   0
                l(3) =   1
                l(4) =   1
     Q(r) pseudized with 0 coefficients 


     PseudoPot. # 2 for B  read from file:
     /home/sabeel/VOCC_Simulation/pseudopotentials/SSSP_Precision/B_pbe_v1.01.uspp.F.UPF
     MD5 check sum: d081ebb89d0c768e112975f650467a00
     Pseudo is Ultrasoft + core correction, Zval =  3.0
     Generated by new atomic code, or converted to UPF format
     Using radial grid of  781 points,  4 beta functions with: 
                l(1) =   0
                l(2) =   0
                l(3) =   1
                l(4) =   1
     Q(r) pseudized with  8 coefficients,  rinner =    1.100   1.100   1.100


     PseudoPot. # 3 for Si read from file:
     /home/sabeel/VOCC_Simulation/pseudopotentials/SSSP_Precision/Si.pbe-n-rrkjus_psl.1.0.0.UPF
     MD5 check sum: 0b0bb1205258b0d07b9f9672cf965d36
     Pseudo is Ultrasoft + core correction, Zval =  4.0
     Generated using "atomic" code by A. Dal Corso  v.5.1
     Using radial grid of 1141 points,  6 beta functions with: 
                l(1) =   0
                l(2) =   0
                l(3) =   1
                l(4) =   1
                l(5) =   2
                l(6) =   2
     Q(r) pseudized with 0 coefficients 


     PseudoPot. # 4 for O  read from file:
     /home/sabeel/VOCC_Simulation/pseudopotentials/SSSP_Precision/O.pbe-n-kjpaw_psl.0.1.UPF
     MD5 check sum: 0234752ac141de4415c5fc33072bef88
     Pseudo is Projector augmented-wave + core cor, Zval =  6.0
     Generated using "atomic" code by A. Dal Corso  v.5.0.99 svn rev. 10869
     Shape of augmentation charge: BESSEL
     Using radial grid of 1095 points,  4 beta functions with: 
                l(1) =   0
                l(2) =   0
                l(3) =   1
                l(4) =   1
     Q(r) pseudized with 0 coefficients 


     PseudoPot. # 5 for Al read from file:
     /home/sabeel/VOCC_Simulation/pseudopotentials/SSSP_Precision/Al.pbe-n-kjpaw_psl.1.0.0.UPF
     MD5 check sum: cfc449ca30b5f3223ec38ddd88ac046d
     Pseudo is Projector augmented-wave + core cor, Zval =  3.0
     Generated using "atomic" code by A. Dal Corso  v.5.1
     Shape of augmentation charge: PSQ
     Using radial grid of 1135 points,  6 beta functions with: 
                l(1) =   0
                l(2) =   0
                l(3) =   1
                l(4) =   1
                l(5) =   2
                l(6) =   2
     Q(r) pseudized with 0 coefficients 


     PseudoPot. # 6 for C  read from file:
     /home/sabeel/VOCC_Simulation/pseudopotentials/SSSP_Precision/C.pbe-n-kjpaw_psl.1.0.0.UPF
     MD5 check sum: 5d2aebdfa2cae82b50a7e79e9516da0f
     Pseudo is Projector augmented-wave + core cor, Zval =  4.0
     Generated using "atomic" code by A. Dal Corso  v.5.1
     Shape of augmentation charge: PSQ
     Using radial grid of 1073 points,  4 beta functions with: 
                l(1) =   0
                l(2) =   0
                l(3) =   1
                l(4) =   1
     Q(r) pseudized with 0 coefficients 


     PseudoPot. # 7 for H  read from file:
     /home/sabeel/VOCC_Simulation/pseudopotentials/SSSP_Precision/H_ONCV_PBE-1.0.oncvpsp.upf
     MD5 check sum: 1790becc920ee074925cf490c71280fe
     Pseudo is Norm-conserving, Zval =  1.0
     Generated using ONCVPSP code by D. R. Hamann
     Using radial grid of 1166 points,  2 beta functions with: 
                l(1) =   0
                l(2) =   0

     atomic species   valence    mass     pseudopotential
     Na                9.00    22.98977     Na( 1.00)
     B                 3.00    10.81000     B ( 1.00)
     Si                4.00    28.08500     Si( 1.00)
     O                 6.00    15.99900     O ( 1.00)
     Al                3.00    26.98154     Al( 1.00)
     C                 4.00    12.01100     C ( 1.00)
     H                 1.00     1.00800     H ( 1.00)

     No symmetry found



   Cartesian axes

     site n.     atom                  positions (alat units)
         1        Na     tau(   1) = (   0.2476327   0.1287261   1.4401902  )
         2        Na     tau(   2) = (   0.2347070   0.3964799   1.8357059  )
         3        Na     tau(   3) = (   0.2580766   0.4457236   1.6551511  )
         4        Na     tau(   4) = (   0.0484944   0.0277893   1.6277847  )
         5        Na     tau(   5) = (   0.2352313   0.0813062   1.2863150  )
         6        Na     tau(   6) = (   0.0747243   0.2371463   1.1982473  )
         7        Na     tau(   7) = (   0.1133306   0.7698962   1.8611434  )
         8        Na     tau(   8) = (   0.9037110   0.1954209   1.2700780  )
         9        Na     tau(   9) = (   0.5181841   0.1014052   1.4940734  )
        10        Na     tau(  10) = (   0.3803624   0.0140251   1.8302637  )
        11        Na     tau(  11) = (   0.3545179   0.4989222   1.3772145  )
        12        B      tau(  12) = (   0.9565860   0.6559989   1.4661680  )
        13        B      tau(  13) = (   0.3779039   0.3190213   1.8506233  )
        14        B      tau(  14) = (   0.6357433   0.7757670   1.3375748  )
        15        B      tau(  15) = (   0.9958362   0.0827877   1.8476266  )
        16        B      tau(  16) = (   0.6987179   0.5586979   1.3943070  )
        17        B      tau(  17) = (   0.0903279   0.5997535   1.2200041  )
        18        B      tau(  18) = (   0.9460845   0.5017876   1.4754679  )
        19        B      tau(  19) = (   0.0032347   0.0527127   1.2839437  )
        20        B      tau(  20) = (   0.1241012   0.5940167   1.6016841  )
        21        B      tau(  21) = (   0.4174729   0.9198072   1.5541475  )
        22        B      tau(  22) = (   0.4638227   0.9107282   1.2322731  )
        23        B      tau(  23) = (   0.5096053   0.7092947   1.5000083  )
        24        B      tau(  24) = (   0.4035376   0.9367665   1.6900270  )
        25        B      tau(  25) = (   0.7132674   0.8560217   1.2558196  )
        26        B      tau(  26) = (   0.2579773   0.4217781   1.2874388  )
        27        B      tau(  27) = (   0.1862793   0.2338812   1.3576537  )
        28        B      tau(  28) = (   0.2134919   0.3664862   1.5073156  )
        29        B      tau(  29) = (   0.3546252   0.0462610   1.5293894  )
        30        B      tau(  30) = (   0.8082206   0.9504483   1.6218439  )
        31        B      tau(  31) = (   0.4915043   0.5408159   1.2913026  )
        32        B      tau(  32) = (   0.2471486   0.9450605   1.4099193  )
        33        B      tau(  33) = (   0.7089246   0.1566090   1.6669558  )
        34        B      tau(  34) = (   0.4858908   0.1745693   1.3498737  )
        35        Si     tau(  35) = (   0.5740761   0.3686341   1.4981594  )
        36        Si     tau(  36) = (   0.9600416   0.6521543   1.2713743  )
        37        Si     tau(  37) = (   0.8029666   0.9237355   1.4090604  )
        38        Si     tau(  38) = (   0.6589027   0.0111466   1.4303706  )
        39        Si     tau(  39) = (   0.7148031   0.8518694   1.6658713  )
        40        Si     tau(  40) = (   0.4062844   0.4370669   1.7000479  )
        41        Si     tau(  41) = (   0.8652299   0.0194200   1.2866760  )
        42        Si     tau(  42) = (   0.8792462   0.4724358   1.3313926  )
        43        Si     tau(  43) = (   0.9761010   0.8191325   1.3004490  )
        44        Si     tau(  44) = (   0.0927580   0.6000365   1.4532062  )
        45        Si     tau(  45) = (   0.8492038   0.6801733   1.8429896  )
        46        Si     tau(  46) = (   0.7648638   0.9759642   1.8781504  )
        47        Si     tau(  47) = (   0.8282769   0.9005504   1.7531841  )
        48        Si     tau(  48) = (   0.2400871   0.2615564   1.6009290  )
        49        Si     tau(  49) = (   0.0782160   0.8578516   1.7113893  )
        50        Si     tau(  50) = (   0.1793983   0.5421597   1.3229395  )
        51        Si     tau(  51) = (   0.3045589   0.3154693   1.3856788  )
        52        Si     tau(  52) = (   0.1868342   0.9496617   1.8144358  )
        53        Si     tau(  53) = (   0.5597482   0.9942014   1.8563540  )
        54        Si     tau(  54) = (   0.3283405   0.8654915   1.7979255  )
        55        Si     tau(  55) = (   0.3944303   0.1342286   1.2558232  )
        56        Si     tau(  56) = (   0.5556116   0.4029995   1.7688172  )
        57        Si     tau(  57) = (   0.8886951   0.0519111   1.5515978  )
        58        Si     tau(  58) = (   0.9177874   0.8266438   1.8602018  )
        59        Si     tau(  59) = (   0.5141592   0.7513592   1.7304853  )
        60        Si     tau(  60) = (   0.6200680   0.7296116   1.5975635  )
        61        Si     tau(  61) = (   0.4531771   0.2653855   1.4551164  )
        62        Si     tau(  62) = (   0.9530092   0.1910999   1.6203079  )
        63        Si     tau(  63) = (   0.9806318   0.2594417   1.4695044  )
        64        Si     tau(  64) = (   0.1810221   0.5658568   1.7318917  )
        65        Si     tau(  65) = (   0.2276537   0.6624309   1.2309086  )
        66        Si     tau(  66) = (   0.7086066   0.3068958   1.4624957  )
        67        Si     tau(  67) = (   0.7573617   0.5008676   1.2102682  )
        68        Si     tau(  68) = (   0.0630774   0.5052222   1.8068999  )
        69        Si     tau(  69) = (   0.9531780   0.4208941   1.7332624  )
        70        Si     tau(  70) = (   0.8429520   0.6341042   1.3864806  )
        71        Si     tau(  71) = (   0.8255070   0.2513717   1.7092992  )
        72        Si     tau(  72) = (   0.4660404   0.3166643   1.5999861  )
        73        Si     tau(  73) = (   0.3218087   0.1696541   1.7095271  )
        74        Si     tau(  74) = (   0.6054871   0.0864265   1.2929813  )
        75        Si     tau(  75) = (   0.4402609   0.0821865   1.6559030  )
        76        Si     tau(  76) = (   0.3770531   0.0317907   1.3941734  )
        77        Si     tau(  77) = (   0.5059912   0.8072476   1.3243503  )
        78        Si     tau(  78) = (   0.6069382   0.5044701   1.6609957  )
        79        Si     tau(  79) = (   0.6370349   0.4244534   1.3741369  )
        80        Si     tau(  80) = (   0.6855674   0.7078304   1.8645318  )
        81        Si     tau(  81) = (   0.0765130   0.9298841   1.2314627  )
        82        Si     tau(  82) = (   0.9863684   0.4054382   1.2235204  )
        83        Si     tau(  83) = (   0.4950631   0.2585395   1.7548401  )
        84        Si     tau(  84) = (   0.5719431   0.1160579   1.7357262  )
        85        Si     tau(  85) = (   0.3566442   0.7389475   1.7027041  )
        86        Si     tau(  86) = (   0.5887626   0.6478135   1.7482870  )
        87        Si     tau(  87) = (   0.3778403   0.4701707   1.1981005  )
        88        Si     tau(  88) = (   0.7705746   0.7745811   1.3546535  )
        89        Si     tau(  89) = (   0.6353056   0.3899359   1.2194797  )
        90        Si     tau(  90) = (   0.3199297   0.6027545   1.8036004  )
        91        Si     tau(  91) = (   0.6901246   0.5787282   1.5496775  )
        92        Si     tau(  92) = (   0.1108815   0.9857043   1.4484254  )
        93        Si     tau(  93) = (   0.0087222   0.8101075   1.4596435  )
        94        Si     tau(  94) = (   0.4662737   0.5842118   1.4387730  )
        95        Si     tau(  95) = (   0.1497603   0.1150345   1.8191784  )
        96        Si     tau(  96) = (   0.9119816   0.9073773   1.5284091  )
        97        Si     tau(  97) = (   0.5081777   0.9347421   1.4393654  )
        98        Si     tau(  98) = (   0.9733658   0.9480751   1.7929925  )
        99        Si     tau(  99) = (   0.2449909   0.7736475   1.5958723  )
       100        Si     tau( 100) = (   0.2568298   0.7840856   1.3334763  )
       101        Si     tau( 101) = (   0.1600543   0.7576293   1.4557816  )
       102        Si     tau( 102) = (   0.9190690   0.2974838   1.8287833  )
       103        Si     tau( 103) = (   0.8499270   0.3745654   1.6104514  )
       104        Si     tau( 104) = (   0.8444491   0.5369054   1.7673517  )
       105        Si     tau( 105) = (   0.1203187   0.1732756   1.6597012  )
       106        Si     tau( 106) = (   0.6321686   0.6005607   1.2681838  )
       107        Si     tau( 107) = (   0.6235724   0.8470731   1.8048529  )
       108        Si     tau( 108) = (   0.7501132   0.1202716   1.2309056  )
       109        Si     tau( 109) = (   0.2746484   0.2046900   1.8670863  )
       110        Si     tau( 110) = (   0.2273259   0.0646953   1.6216725  )
       111        Si     tau( 111) = (   0.0729274   0.4042159   1.4579120  )
       112        Si     tau( 112) = (   0.6640697   0.1601480   1.5162335  )
       113        Si     tau( 113) = (   0.1226817   0.7031938   1.6887692  )
       114        Si     tau( 114) = (   0.8406300   0.5276586   1.5875131  )
       115        Si     tau( 115) = (   0.8389500   0.3149315   1.3901795  )
       116        Si     tau( 116) = (   0.1722727   0.9211130   1.5953570  )
       117        Si     tau( 117) = (   0.0763504   0.1375521   1.3930086  )
       118        Si     tau( 118) = (   0.3256209   0.9115638   1.2548481  )
       119        Si     tau( 119) = (   0.3955849   0.7224945   1.4035300  )
       120        Si     tau( 120) = (   0.4652418   0.5499611   1.5942954  )
       121        Si     tau( 121) = (   0.1212618   0.3651412   1.3045003  )
       122        O      tau( 122) = (   0.0295168   0.4481121   1.8630498  )
       123        O      tau( 123) = (   0.8632305   0.7660730   1.8351295  )
       124        O      tau( 124) = (   0.7865379   0.5198677   1.8292109  )
       125        O      tau( 125) = (   0.7687039   0.8065522   1.2712216  )
       126        O      tau( 126) = (   0.2613316   0.2462125   1.3627201  )
       127        O      tau( 127) = (   0.4383841   0.2721051   1.5384261  )
       128        O      tau( 128) = (   0.4075804   0.9041606   1.6244717  )
       129        O      tau( 129) = (   0.2891632   0.9821156   1.2266374  )
       130        O      tau( 130) = (   0.3003666   0.1796727   1.7902854  )
       131        O      tau( 131) = (   0.5973279   0.4225163   1.2949590  )
       132        O      tau( 132) = (   0.5334428   0.5020140   1.6146071  )
       133        O      tau( 133) = (   0.2755656   0.1058719   1.6786020  )
       134        O      tau( 134) = (   0.1545595   0.1075181   1.6150265  )
       135        O      tau( 135) = (   0.1198242   0.5723265   1.5291309  )
       136        O      tau( 136) = (   0.5826608   0.7211316   1.6806210  )
       137        O      tau( 137) = (   0.4384820   0.7620469   1.6969890  )
       138        O      tau( 138) = (   0.3813441   0.2977472   1.4178316  )
       139        O      tau( 139) = (   0.9518571   0.2429557   1.5505285  )
       140        O      tau( 140) = (   0.6668767   0.5177678   1.6031137  )
       141        O      tau( 141) = (   0.1520770   0.1695411   1.3620472  )
       142        O      tau( 142) = (   0.6925009   0.7509516   1.3753791  )
       143        O      tau( 143) = (   0.1434568   0.6580895   1.2139172  )
       144        O      tau( 144) = (   0.4761486   0.9028411   1.5138988  )
       145        O      tau( 145) = (   0.0631356   0.5782061   1.8492954  )
       146        O      tau( 146) = (   0.5876332   0.4146284   1.8503125  )
       147        O      tau( 147) = (   0.1071621   0.8902567   1.6361869  )
       148        O      tau( 148) = (   0.0331486   0.1967754   1.4407710  )
       149        O      tau( 149) = (   0.9443941   0.9810288   1.5588672  )
       150        O      tau( 150) = (   0.5485694   0.5774714   1.2625723  )
       151        O      tau( 151) = (   0.6090489   0.9225244   1.8421140  )
       152        O      tau( 152) = (   0.3184350   0.7927686   1.7545505  )
       153        O      tau( 153) = (   0.2965868   0.2359092   1.6579206  )
       154        O      tau( 154) = (   0.3399948   0.4149078   1.7451441  )
       155        O      tau( 155) = (   0.6583099   0.3076783   1.2358723  )
       156        O      tau( 156) = (   0.5620926   0.7442927   1.5385442  )
       157        O      tau( 157) = (   0.5556976   0.3175372   1.7688381  )
       158        O      tau( 158) = (   0.3525972   0.6632019   1.7471104  )
       159        O      tau( 159) = (   0.9620412   0.3446718   1.7697440  )
       160        O      tau( 160) = (   0.5313272   0.1848172   1.7709556  )
       161        O      tau( 161) = (   0.9429693   0.0183272   1.3239474  )
       162        O      tau( 162) = (   0.4858005   0.9533180   1.8755890  )
       163        O      tau( 163) = (   0.3657073   0.5328581   1.8345358  )
       164        O      tau( 164) = (   0.4406081   0.5066782   1.2484323  )
       165        O      tau( 165) = (   0.3135028   0.2834622   1.8690668  )
       166        O      tau( 166) = (   0.7907911   0.8360261   1.7119523  )
       167        O      tau( 167) = (   0.7289290   0.9234833   1.2340123  )
       168        O      tau( 168) = (   0.1454692   0.2885690   1.3267456  )
       169        O      tau( 169) = (   0.3914991   0.9066251   1.7575926  )
       170        O      tau( 170) = (   0.7079875   0.2222935   1.4707635  )
       171        O      tau( 171) = (   0.9743698   0.8515159   1.5269402  )
       172        O      tau( 172) = (   0.1330105   0.5361140   1.2470617  )
       173        O      tau( 173) = (   0.5827735   0.0420994   1.2254729  )
       174        O      tau( 174) = (   0.8602910   0.6220068   1.7811976  )
       175        O      tau( 175) = (   0.5252483   0.6418342   1.4684534  )
       176        O      tau( 176) = (   0.6556139   0.6691234   1.7930720  )
       177        O      tau( 177) = (   0.9478947   0.4555202   1.2814895  )
       178        O      tau( 178) = (   0.9699578   0.0766966   1.2188133  )
       179        O      tau( 179) = (   0.5480526   0.8088247   1.7836236  )
       180        O      tau( 180) = (   0.3152477   0.7447790   1.3880620  )
       181        O      tau( 181) = (   0.1477991   0.6460434   1.7450578  )
       182        O      tau( 182) = (   0.4226375   0.0083615   1.6949577  )
       183        O      tau( 183) = (   0.5004654   0.8461638   1.2447985  )
       184        O      tau( 184) = (   0.7864920   0.8423242   1.4036977  )
       185        O      tau( 185) = (   0.9046070   0.6136339   1.3286598  )
       186        O      tau( 186) = (   0.1308852   0.5564651   1.3912596  )
       187        O      tau( 187) = (   0.0181193   0.9388870   1.8632981  )
       188        O      tau( 188) = (   0.5236768   0.3172741   1.4469420  )
       189        O      tau( 189) = (   0.6771903   0.1363695   1.2729556  )
       190        O      tau( 190) = (   0.5668565   0.7520726   1.3411952  )
       191        O      tau( 191) = (   0.4390184   0.1054952   1.8920128  )
       192        O      tau( 192) = (   0.2801127   0.0556319   1.5537880  )
       193        O      tau( 193) = (   0.9517833   0.2240015   1.8530263  )
       194        O      tau( 194) = (   0.4078786   0.5134087   1.6517908  )
       195        O      tau( 195) = (   0.6735166   0.7941076   1.8547702  )
       196        O      tau( 196) = (   0.7896414   0.2674110   1.3392843  )
       197        O      tau( 197) = (   0.9136500   0.5214282   1.5392122  )
       198        O      tau( 198) = (   0.5881526   0.4350093   1.4460280  )
       199        O      tau( 199) = (   0.7745755   0.5842257   1.3844862  )
       200        O      tau( 200) = (   0.2034896   0.9862494   1.6415920  )
       201        O      tau( 201) = (   0.1233221   0.6813655   1.4530684  )
       202        O      tau( 202) = (   0.7937827   0.3272627   1.4639956  )
       203        O      tau( 203) = (   0.4473563   0.5396589   1.5104804  )
       204        O      tau( 204) = (   0.6542799   0.3403998   1.5182787  )
       205        O      tau( 205) = (   0.8234572   0.7113307   1.3622509  )
       206        O      tau( 206) = (   0.8127487   0.4431771   1.5824090  )
       207        O      tau( 207) = (   0.5134106   0.6764784   1.7758121  )
       208        O      tau( 208) = (   0.1836556   0.7783442   1.3761575  )
       209        O      tau( 209) = (   0.8104766   0.3105590   1.6473803  )
       210        O      tau( 210) = (   0.3044033   0.9850075   1.3843284  )
       211        O      tau( 211) = (   0.1301504   0.8965179   1.7717389  )
       212        O      tau( 212) = (   0.3197141   0.1653364   1.2298596  )
       213        O      tau( 213) = (   0.4699233   0.1934200   1.4196372  )
       214        O      tau( 214) = (   0.2809558   0.8612246   1.3097159  )
       215        O      tau( 215) = (   0.4264163   0.2824703   1.8051299  )
       216        O      tau( 216) = (   0.6599679   0.6539216   1.5790006  )
       217        O      tau( 217) = (   0.7349642   0.9291111   1.6364595  )
       218        O      tau( 218) = (   0.0099961   0.4612132   1.4800917  )
       219        O      tau( 219) = (   0.5892025   0.1978638   1.5290320  )
       220        O      tau( 220) = (   0.0485841   0.8646896   1.2765110  )
       221        O      tau( 221) = (   0.9732948   0.8322736   1.3845405  )
       222        O      tau( 222) = (   0.4005127   0.1467648   1.7001924  )
       223        O      tau( 223) = (   0.8561165   0.3880932   1.3551362  )
       224        O      tau( 224) = (   0.1908703   0.7320545   1.6493092  )
       225        O      tau( 225) = (   0.5316561   0.3624401   1.5720686  )
       226        O      tau( 226) = (   0.6407674   0.0341441   1.3503554  )
       227        O      tau( 227) = (   0.2507360   0.3493753   1.4464087  )
       228        O      tau( 228) = (   0.5138994   0.8709061   1.3834646  )
       229        O      tau( 229) = (   0.9079300   0.5013233   1.4088368  )
       230        O      tau( 230) = (   0.4395504   0.1937154   1.2966161  )
       231        O      tau( 231) = (   0.2308999   0.6103161   1.2990312  )
       232        O      tau( 232) = (   0.3685013   0.9700313   1.5258447  )
       233        O      tau( 233) = (   0.8514985   0.9494698   1.6877232  )
       234        O      tau( 234) = (   0.0187499   0.4824011   1.7364241  )
       235        O      tau( 235) = (   0.2414021   0.3421124   1.5740169  )
       236        O      tau( 236) = (   0.6097970   0.4413714   1.7163163  )
       237        O      tau( 237) = (   0.4788214   0.4352721   1.7472383  )
       238        O      tau( 238) = (   0.1395403   0.9630524   1.5257738  )
       239        O      tau( 239) = (   0.3787358   0.0784353   1.3203646  )
       240        O      tau( 240) = (   0.5839692   0.9685892   1.4551464  )
       241        O      tau( 241) = (   0.9110607   0.6557788   1.2003494  )
       242        O      tau( 242) = (   0.0686474   0.1043740   1.8437037  )
       243        O      tau( 243) = (   0.1460976   0.3999842   1.5060950  )
       244        O      tau( 244) = (   0.4166165   0.3782170   1.6358330  )
       245        O      tau( 245) = (   0.0075933   0.9084354   1.7265037  )
       246        O      tau( 246) = (   0.8482460   0.9888286   1.2074661  )
       247        O      tau( 247) = (   0.6787187   0.3475581   1.3906861  )
       248        O      tau( 248) = (   0.2793975   0.6318760   1.8700688  )
       249        O      tau( 249) = (   0.1753735   0.9662414   1.3957977  )
       250        O      tau( 250) = (   0.0079684   0.6039592   1.4520956  )
       251        O      tau( 251) = (   0.6799702   0.7916690   1.6137563  )
       252        O      tau( 252) = (   0.8228944   0.4963375   1.2716413  )
       253        O      tau( 253) = (   0.1652982   0.5553089   1.6491463  )
       254        O      tau( 254) = (   0.6527640   0.8346788   1.2935381  )
       255        O      tau( 255) = (   0.0358116   0.1810737   1.6422342  )
       256        O      tau( 256) = (   0.5638762   0.0484964   1.7892635  )
       257        O      tau( 257) = (   0.7314789   0.9670683   1.4359075  )
       258        O      tau( 258) = (   0.2559548   0.8899428   1.4535926  )
       259        O      tau( 259) = (   0.7774448   0.5773609   1.5598674  )
       260        O      tau( 260) = (   0.0868638   0.6515873   1.6288983  )
       261        O      tau( 261) = (   0.2614827   0.9212168   1.7891965  )
       262        O      tau( 262) = (   0.1954831   0.1735609   1.8664394  )
       263        O      tau( 263) = (   0.9906684   0.7948073   1.8435173  )
       264        O      tau( 264) = (   0.4575167   0.9955248   1.4051103  )
       265        O      tau( 265) = (   0.7735858   0.2011661   1.2118609  )
       266        O      tau( 266) = (   0.8814090   0.9281431   1.4499689  )
       267        O      tau( 267) = (   0.4072071   0.9256292   1.2771435  )
       268        O      tau( 268) = (   0.8399764   0.8937974   1.5751596  )
       269        O      tau( 269) = (   0.9802476   0.7272430   1.4739436  )
       270        O      tau( 270) = (   0.4029974   0.6353892   1.4077172  )
       271        O      tau( 271) = (   0.5236271   0.0940762   1.6637713  )
       272        O      tau( 272) = (   0.2291142   0.8566340   1.6031926  )
       273        O      tau( 273) = (   0.1369597   0.1529802   1.7410824  )
       274        O      tau( 274) = (   0.8956842   0.4684356   1.7728116  )
       275        O      tau( 275) = (   0.0304714   0.3296381   1.4668483  )
       276        O      tau( 276) = (   0.9261533   0.1126670   1.5937994  )
       277        O      tau( 277) = (   0.3196110   0.7473434   1.6269653  )
       278        O      tau( 278) = (   0.2346612   0.4755155   1.3381933  )
       279        O      tau( 279) = (   0.0309321   0.9618656   1.4299785  )
       280        O      tau( 280) = (   0.1026240   0.4047238   1.3770124  )
       281        O      tau( 281) = (   0.0996948   0.0720356   1.4419196  )
       282        O      tau( 282) = (   0.9796419   0.7336502   1.2951357  )
       283        O      tau( 283) = (   0.4798587   0.2721799   1.6719849  )
       284        O      tau( 284) = (   0.1447462   0.5042309   1.7791641  )
       285        O      tau( 285) = (   0.6584207   0.0850578   1.4744274  )
       286        O      tau( 286) = (   0.8447302   0.2856675   1.7867899  )
       287        O      tau( 287) = (   0.9236456   0.3532967   1.8933803  )
       288        O      tau( 288) = (   0.7131244   0.4260542   1.2089447  )
       289        O      tau( 289) = (   0.1815374   0.0351118   1.8104616  )
       290        O      tau( 290) = (   0.0329975   0.6097415   1.2681351  )
       291        O      tau( 291) = (   0.8998275   0.8951096   1.8045433  )
       292        O      tau( 292) = (   0.3016404   0.4593341   1.2337882  )
       293        O      tau( 293) = (   0.2631331   0.5633327   1.7490475  )
       294        O      tau( 294) = (   0.7023044   0.1539457   1.5910141  )
       295        O      tau( 295) = (   0.5450848   0.1349270   1.3303906  )
       296        O      tau( 296) = (   0.1632620   0.2443342   1.6379519  )
       297        O      tau( 297) = (   0.1916640   0.3894955   1.2601897  )
       298        O      tau( 298) = (   0.0615898   0.0043928   1.2718305  )
       299        O      tau( 299) = (   0.3967139   0.3875856   1.8762703  )
       300        O      tau( 300) = (   0.4846187   0.5410669   1.3666698  )
       301        O      tau( 301) = (   0.8186424   0.0168112   1.5820830  )
       302        O      tau( 302) = (   0.5974300   0.5762403   1.7036424  )
       303        O      tau( 303) = (   0.4323575   0.7667648   1.3386386  )
       304        O      tau( 304) = (   0.7719883   0.9374236   1.8028857  )
       305        O      tau( 305) = (   0.7672182   0.1900179   1.6976508  )
       306        O      tau( 306) = (   0.8994379   0.0650389   1.4672678  )
       307        O      tau( 307) = (   0.4462121   0.7426137   1.4731770  )
       308        O      tau( 308) = (   0.9211726   0.3961581   1.6533343  )
       309        O      tau( 309) = (   0.2420202   0.2200105   1.5251544  )
       310        O      tau( 310) = (   0.8842963   0.6436934   1.4589679  )
       311        O      tau( 311) = (   0.6482991   0.6785877   1.2330670  )
       312        O      tau( 312) = (   0.4832983   0.6325017   1.6039613  )
       313        O      tau( 313) = (   0.7361349   0.0571749   1.8732737  )
       314        O      tau( 314) = (   0.6649925   0.8590630   1.7336776  )
       315        O      tau( 315) = (   0.9130296   0.2721061   1.4159943  )
       316        O      tau( 316) = (   0.6511009   0.5989696   1.3506902  )
       317        O      tau( 317) = (   0.8131240   0.0898692   1.2825970  )
       318        O      tau( 318) = (   0.6524595   0.1336951   1.7108949  )
       319        O      tau( 319) = (   0.6784211   0.5695802   1.4690337  )
       320        O      tau( 320) = (   0.9018920   0.2183548   1.6834522  )
       321        O      tau( 321) = (   0.9678130   0.0358255   1.7940055  )
       322        O      tau( 322) = (   0.8368182   0.5391156   1.6776043  )
       323        O      tau( 323) = (   0.7668768   0.6856661   1.8697035  )
       324        O      tau( 324) = (   0.1531671   0.9301796   1.8945654  )
       325        O      tau( 325) = (   0.2178402   0.7542098   1.5177838  )
       326        O      tau( 326) = (   0.3614324   0.0782581   1.4600024  )
       327        O      tau( 327) = (   0.4053368   0.0766386   1.5793453  )
       328        O      tau( 328) = (   0.3320739   0.8564650   1.8828345  )
       329        O      tau( 329) = (   0.0914304   0.8126101   1.4681485  )
       330        O      tau( 330) = (   0.2416337   0.7445048   1.2588964  )
       331        O      tau( 331) = (   0.8232583   0.9617889   1.3373563  )
       332        O      tau( 332) = (   0.0224173   0.1103921   1.3331986  )
       333        O      tau( 333) = (   0.0827261   0.7743688   1.7158336  )
       334        O      tau( 334) = (   0.3058372   0.3697607   1.3216954  )
       335        O      tau( 335) = (   0.6940744   0.4843818   1.3763524  )
       336        O      tau( 336) = (   0.0505520   0.3569640   1.2588409  )
       337        O      tau( 337) = (   0.6956442   0.5556100   1.2255199  )
       338        O      tau( 338) = (   0.9205918   0.8444316   1.2442634  )
       339        Al     tau( 339) = (   0.9474166   0.9984982   1.4171699  )
       340        Al     tau( 340) = (   0.7317137   0.2651324   1.2660316  )
       341        C      tau( 341) = (   0.5214378   0.4015461   0.5817933  )
       342        C      tau( 342) = (   0.4479569   0.3909766   0.5688455  )
       343        C      tau( 343) = (   0.5653175   0.3422400   0.5940309  )
       344        C      tau( 344) = (   0.4205128   0.3214128   0.5685313  )
       345        C      tau( 345) = (   0.5488767   0.4711092   0.5821066  )
       346        C      tau( 346) = (   0.4040833   0.4502831   0.5566036  )
       347        C      tau( 347) = (   0.5371518   0.2734980   0.5935151  )
       348        C      tau( 348) = (   0.4648892   0.2631047   0.5807926  )
       349        C      tau( 349) = (   0.5045065   0.5294176   0.5698410  )
       350        C      tau( 350) = (   0.4322510   0.5190244   0.5571089  )
       351        H      tau( 351) = (   0.6219558   0.3491057   0.6040895  )
       352        H      tau( 352) = (   0.3641909   0.3120316   0.5586992  )
       353        H      tau( 353) = (   0.6051969   0.4804959   0.5919434  )
       354        H      tau( 354) = (   0.3474366   0.4434151   0.5465327  )
       355        H      tau( 355) = (   0.5716658   0.2280845   0.6030601  )
       356        H      tau( 356) = (   0.4429953   0.2095720   0.5803972  )
       357        H      tau( 357) = (   0.5264020   0.5829447   0.5702316  )
       358        H      tau( 358) = (   0.3977363   0.5644431   0.5475635  )

     number of k points=     1  Gaussian smearing, width (Ry)=  0.0100
                       cart. coord. in units 2pi/alat
        k(    1) = (   0.0000000   0.0000000   0.0000000), wk =   2.0000000

     Dense  grid: 15943719 G-vectors     FFT dimensions: ( 216, 216, 675)

     Smooth grid: 13361281 G-vectors     FFT dimensions: ( 216, 216, 625)

     Estimated max dynamical RAM per process >       4.14 GB

     Estimated total dynamical RAM >     331.13 GB

     Check: negative core charge=   -0.000001

     Initial potential from superposition of free atoms

     starting charge    1871.8703, renormalised to    1872.0000

     negative rho (up, down):  4.150E-02 0.000E+00
     Starting wfcs are 1419 randomized atomic wfcs
     Checking if some PAW data can be deallocated... 

     total cpu time spent up to now is      148.9 secs

     per-process dynamical memory:  1754.0 Mb

     Self-consistent Calculation

     iteration #  1     ecut=    80.00 Ry     beta= 0.10
     Davidson diagonalization with overlap
     ethr =  1.00E-02,  avg # of iterations =  3.0

     negative rho (up, down):  4.356E-02 0.000E+00

     total cpu time spent up to now is      640.7 secs

     total energy              =  -11693.37338924 Ry
     estimated scf accuracy    <     115.60857869 Ry

     iteration #  2     ecut=    80.00 Ry     beta= 0.10
     Davidson diagonalization with overlap
     ethr =  6.18E-03,  avg # of iterations =  1.0

     negative rho (up, down):  4.526E-02 0.000E+00

     total cpu time spent up to now is      927.8 secs

     total energy              =  -11688.10853797 Ry
     estimated scf accuracy    <      84.83811158 Ry

     iteration #  3     ecut=    80.00 Ry     beta= 0.10
     Davidson diagonalization with overlap
     ethr =  4.53E-03,  avg # of iterations =  1.0

     negative rho (up, down):  4.711E-02 0.000E+00

     total cpu time spent up to now is     1214.7 secs

     total energy              =  -11681.50143155 Ry
     estimated scf accuracy    <      59.19506192 Ry

     iteration #  4     ecut=    80.00 Ry     beta= 0.10
     Davidson diagonalization with overlap
     ethr =  3.16E-03,  avg # of iterations =  2.0

     negative rho (up, down):  4.820E-02 0.000E+00

     total cpu time spent up to now is     1538.9 secs

     total energy              =  -11682.82266442 Ry
     estimated scf accuracy    <      60.36778363 Ry

     iteration #  5     ecut=    80.00 Ry     beta= 0.10
     Davidson diagonalization with overlap
     ethr =  3.16E-03,  avg # of iterations =  1.0

     negative rho (up, down):  4.932E-02 0.000E+00

     total cpu time spent up to now is     1826.0 secs

     total energy              =  -11682.19833666 Ry
     estimated scf accuracy    <      39.48835302 Ry

     iteration #  6     ecut=    80.00 Ry     beta= 0.10
     Davidson diagonalization with overlap
     ethr =  2.11E-03,  avg # of iterations =  1.0

     negative rho (up, down):  5.018E-02 0.000E+00

     total cpu time spent up to now is     2113.2 secs

     total energy              =  -11682.42794403 Ry
     estimated scf accuracy    <      26.83457583 Ry

     iteration #  7     ecut=    80.00 Ry     beta= 0.10
     Davidson diagonalization with overlap
     ethr =  1.43E-03,  avg # of iterations =  2.0

     negative rho (up, down):  5.099E-02 0.000E+00

     total cpu time spent up to now is     2437.0 secs

     total energy              =  -11682.17328255 Ry
     estimated scf accuracy    <      34.79431354 Ry

     iteration #  8     ecut=    80.00 Ry     beta= 0.10
     Davidson diagonalization with overlap
     ethr =  1.43E-03,  avg # of iterations =  2.0

     negative rho (up, down):  5.158E-02 0.000E+00

     total cpu time spent up to now is     2759.8 secs

     total energy              =  -11682.31194200 Ry
     estimated scf accuracy    <      18.91704479 Ry

     iteration #  9     ecut=    80.00 Ry     beta= 0.10
     Davidson diagonalization with overlap
     ethr =  1.01E-03,  avg # of iterations =  2.0

     negative rho (up, down):  5.217E-02 0.000E+00

     total cpu time spent up to now is     3083.1 secs

     total energy              =  -11682.13435729 Ry
     estimated scf accuracy    <      18.49931827 Ry

     iteration # 10     ecut=    80.00 Ry     beta= 0.10
     Davidson diagonalization with overlap
     ethr =  9.88E-04,  avg # of iterations =  1.0

     negative rho (up, down):  5.269E-02 0.000E+00

     total cpu time spent up to now is     3370.1 secs

     total energy              =  -11682.15049203 Ry
     estimated scf accuracy    <      12.68432829 Ry

     iteration # 11     ecut=    80.00 Ry     beta= 0.10
     Davidson diagonalization with overlap
     ethr =  6.78E-04,  avg # of iterations =  2.0

     negative rho (up, down):  5.303E-02 0.000E+00

     total cpu time spent up to now is     3694.1 secs

     total energy              =  -11682.04687162 Ry
     estimated scf accuracy    <      21.70318958 Ry

     iteration # 12     ecut=    80.00 Ry     beta= 0.10
     Davidson diagonalization with overlap
     ethr =  6.78E-04,  avg # of iterations =  1.0

     negative rho (up, down):  5.332E-02 0.000E+00

     total cpu time spent up to now is     3982.1 secs

     total energy              =  -11682.31741708 Ry
     estimated scf accuracy    <       4.91562369 Ry

     iteration # 13     ecut=    80.00 Ry     beta= 0.10
     Davidson diagonalization with overlap
     ethr =  2.63E-04,  avg # of iterations = 16.0

     negative rho (up, down):  5.374E-02 0.000E+00

     total cpu time spent up to now is     4431.0 secs

     total energy              =  -11682.21319766 Ry
     estimated scf accuracy    <       5.67738101 Ry

     iteration # 14     ecut=    80.00 Ry     beta= 0.10
     Davidson diagonalization with overlap
     ethr =  2.63E-04,  avg # of iterations =  1.0

     negative rho (up, down):  5.430E-02 0.000E+00

     total cpu time spent up to now is     4718.7 secs

     total energy              =  -11682.09675907 Ry
     estimated scf accuracy    <       4.73460511 Ry

     iteration # 15     ecut=    80.00 Ry     beta= 0.10
     Davidson diagonalization with overlap
     ethr =  2.53E-04,  avg # of iterations =  1.0

     negative rho (up, down):  5.427E-02 0.000E+00

     total cpu time spent up to now is     5005.4 secs

     total energy              =  -11681.89480951 Ry
     estimated scf accuracy    <      18.81374054 Ry

     iteration # 16     ecut=    80.00 Ry     beta= 0.10
     Davidson diagonalization with overlap
     ethr =  2.53E-04,  avg # of iterations =  2.0

     negative rho (up, down):  5.464E-02 0.000E+00

     total cpu time spent up to now is     5329.5 secs

     total energy              =  -11682.13320593 Ry
     estimated scf accuracy    <       3.71707652 Ry

     iteration # 17     ecut=    80.00 Ry     beta= 0.10
     Davidson diagonalization with overlap
     ethr =  1.99E-04,  avg # of iterations =  1.0

     negative rho (up, down):  5.518E-02 0.000E+00

     total cpu time spent up to now is     5617.2 secs

     total energy              =  -11682.07263944 Ry
     estimated scf accuracy    <       3.42480045 Ry

     iteration # 18     ecut=    80.00 Ry     beta= 0.10
     Davidson diagonalization with overlap
     ethr =  1.83E-04,  avg # of iterations =  2.0

     negative rho (up, down):  5.516E-02 0.000E+00

     total cpu time spent up to now is     5940.6 secs

     total energy              =  -11681.95037843 Ry
     estimated scf accuracy    <       8.50882127 Ry

     iteration # 19     ecut=    80.00 Ry     beta= 0.10
     Davidson diagonalization with overlap
     ethr =  1.83E-04,  avg # of iterations =  2.0

     negative rho (up, down):  5.541E-02 0.000E+00

     total cpu time spent up to now is     6263.6 secs

     total energy              =  -11682.11825466 Ry
     estimated scf accuracy    <       2.90402375 Ry

     iteration # 20     ecut=    80.00 Ry     beta= 0.10
     Davidson diagonalization with overlap
     ethr =  1.55E-04,  avg # of iterations =  1.0

     negative rho (up, down):  5.586E-02 0.000E+00

     total cpu time spent up to now is     6550.9 secs

     total energy              =  -11682.06803696 Ry
     estimated scf accuracy    <       2.97128167 Ry

     iteration # 21     ecut=    80.00 Ry     beta= 0.10
     Davidson diagonalization with overlap
     ethr =  1.55E-04,  avg # of iterations =  1.0

     negative rho (up, down):  5.604E-02 0.000E+00

     total cpu time spent up to now is     6839.0 secs

     total energy              =  -11681.99379825 Ry
     estimated scf accuracy    <      10.21589368 Ry

     iteration # 22     ecut=    80.00 Ry     beta= 0.10
     Davidson diagonalization with overlap
     ethr =  1.55E-04,  avg # of iterations =  1.0

     negative rho (up, down):  5.610E-02 0.000E+00

     total cpu time spent up to now is     7128.2 secs

     total energy              =  -11682.03387657 Ry
     estimated scf accuracy    <       9.43609379 Ry

     iteration # 23     ecut=    80.00 Ry     beta= 0.10
     Davidson diagonalization with overlap
     ethr =  1.55E-04,  avg # of iterations =  1.0

     negative rho (up, down):  5.613E-02 0.000E+00

     total cpu time spent up to now is     7415.7 secs

     total energy              =  -11682.08274965 Ry
     estimated scf accuracy    <       3.68465168 Ry

     iteration # 24     ecut=    80.00 Ry     beta= 0.10
     Davidson diagonalization with overlap
     ethr =  1.55E-04,  avg # of iterations =  1.0

     negative rho (up, down):  5.665E-02 0.000E+00

     total cpu time spent up to now is     7703.2 secs

     total energy              =  -11682.06803143 Ry
     estimated scf accuracy    <       3.85915664 Ry

     iteration # 25     ecut=    80.00 Ry     beta= 0.10
     Davidson diagonalization with overlap
     ethr =  1.55E-04,  avg # of iterations =  1.0

     negative rho (up, down):  5.666E-02 0.000E+00

     total cpu time spent up to now is     7990.2 secs

     total energy              =  -11682.06812118 Ry
     estimated scf accuracy    <       2.95717357 Ry

     iteration # 26     ecut=    80.00 Ry     beta= 0.10
     Davidson diagonalization with overlap
     ethr =  1.55E-04,  avg # of iterations =  1.0

     negative rho (up, down):  5.681E-02 0.000E+00

     total cpu time spent up to now is     8278.0 secs

     total energy              =  -11682.08145472 Ry
     estimated scf accuracy    <       1.70835339 Ry

     iteration # 27     ecut=    80.00 Ry     beta= 0.10
     Davidson diagonalization with overlap
     ethr =  9.13E-05,  avg # of iterations =  1.0

     negative rho (up, down):  5.757E-02 0.000E+00

     total cpu time spent up to now is     8565.5 secs

     total energy              =  -11682.06301275 Ry
     estimated scf accuracy    <       1.92579637 Ry

     iteration # 28     ecut=    80.00 Ry     beta= 0.10
     Davidson diagonalization with overlap
     ethr =  9.13E-05,  avg # of iterations =  1.0

     negative rho (up, down):  5.700E-02 0.000E+00

     total cpu time spent up to now is     8853.2 secs

     total energy              =  -11681.98695703 Ry
     estimated scf accuracy    <       6.47755267 Ry

     iteration # 29     ecut=    80.00 Ry     beta= 0.10
     Davidson diagonalization with overlap
     ethr =  9.13E-05,  avg # of iterations =  1.0

     negative rho (up, down):  5.720E-02 0.000E+00

     total cpu time spent up to now is     9141.1 secs

     total energy              =  -11682.07800888 Ry
     estimated scf accuracy    <       4.01013760 Ry

     iteration # 30     ecut=    80.00 Ry     beta= 0.10
     Davidson diagonalization with overlap
     ethr =  9.13E-05,  avg # of iterations =  1.0

     negative rho (up, down):  5.741E-02 0.000E+00

     total cpu time spent up to now is     9428.5 secs

     total energy              =  -11682.09375954 Ry
     estimated scf accuracy    <       0.73215243 Ry

     iteration # 31     ecut=    80.00 Ry     beta= 0.10
     Davidson diagonalization with overlap
     ethr =  3.91E-05,  avg # of iterations =  1.0

     negative rho (up, down):  5.760E-02 0.000E+00

     total cpu time spent up to now is     9716.2 secs

     total energy              =  -11682.08776923 Ry
     estimated scf accuracy    <       1.83543095 Ry

     iteration # 32     ecut=    80.00 Ry     beta= 0.10
     Davidson diagonalization with overlap
     ethr =  3.91E-05,  avg # of iterations =  1.0

     negative rho (up, down):  5.775E-02 0.000E+00

     total cpu time spent up to now is    10003.8 secs

     total energy              =  -11682.07999377 Ry
     estimated scf accuracy    <       1.11118219 Ry

     iteration # 33     ecut=    80.00 Ry     beta= 0.10
     Davidson diagonalization with overlap
     ethr =  3.91E-05,  avg # of iterations =  2.0

     negative rho (up, down):  5.755E-02 0.000E+00

     total cpu time spent up to now is    10327.3 secs

     total energy              =  -11682.04996999 Ry
     estimated scf accuracy    <       7.15715058 Ry

     iteration # 34     ecut=    80.00 Ry     beta= 0.10
     Davidson diagonalization with overlap
     ethr =  3.91E-05,  avg # of iterations =  2.0

     negative rho (up, down):  5.785E-02 0.000E+00

     total cpu time spent up to now is    10650.2 secs

     total energy              =  -11682.08617360 Ry
     estimated scf accuracy    <       1.38351596 Ry

     iteration # 35     ecut=    80.00 Ry     beta= 0.10
     Davidson diagonalization with overlap
     ethr =  3.91E-05,  avg # of iterations =  1.0

     negative rho (up, down):  5.787E-02 0.000E+00

     total cpu time spent up to now is    10938.2 secs

     total energy              =  -11682.08078021 Ry
     estimated scf accuracy    <       2.32044725 Ry

     iteration # 36     ecut=    80.00 Ry     beta= 0.10
     Davidson diagonalization with overlap
     ethr =  3.91E-05,  avg # of iterations =  1.0

     negative rho (up, down):  5.797E-02 0.000E+00

     total cpu time spent up to now is    11225.4 secs

     total energy              =  -11682.09570014 Ry
     estimated scf accuracy    <       0.68242867 Ry

     iteration # 37     ecut=    80.00 Ry     beta= 0.10
     Davidson diagonalization with overlap
     ethr =  3.65E-05,  avg # of iterations =  1.0

     negative rho (up, down):  5.868E-02 0.000E+00

     total cpu time spent up to now is    11512.5 secs

     total energy              =  -11682.09319090 Ry
     estimated scf accuracy    <       0.26078199 Ry

     iteration # 38     ecut=    80.00 Ry     beta= 0.10
     Davidson diagonalization with overlap
     c_bands:  1 eigenvalues not converged
     ethr =  1.39E-05,  avg # of iterations = 20.0

     negative rho (up, down):  5.806E-02 0.000E+00

     total cpu time spent up to now is    11959.0 secs

     total energy              =  -11682.05198185 Ry
     estimated scf accuracy    <       2.98275299 Ry

     iteration # 39     ecut=    80.00 Ry     beta= 0.10
     Davidson diagonalization with overlap
     ethr =  1.39E-05,  avg # of iterations =  2.0

     negative rho (up, down):  5.819E-02 0.000E+00

     total cpu time spent up to now is    12282.3 secs

     total energy              =  -11682.08945136 Ry
     estimated scf accuracy    <       1.64727789 Ry

     iteration # 40     ecut=    80.00 Ry     beta= 0.10
     Davidson diagonalization with overlap
     ethr =  1.39E-05,  avg # of iterations =  1.0

     negative rho (up, down):  5.827E-02 0.000E+00

     total cpu time spent up to now is    12570.3 secs

     total energy              =  -11682.09666209 Ry
     estimated scf accuracy    <       0.47748578 Ry

     iteration # 41     ecut=    80.00 Ry     beta= 0.10
     Davidson diagonalization with overlap
     ethr =  1.39E-05,  avg # of iterations =  1.0

     negative rho (up, down):  5.836E-02 0.000E+00

     total cpu time spent up to now is    12858.4 secs

     total energy              =  -11682.09846377 Ry
     estimated scf accuracy    <       0.31370393 Ry

     iteration # 42     ecut=    80.00 Ry     beta= 0.10
     Davidson diagonalization with overlap
     ethr =  1.39E-05,  avg # of iterations =  1.0

     negative rho (up, down):  5.859E-02 0.000E+00

     total cpu time spent up to now is    13146.1 secs

     total energy              =  -11682.09852134 Ry
     estimated scf accuracy    <       0.36925984 Ry

     iteration # 43     ecut=    80.00 Ry     beta= 0.10
     Davidson diagonalization with overlap
     ethr =  1.39E-05,  avg # of iterations =  1.0

     negative rho (up, down):  5.839E-02 0.000E+00

     total cpu time spent up to now is    13433.4 secs

     total energy              =  -11682.09300038 Ry
     estimated scf accuracy    <       0.65974533 Ry

     iteration # 44     ecut=    80.00 Ry     beta= 0.10
     Davidson diagonalization with overlap
     ethr =  1.39E-05,  avg # of iterations =  1.0

     negative rho (up, down):  5.869E-02 0.000E+00

     total cpu time spent up to now is    13721.6 secs

     total energy              =  -11682.09543449 Ry
     estimated scf accuracy    <       1.10484240 Ry

     iteration # 45     ecut=    80.00 Ry     beta= 0.10
     Davidson diagonalization with overlap
     ethr =  1.39E-05,  avg # of iterations =  1.0

     negative rho (up, down):  5.856E-02 0.000E+00

     total cpu time spent up to now is    14009.6 secs

     total energy              =  -11682.09584142 Ry
     estimated scf accuracy    <       0.36091719 Ry

     iteration # 46     ecut=    80.00 Ry     beta= 0.10
     Davidson diagonalization with overlap
     ethr =  1.39E-05,  avg # of iterations =  1.0

     negative rho (up, down):  5.860E-02 0.000E+00

     total cpu time spent up to now is    14298.0 secs

     total energy              =  -11682.09653064 Ry
     estimated scf accuracy    <       0.71512344 Ry

     iteration # 47     ecut=    80.00 Ry     beta= 0.10
     Davidson diagonalization with overlap
     ethr =  1.39E-05,  avg # of iterations =  1.0

     negative rho (up, down):  5.890E-02 0.000E+00

     total cpu time spent up to now is    14585.8 secs

     total energy              =  -11682.10064866 Ry
     estimated scf accuracy    <       0.13945286 Ry

     iteration # 48     ecut=    80.00 Ry     beta= 0.10
     Davidson diagonalization with overlap
     ethr =  7.45E-06,  avg # of iterations =  1.0

     negative rho (up, down):  5.885E-02 0.000E+00

     total cpu time spent up to now is    14873.7 secs

     total energy              =  -11682.09360655 Ry
     estimated scf accuracy    <       0.62474624 Ry

     iteration # 49     ecut=    80.00 Ry     beta= 0.10
     Davidson diagonalization with overlap
     ethr =  7.45E-06,  avg # of iterations =  1.0

     negative rho (up, down):  5.880E-02 0.000E+00

     total cpu time spent up to now is    15161.1 secs

     total energy              =  -11682.09215580 Ry
     estimated scf accuracy    <       1.28387935 Ry

     iteration # 50     ecut=    80.00 Ry     beta= 0.10
     Davidson diagonalization with overlap
     ethr =  7.45E-06,  avg # of iterations =  1.0

     negative rho (up, down):  5.878E-02 0.000E+00

     total cpu time spent up to now is    15448.6 secs

     total energy              =  -11682.09609008 Ry
     estimated scf accuracy    <       0.68465493 Ry

     iteration # 51     ecut=    80.00 Ry     beta= 0.10
     Davidson diagonalization with overlap
     ethr =  7.45E-06,  avg # of iterations =  1.0

     negative rho (up, down):  5.881E-02 0.000E+00

     total cpu time spent up to now is    15737.3 secs

     total energy              =  -11682.10083997 Ry
     estimated scf accuracy    <       0.21712602 Ry

     iteration # 52     ecut=    80.00 Ry     beta= 0.10
     Davidson diagonalization with overlap
     ethr =  7.45E-06,  avg # of iterations =  1.0

     negative rho (up, down):  5.890E-02 0.000E+00

     total cpu time spent up to now is    16025.0 secs

     total energy              =  -11682.10263818 Ry
     estimated scf accuracy    <       0.05440510 Ry

     iteration # 53     ecut=    80.00 Ry     beta= 0.10
     Davidson diagonalization with overlap
     ethr =  2.91E-06,  avg # of iterations =  1.0

     negative rho (up, down):  5.892E-02 0.000E+00

     total cpu time spent up to now is    16311.6 secs

     total energy              =  -11682.10180422 Ry
     estimated scf accuracy    <       0.07398448 Ry

     iteration # 54     ecut=    80.00 Ry     beta= 0.10
     Davidson diagonalization with overlap
     ethr =  2.91E-06,  avg # of iterations =  1.0

     negative rho (up, down):  5.899E-02 0.000E+00

     total cpu time spent up to now is    16599.5 secs

     total energy              =  -11682.09967890 Ry
     estimated scf accuracy    <       0.60553453 Ry

     iteration # 55     ecut=    80.00 Ry     beta= 0.10
     Davidson diagonalization with overlap
     ethr =  2.91E-06,  avg # of iterations =  1.0

     negative rho (up, down):  5.901E-02 0.000E+00

     total cpu time spent up to now is    16887.0 secs

     total energy              =  -11682.10264385 Ry
     estimated scf accuracy    <       0.04835413 Ry

     iteration # 56     ecut=    80.00 Ry     beta= 0.10
     Davidson diagonalization with overlap
     ethr =  2.58E-06,  avg # of iterations =  1.0

     negative rho (up, down):  5.897E-02 0.000E+00

     total cpu time spent up to now is    17175.0 secs

     total energy              =  -11682.10142002 Ry
     estimated scf accuracy    <       0.20338031 Ry

     iteration # 57     ecut=    80.00 Ry     beta= 0.10
     Davidson diagonalization with overlap
     ethr =  2.58E-06,  avg # of iterations =  1.0

     negative rho (up, down):  5.907E-02 0.000E+00

     total cpu time spent up to now is    17462.8 secs

     total energy              =  -11682.10207003 Ry
     estimated scf accuracy    <       0.12962070 Ry

     iteration # 58     ecut=    80.00 Ry     beta= 0.10
     Davidson diagonalization with overlap
     ethr =  2.58E-06,  avg # of iterations =  1.0

     negative rho (up, down):  5.911E-02 0.000E+00

     total cpu time spent up to now is    17750.1 secs

     total energy              =  -11682.10227777 Ry
     estimated scf accuracy    <       0.11910990 Ry

     iteration # 59     ecut=    80.00 Ry     beta= 0.10
     Davidson diagonalization with overlap
     ethr =  2.58E-06,  avg # of iterations =  1.0

     negative rho (up, down):  5.917E-02 0.000E+00

     total cpu time spent up to now is    18039.2 secs

     total energy              =  -11682.10329693 Ry
     estimated scf accuracy    <       0.05376636 Ry

     iteration # 60     ecut=    80.00 Ry     beta= 0.10
     Davidson diagonalization with overlap
     ethr =  2.58E-06,  avg # of iterations =  1.0

     negative rho (up, down):  5.914E-02 0.000E+00

     total cpu time spent up to now is    18326.6 secs

     total energy              =  -11682.10290770 Ry
     estimated scf accuracy    <       0.05216623 Ry

     iteration # 61     ecut=    80.00 Ry     beta= 0.10
     Davidson diagonalization with overlap
     ethr =  2.58E-06,  avg # of iterations =  1.0

     negative rho (up, down):  5.909E-02 0.000E+00

     total cpu time spent up to now is    18614.5 secs

     total energy              =  -11682.10194951 Ry
     estimated scf accuracy    <       0.16384632 Ry

     iteration # 62     ecut=    80.00 Ry     beta= 0.10
     Davidson diagonalization with overlap
     ethr =  2.58E-06,  avg # of iterations =  1.0

     negative rho (up, down):  5.915E-02 0.000E+00

     total cpu time spent up to now is    18902.2 secs

     total energy              =  -11682.10329514 Ry
     estimated scf accuracy    <       0.05764348 Ry

     iteration # 63     ecut=    80.00 Ry     beta= 0.10
     Davidson diagonalization with overlap
     ethr =  2.58E-06,  avg # of iterations =  1.0

     negative rho (up, down):  5.919E-02 0.000E+00

     total cpu time spent up to now is    19190.4 secs

     total energy              =  -11682.10352209 Ry
     estimated scf accuracy    <       0.04692317 Ry

     iteration # 64     ecut=    80.00 Ry     beta= 0.10
     Davidson diagonalization with overlap
     ethr =  2.51E-06,  avg # of iterations =  1.0

     negative rho (up, down):  5.920E-02 0.000E+00

     total cpu time spent up to now is    19478.3 secs

     total energy              =  -11682.10356769 Ry
     estimated scf accuracy    <       0.05259097 Ry

     iteration # 65     ecut=    80.00 Ry     beta= 0.10
     Davidson diagonalization with overlap
     ethr =  2.51E-06,  avg # of iterations =  1.0

     negative rho (up, down):  5.922E-02 0.000E+00

     total cpu time spent up to now is    19766.3 secs

     total energy              =  -11682.10388549 Ry
     estimated scf accuracy    <       0.01501311 Ry

     iteration # 66     ecut=    80.00 Ry     beta= 0.10
     Davidson diagonalization with overlap
     ethr =  8.02E-07,  avg # of iterations =  1.0

     negative rho (up, down):  5.921E-02 0.000E+00

     total cpu time spent up to now is    20054.7 secs

     total energy              =  -11682.10370929 Ry
     estimated scf accuracy    <       0.04289571 Ry

     iteration # 67     ecut=    80.00 Ry     beta= 0.10
     Davidson diagonalization with overlap
     ethr =  8.02E-07,  avg # of iterations =  1.0

     negative rho (up, down):  5.927E-02 0.000E+00

     total cpu time spent up to now is    20343.0 secs

     total energy              =  -11682.10401287 Ry
     estimated scf accuracy    <       0.02237337 Ry

     iteration # 68     ecut=    80.00 Ry     beta= 0.10
     Davidson diagonalization with overlap
     ethr =  8.02E-07,  avg # of iterations =  1.0

     negative rho (up, down):  5.927E-02 0.000E+00

     total cpu time spent up to now is    20630.3 secs

     total energy              =  -11682.10386901 Ry
     estimated scf accuracy    <       0.03619485 Ry

     iteration # 69     ecut=    80.00 Ry     beta= 0.10
     Davidson diagonalization with overlap
     ethr =  8.02E-07,  avg # of iterations =  1.0

     negative rho (up, down):  5.930E-02 0.000E+00

     total cpu time spent up to now is    20917.8 secs

     total energy              =  -11682.10411776 Ry
     estimated scf accuracy    <       0.01556467 Ry

     iteration # 70     ecut=    80.00 Ry     beta= 0.10
     Davidson diagonalization with overlap
     ethr =  8.02E-07,  avg # of iterations =  1.0

     negative rho (up, down):  5.934E-02 0.000E+00

     total cpu time spent up to now is    21205.9 secs

     total energy              =  -11682.10417384 Ry
     estimated scf accuracy    <       0.01863485 Ry

     iteration # 71     ecut=    80.00 Ry     beta= 0.10
     Davidson diagonalization with overlap
     ethr =  8.02E-07,  avg # of iterations =  1.0

     negative rho (up, down):  5.929E-02 0.000E+00

     total cpu time spent up to now is    21494.0 secs

     total energy              =  -11682.10366150 Ry
     estimated scf accuracy    <       0.05190906 Ry

     iteration # 72     ecut=    80.00 Ry     beta= 0.10
     Davidson diagonalization with overlap
     ethr =  8.02E-07,  avg # of iterations =  1.0

     negative rho (up, down):  5.932E-02 0.000E+00

     total cpu time spent up to now is    21781.4 secs

     total energy              =  -11682.10398865 Ry
     estimated scf accuracy    <       0.03717996 Ry

     iteration # 73     ecut=    80.00 Ry     beta= 0.10
     Davidson diagonalization with overlap
     ethr =  8.02E-07,  avg # of iterations =  1.0

     negative rho (up, down):  5.936E-02 0.000E+00

     total cpu time spent up to now is    22068.6 secs

     total energy              =  -11682.10418800 Ry
     estimated scf accuracy    <       0.02980281 Ry

     iteration # 74     ecut=    80.00 Ry     beta= 0.10
     Davidson diagonalization with overlap
     ethr =  8.02E-07,  avg # of iterations =  1.0

     negative rho (up, down):  5.935E-02 0.000E+00

     total cpu time spent up to now is    22355.9 secs

     total energy              =  -11682.10407304 Ry
     estimated scf accuracy    <       0.03883584 Ry

     iteration # 75     ecut=    80.00 Ry     beta= 0.10
     Davidson diagonalization with overlap
     ethr =  8.02E-07,  avg # of iterations =  1.0

     negative rho (up, down):  5.936E-02 0.000E+00

     total cpu time spent up to now is    22642.7 secs

     total energy              =  -11682.10431673 Ry
     estimated scf accuracy    <       0.01069978 Ry

     iteration # 76     ecut=    80.00 Ry     beta= 0.10
     Davidson diagonalization with overlap
     ethr =  5.72E-07,  avg # of iterations =  1.0

     negative rho (up, down):  5.936E-02 0.000E+00

     total cpu time spent up to now is    22929.8 secs

     total energy              =  -11682.10426454 Ry
     estimated scf accuracy    <       0.02190053 Ry

     iteration # 77     ecut=    80.00 Ry     beta= 0.10
     Davidson diagonalization with overlap
     ethr =  5.72E-07,  avg # of iterations =  1.0

     negative rho (up, down):  5.940E-02 0.000E+00

     total cpu time spent up to now is    23217.0 secs

     total energy              =  -11682.10441615 Ry
     estimated scf accuracy    <       0.01234374 Ry

     iteration # 78     ecut=    80.00 Ry     beta= 0.10
     Davidson diagonalization with overlap
     ethr =  5.72E-07,  avg # of iterations =  1.0

     negative rho (up, down):  5.940E-02 0.000E+00

     total cpu time spent up to now is    23504.4 secs

     total energy              =  -11682.10438502 Ry
     estimated scf accuracy    <       0.01321341 Ry

     iteration # 79     ecut=    80.00 Ry     beta= 0.10
     Davidson diagonalization with overlap
     ethr =  5.72E-07,  avg # of iterations =  1.0

     negative rho (up, down):  5.942E-02 0.000E+00

     total cpu time spent up to now is    23792.2 secs

     total energy              =  -11682.10449224 Ry
     estimated scf accuracy    <       0.00573396 Ry

     iteration # 80     ecut=    80.00 Ry     beta= 0.10
     Davidson diagonalization with overlap
     ethr =  3.06E-07,  avg # of iterations =  1.0

     negative rho (up, down):  5.945E-02 0.000E+00

     total cpu time spent up to now is    24080.0 secs

     total energy              =  -11682.10457348 Ry
     estimated scf accuracy    <       0.00547915 Ry

     iteration # 81     ecut=    80.00 Ry     beta= 0.10
     Davidson diagonalization with overlap
     ethr =  2.93E-07,  avg # of iterations =  1.0

     negative rho (up, down):  5.944E-02 0.000E+00

     total cpu time spent up to now is    24367.9 secs

     total energy              =  -11682.10442991 Ry
     estimated scf accuracy    <       0.00966444 Ry

     iteration # 82     ecut=    80.00 Ry     beta= 0.10
     Davidson diagonalization with overlap
     ethr =  2.93E-07,  avg # of iterations =  1.0

     negative rho (up, down):  5.946E-02 0.000E+00

     total cpu time spent up to now is    24655.1 secs

     total energy              =  -11682.10431466 Ry
     estimated scf accuracy    <       0.03415070 Ry

     iteration # 83     ecut=    80.00 Ry     beta= 0.10
     Davidson diagonalization with overlap
     ethr =  2.93E-07,  avg # of iterations =  1.0

     negative rho (up, down):  5.950E-02 0.000E+00

     total cpu time spent up to now is    24942.9 secs

     total energy              =  -11682.10453561 Ry
     estimated scf accuracy    <       0.01939227 Ry

     iteration # 84     ecut=    80.00 Ry     beta= 0.10
     Davidson diagonalization with overlap
     ethr =  2.93E-07,  avg # of iterations =  1.0

     negative rho (up, down):  5.947E-02 0.000E+00

     total cpu time spent up to now is    25230.1 secs

     total energy              =  -11682.10446913 Ry
     estimated scf accuracy    <       0.01673925 Ry

     iteration # 85     ecut=    80.00 Ry     beta= 0.10
     Davidson diagonalization with overlap
     ethr =  2.93E-07,  avg # of iterations =  1.0

     negative rho (up, down):  5.947E-02 0.000E+00

     total cpu time spent up to now is    25517.3 secs

     total energy              =  -11682.10456269 Ry
     estimated scf accuracy    <       0.00800206 Ry

     iteration # 86     ecut=    80.00 Ry     beta= 0.10
     Davidson diagonalization with overlap
     ethr =  2.93E-07,  avg # of iterations =  1.0

     negative rho (up, down):  5.948E-02 0.000E+00

     total cpu time spent up to now is    25805.1 secs

     total energy              =  -11682.10451605 Ry
     estimated scf accuracy    <       0.02314456 Ry

     iteration # 87     ecut=    80.00 Ry     beta= 0.10
     Davidson diagonalization with overlap
     ethr =  2.93E-07,  avg # of iterations =  1.0

     negative rho (up, down):  5.951E-02 0.000E+00

     total cpu time spent up to now is    26092.8 secs

     total energy              =  -11682.10464261 Ry
     estimated scf accuracy    <       0.00970348 Ry

     iteration # 88     ecut=    80.00 Ry     beta= 0.10
     Davidson diagonalization with overlap
     ethr =  2.93E-07,  avg # of iterations =  1.0

     negative rho (up, down):  5.950E-02 0.000E+00

     total cpu time spent up to now is    26379.6 secs

     total energy              =  -11682.10462286 Ry
     estimated scf accuracy    <       0.00796522 Ry

     iteration # 89     ecut=    80.00 Ry     beta= 0.10
     Davidson diagonalization with overlap
     ethr =  2.93E-07,  avg # of iterations =  1.0

     negative rho (up, down):  5.951E-02 0.000E+00

     total cpu time spent up to now is    26667.5 secs

     total energy              =  -11682.10467474 Ry
     estimated scf accuracy    <       0.00413609 Ry

     iteration # 90     ecut=    80.00 Ry     beta= 0.10
     Davidson diagonalization with overlap
     ethr =  2.21E-07,  avg # of iterations =  1.0

     negative rho (up, down):  5.953E-02 0.000E+00

     total cpu time spent up to now is    26955.4 secs

     total energy              =  -11682.10473885 Ry
     estimated scf accuracy    <       0.00196363 Ry

     iteration # 91     ecut=    80.00 Ry     beta= 0.10
     Davidson diagonalization with overlap
     ethr =  1.05E-07,  avg # of iterations =  1.0

     negative rho (up, down):  5.955E-02 0.000E+00

     total cpu time spent up to now is    27243.4 secs

     total energy              =  -11682.10474048 Ry
     estimated scf accuracy    <       0.00204131 Ry

     iteration # 92     ecut=    80.00 Ry     beta= 0.10
     Davidson diagonalization with overlap
     ethr =  1.05E-07,  avg # of iterations =  1.0

     negative rho (up, down):  5.955E-02 0.000E+00

     total cpu time spent up to now is    27531.2 secs

     total energy              =  -11682.10468447 Ry
     estimated scf accuracy    <       0.00913834 Ry

     iteration # 93     ecut=    80.00 Ry     beta= 0.10
     Davidson diagonalization with overlap
     ethr =  1.05E-07,  avg # of iterations =  1.0

     negative rho (up, down):  5.957E-02 0.000E+00

     total cpu time spent up to now is    27820.6 secs

     total energy              =  -11682.10474838 Ry
     estimated scf accuracy    <       0.00648158 Ry

     iteration # 94     ecut=    80.00 Ry     beta= 0.10
     Davidson diagonalization with overlap
     ethr =  1.05E-07,  avg # of iterations =  1.0

     negative rho (up, down):  5.956E-02 0.000E+00

     total cpu time spent up to now is    28108.9 secs

     total energy              =  -11682.10472343 Ry
     estimated scf accuracy    <       0.00465435 Ry

     iteration # 95     ecut=    80.00 Ry     beta= 0.10
     Davidson diagonalization with overlap
     ethr =  1.05E-07,  avg # of iterations =  1.0

     negative rho (up, down):  5.956E-02 0.000E+00

     total cpu time spent up to now is    28396.7 secs

     total energy              =  -11682.10472463 Ry
     estimated scf accuracy    <       0.00607476 Ry

     iteration # 96     ecut=    80.00 Ry     beta= 0.10
     Davidson diagonalization with overlap
     ethr =  1.05E-07,  avg # of iterations =  1.0

     negative rho (up, down):  5.958E-02 0.000E+00

     total cpu time spent up to now is    28685.7 secs

     total energy              =  -11682.10471467 Ry
     estimated scf accuracy    <       0.01580349 Ry

     iteration # 97     ecut=    80.00 Ry     beta= 0.10
     Davidson diagonalization with overlap
     ethr =  1.05E-07,  avg # of iterations =  1.0

     negative rho (up, down):  5.960E-02 0.000E+00

     total cpu time spent up to now is    28973.6 secs

     total energy              =  -11682.10474621 Ry
     estimated scf accuracy    <       0.01001575 Ry

     iteration # 98     ecut=    80.00 Ry     beta= 0.10
     Davidson diagonalization with overlap
     ethr =  1.05E-07,  avg # of iterations =  1.0

     negative rho (up, down):  5.959E-02 0.000E+00

     total cpu time spent up to now is    29262.2 secs

     total energy              =  -11682.10476292 Ry
     estimated scf accuracy    <       0.00504929 Ry

     iteration # 99     ecut=    80.00 Ry     beta= 0.10
     Davidson diagonalization with overlap
     ethr =  1.05E-07,  avg # of iterations =  1.0

     negative rho (up, down):  5.959E-02 0.000E+00

     total cpu time spent up to now is    29549.6 secs

     total energy              =  -11682.10477584 Ry
     estimated scf accuracy    <       0.00389567 Ry

     iteration #100     ecut=    80.00 Ry     beta= 0.10
     Davidson diagonalization with overlap
     ethr =  1.05E-07,  avg # of iterations =  1.0

     negative rho (up, down):  5.960E-02 0.000E+00

     total cpu time spent up to now is    29837.2 secs

     total energy              =  -11682.10482306 Ry
     estimated scf accuracy    <       0.00157795 Ry

     iteration #101     ecut=    80.00 Ry     beta= 0.10
     Davidson diagonalization with overlap
     ethr =  8.43E-08,  avg # of iterations =  1.0

     negative rho (up, down):  5.962E-02 0.000E+00

     total cpu time spent up to now is    30124.7 secs

     total energy              =  -11682.10483852 Ry
     estimated scf accuracy    <       0.00092324 Ry

     iteration #102     ecut=    80.00 Ry     beta= 0.10
     Davidson diagonalization with overlap
     ethr =  4.93E-08,  avg # of iterations =  1.0

     negative rho (up, down):  5.962E-02 0.000E+00

     total cpu time spent up to now is    30412.4 secs

     total energy              =  -11682.10483039 Ry
     estimated scf accuracy    <       0.00152503 Ry

     iteration #103     ecut=    80.00 Ry     beta= 0.10
     Davidson diagonalization with overlap
     ethr =  4.93E-08,  avg # of iterations =  1.0

     negative rho (up, down):  5.963E-02 0.000E+00

     total cpu time spent up to now is    30699.4 secs

     total energy              =  -11682.10484359 Ry
     estimated scf accuracy    <       0.00219761 Ry

     iteration #104     ecut=    80.00 Ry     beta= 0.10
     Davidson diagonalization with overlap
     ethr =  4.93E-08,  avg # of iterations =  1.0

     negative rho (up, down):  5.963E-02 0.000E+00

     total cpu time spent up to now is    30987.3 secs

     total energy              =  -11682.10484353 Ry
     estimated scf accuracy    <       0.00134553 Ry

     iteration #105     ecut=    80.00 Ry     beta= 0.10
     Davidson diagonalization with overlap
     ethr =  4.93E-08,  avg # of iterations =  1.0

     negative rho (up, down):  5.964E-02 0.000E+00

     total cpu time spent up to now is    31274.9 secs

     total energy              =  -11682.10483643 Ry
     estimated scf accuracy    <       0.00281927 Ry

     iteration #106     ecut=    80.00 Ry     beta= 0.10
     Davidson diagonalization with overlap
     ethr =  4.93E-08,  avg # of iterations =  1.0

     negative rho (up, down):  5.966E-02 0.000E+00

     total cpu time spent up to now is    31563.1 secs

     total energy              =  -11682.10483841 Ry
     estimated scf accuracy    <       0.00763089 Ry

     iteration #107     ecut=    80.00 Ry     beta= 0.10
     Davidson diagonalization with overlap
     ethr =  4.93E-08,  avg # of iterations =  1.0

     negative rho (up, down):  5.966E-02 0.000E+00

     total cpu time spent up to now is    31850.5 secs

     total energy              =  -11682.10485826 Ry
     estimated scf accuracy    <       0.00320708 Ry

     iteration #108     ecut=    80.00 Ry     beta= 0.10
     Davidson diagonalization with overlap
     ethr =  4.93E-08,  avg # of iterations =  1.0

     negative rho (up, down):  5.966E-02 0.000E+00

     total cpu time spent up to now is    32138.3 secs

     total energy              =  -11682.10485578 Ry
     estimated scf accuracy    <       0.00240269 Ry

     iteration #109     ecut=    80.00 Ry     beta= 0.10
     Davidson diagonalization with overlap
     ethr =  4.93E-08,  avg # of iterations =  1.0

     negative rho (up, down):  5.964E-02 0.000E+00

     total cpu time spent up to now is    32425.8 secs

     total energy              =  -11682.10483896 Ry
     estimated scf accuracy    <       0.00332073 Ry

     iteration #110     ecut=    80.00 Ry     beta= 0.10
     Davidson diagonalization with overlap
     ethr =  4.93E-08,  avg # of iterations =  1.0

     negative rho (up, down):  5.966E-02 0.000E+00

     total cpu time spent up to now is    32713.7 secs

     total energy              =  -11682.10486964 Ry
     estimated scf accuracy    <       0.00188503 Ry

     iteration #111     ecut=    80.00 Ry     beta= 0.10
     Davidson diagonalization with overlap
     ethr =  4.93E-08,  avg # of iterations =  1.0

     negative rho (up, down):  5.967E-02 0.000E+00

     total cpu time spent up to now is    33001.4 secs

     total energy              =  -11682.10488812 Ry
     estimated scf accuracy    <       0.00063862 Ry

     iteration #112     ecut=    80.00 Ry     beta= 0.10
     Davidson diagonalization with overlap
     ethr =  3.41E-08,  avg # of iterations =  1.0

     negative rho (up, down):  5.967E-02 0.000E+00

     total cpu time spent up to now is    33289.0 secs

     total energy              =  -11682.10488273 Ry
     estimated scf accuracy    <       0.00096733 Ry

     iteration #113     ecut=    80.00 Ry     beta= 0.10
     Davidson diagonalization with overlap
     ethr =  3.41E-08,  avg # of iterations =  1.0

     negative rho (up, down):  5.968E-02 0.000E+00

     total cpu time spent up to now is    33576.8 secs

     total energy              =  -11682.10488996 Ry
     estimated scf accuracy    <       0.00107309 Ry

     iteration #114     ecut=    80.00 Ry     beta= 0.10
     Davidson diagonalization with overlap
     ethr =  3.41E-08,  avg # of iterations =  1.0

     negative rho (up, down):  5.968E-02 0.000E+00

     total cpu time spent up to now is    33864.9 secs

     total energy              =  -11682.10489608 Ry
     estimated scf accuracy    <       0.00048902 Ry

     iteration #115     ecut=    80.00 Ry     beta= 0.10
     Davidson diagonalization with overlap
     ethr =  2.61E-08,  avg # of iterations =  1.0

     negative rho (up, down):  5.968E-02 0.000E+00

     total cpu time spent up to now is    34153.0 secs

     total energy              =  -11682.10489542 Ry
     estimated scf accuracy    <       0.00083766 Ry

     iteration #116     ecut=    80.00 Ry     beta= 0.10
     Davidson diagonalization with overlap
     ethr =  2.61E-08,  avg # of iterations =  1.0

     negative rho (up, down):  5.970E-02 0.000E+00

     total cpu time spent up to now is    34441.2 secs

     total energy              =  -11682.10490072 Ry
     estimated scf accuracy    <       0.00179328 Ry

     iteration #117     ecut=    80.00 Ry     beta= 0.10
     Davidson diagonalization with overlap
     ethr =  2.61E-08,  avg # of iterations =  1.0

     negative rho (up, down):  5.970E-02 0.000E+00

     total cpu time spent up to now is    34729.9 secs

     total energy              =  -11682.10490439 Ry
     estimated scf accuracy    <       0.00084040 Ry

     iteration #118     ecut=    80.00 Ry     beta= 0.10
     Davidson diagonalization with overlap
     ethr =  2.61E-08,  avg # of iterations =  1.0

     negative rho (up, down):  5.970E-02 0.000E+00

     total cpu time spent up to now is    35017.7 secs

     total energy              =  -11682.10490618 Ry
     estimated scf accuracy    <       0.00085309 Ry

     iteration #119     ecut=    80.00 Ry     beta= 0.10
     Davidson diagonalization with overlap
     ethr =  2.61E-08,  avg # of iterations =  1.0

     negative rho (up, down):  5.970E-02 0.000E+00

     total cpu time spent up to now is    35304.7 secs

     total energy              =  -11682.10489459 Ry
     estimated scf accuracy    <       0.00144500 Ry

     iteration #120     ecut=    80.00 Ry     beta= 0.10
     Davidson diagonalization with overlap
     ethr =  2.61E-08,  avg # of iterations =  1.0

     negative rho (up, down):  5.970E-02 0.000E+00

     total cpu time spent up to now is    35592.2 secs

     total energy              =  -11682.10489857 Ry
     estimated scf accuracy    <       0.00173335 Ry

     iteration #121     ecut=    80.00 Ry     beta= 0.10
     Davidson diagonalization with overlap
     ethr =  2.61E-08,  avg # of iterations =  1.0

     negative rho (up, down):  5.971E-02 0.000E+00

     total cpu time spent up to now is    35879.8 secs

     total energy              =  -11682.10491490 Ry
     estimated scf accuracy    <       0.00054024 Ry

     iteration #122     ecut=    80.00 Ry     beta= 0.10
     Davidson diagonalization with overlap
     ethr =  2.61E-08,  avg # of iterations =  1.0

     negative rho (up, down):  5.971E-02 0.000E+00

     total cpu time spent up to now is    36167.8 secs

     total energy              =  -11682.10491231 Ry
     estimated scf accuracy    <       0.00063789 Ry

     iteration #123     ecut=    80.00 Ry     beta= 0.10
     Davidson diagonalization with overlap
     ethr =  2.61E-08,  avg # of iterations =  1.0

     negative rho (up, down):  5.971E-02 0.000E+00

     total cpu time spent up to now is    36455.4 secs

     total energy              =  -11682.10491317 Ry
     estimated scf accuracy    <       0.00088103 Ry

     iteration #124     ecut=    80.00 Ry     beta= 0.10
     Davidson diagonalization with overlap
     ethr =  2.61E-08,  avg # of iterations =  1.0

     negative rho (up, down):  5.972E-02 0.000E+00

     total cpu time spent up to now is    36742.9 secs

     total energy              =  -11682.10491980 Ry
     estimated scf accuracy    <       0.00029897 Ry

     iteration #125     ecut=    80.00 Ry     beta= 0.10
     Davidson diagonalization with overlap
     ethr =  1.60E-08,  avg # of iterations =  1.0

     negative rho (up, down):  5.972E-02 0.000E+00

     total cpu time spent up to now is    37030.7 secs

     total energy              =  -11682.10492041 Ry
     estimated scf accuracy    <       0.00031015 Ry

     iteration #126     ecut=    80.00 Ry     beta= 0.10
     Davidson diagonalization with overlap
     ethr =  1.60E-08,  avg # of iterations =  1.0

     negative rho (up, down):  5.973E-02 0.000E+00

     total cpu time spent up to now is    37319.2 secs

     total energy              =  -11682.10492307 Ry
     estimated scf accuracy    <       0.00057378 Ry

     iteration #127     ecut=    80.00 Ry     beta= 0.10
     Davidson diagonalization with overlap
     ethr =  1.60E-08,  avg # of iterations =  1.0

     negative rho (up, down):  5.973E-02 0.000E+00

     total cpu time spent up to now is    37606.8 secs

     total energy              =  -11682.10492467 Ry
     estimated scf accuracy    <       0.00023376 Ry

     iteration #128     ecut=    80.00 Ry     beta= 0.10
     Davidson diagonalization with overlap
     ethr =  1.25E-08,  avg # of iterations =  1.0

     negative rho (up, down):  5.973E-02 0.000E+00

     total cpu time spent up to now is    37894.2 secs

     total energy              =  -11682.10492726 Ry
     estimated scf accuracy    <       0.00024862 Ry

     iteration #129     ecut=    80.00 Ry     beta= 0.10
     Davidson diagonalization with overlap
     ethr =  1.25E-08,  avg # of iterations =  1.0

     negative rho (up, down):  5.974E-02 0.000E+00

     total cpu time spent up to now is    38182.2 secs

     total energy              =  -11682.10492592 Ry
     estimated scf accuracy    <       0.00047680 Ry

     iteration #130     ecut=    80.00 Ry     beta= 0.10
     Davidson diagonalization with overlap
     ethr =  1.25E-08,  avg # of iterations =  1.0

     negative rho (up, down):  5.974E-02 0.000E+00

     total cpu time spent up to now is    38468.9 secs

     total energy              =  -11682.10492327 Ry
     estimated scf accuracy    <       0.00075140 Ry

     iteration #131     ecut=    80.00 Ry     beta= 0.10
     Davidson diagonalization with overlap
     ethr =  1.25E-08,  avg # of iterations =  1.0

     negative rho (up, down):  5.974E-02 0.000E+00

     total cpu time spent up to now is    38756.7 secs

     total energy              =  -11682.10493045 Ry
     estimated scf accuracy    <       0.00033891 Ry

     iteration #132     ecut=    80.00 Ry     beta= 0.10
     Davidson diagonalization with overlap
     ethr =  1.25E-08,  avg # of iterations =  1.0

     negative rho (up, down):  5.974E-02 0.000E+00

     total cpu time spent up to now is    39044.4 secs

     total energy              =  -11682.10492972 Ry
     estimated scf accuracy    <       0.00031965 Ry

     iteration #133     ecut=    80.00 Ry     beta= 0.10
     Davidson diagonalization with overlap
     ethr =  1.25E-08,  avg # of iterations =  1.0

     negative rho (up, down):  5.974E-02 0.000E+00

     total cpu time spent up to now is    39332.2 secs

     total energy              =  -11682.10492654 Ry
     estimated scf accuracy    <       0.00066869 Ry

     iteration #134     ecut=    80.00 Ry     beta= 0.10
     Davidson diagonalization with overlap
     ethr =  1.25E-08,  avg # of iterations =  1.0

     negative rho (up, down):  5.974E-02 0.000E+00

     total cpu time spent up to now is    39619.8 secs

     total energy              =  -11682.10493181 Ry
     estimated scf accuracy    <       0.00031138 Ry

     iteration #135     ecut=    80.00 Ry     beta= 0.10
     Davidson diagonalization with overlap
     ethr =  1.25E-08,  avg # of iterations =  1.0

     negative rho (up, down):  5.975E-02 0.000E+00

     total cpu time spent up to now is    39907.6 secs

     total energy              =  -11682.10493244 Ry
     estimated scf accuracy    <       0.00023173 Ry

     iteration #136     ecut=    80.00 Ry     beta= 0.10
     Davidson diagonalization with overlap
     ethr =  1.24E-08,  avg # of iterations =  1.0

     negative rho (up, down):  5.975E-02 0.000E+00

     total cpu time spent up to now is    40194.9 secs

     total energy              =  -11682.10493366 Ry
     estimated scf accuracy    <       0.00041749 Ry

     iteration #137     ecut=    80.00 Ry     beta= 0.10
     Davidson diagonalization with overlap
     ethr =  1.24E-08,  avg # of iterations =  1.0

     negative rho (up, down):  5.975E-02 0.000E+00

     total cpu time spent up to now is    40482.4 secs

     total energy              =  -11682.10493509 Ry
     estimated scf accuracy    <       0.00012448 Ry

     iteration #138     ecut=    80.00 Ry     beta= 0.10
     Davidson diagonalization with overlap
     ethr =  6.65E-09,  avg # of iterations =  1.0

     negative rho (up, down):  5.975E-02 0.000E+00

     total cpu time spent up to now is    40769.9 secs

     total energy              =  -11682.10493694 Ry
     estimated scf accuracy    <       0.00009546 Ry

     iteration #139     ecut=    80.00 Ry     beta= 0.10
     Davidson diagonalization with overlap
     ethr =  5.10E-09,  avg # of iterations =  1.0

     negative rho (up, down):  5.976E-02 0.000E+00

     total cpu time spent up to now is    41057.3 secs

     total energy              =  -11682.10493813 Ry
     estimated scf accuracy    <       0.00012964 Ry

     iteration #140     ecut=    80.00 Ry     beta= 0.10
     Davidson diagonalization with overlap
     ethr =  5.10E-09,  avg # of iterations =  1.0

     negative rho (up, down):  5.976E-02 0.000E+00

     total cpu time spent up to now is    41344.6 secs

     total energy              =  -11682.10493657 Ry
     estimated scf accuracy    <       0.00021701 Ry

     iteration #141     ecut=    80.00 Ry     beta= 0.10
     Davidson diagonalization with overlap
     ethr =  5.10E-09,  avg # of iterations =  1.0

     negative rho (up, down):  5.976E-02 0.000E+00

     total cpu time spent up to now is    41631.4 secs

     total energy              =  -11682.10493882 Ry
     estimated scf accuracy    <       0.00016324 Ry

     iteration #142     ecut=    80.00 Ry     beta= 0.10
     Davidson diagonalization with overlap
     ethr =  5.10E-09,  avg # of iterations =  1.0

     negative rho (up, down):  5.977E-02 0.000E+00

     total cpu time spent up to now is    41918.6 secs

     total energy              =  -11682.10493960 Ry
     estimated scf accuracy    <       0.00011885 Ry

     iteration #143     ecut=    80.00 Ry     beta= 0.10
     Davidson diagonalization with overlap
     ethr =  5.10E-09,  avg # of iterations =  1.0

     negative rho (up, down):  5.976E-02 0.000E+00

     total cpu time spent up to now is    42206.3 secs

     total energy              =  -11682.10493613 Ry
     estimated scf accuracy    <       0.00036215 Ry

     iteration #144     ecut=    80.00 Ry     beta= 0.10
     Davidson diagonalization with overlap
     ethr =  5.10E-09,  avg # of iterations =  1.0

     negative rho (up, down):  5.977E-02 0.000E+00

     total cpu time spent up to now is    42493.2 secs

     total energy              =  -11682.10493900 Ry
     estimated scf accuracy    <       0.00032370 Ry

     iteration #145     ecut=    80.00 Ry     beta= 0.10
     Davidson diagonalization with overlap
     ethr =  5.10E-09,  avg # of iterations =  1.0

     negative rho (up, down):  5.977E-02 0.000E+00

     total cpu time spent up to now is    42781.0 secs

     total energy              =  -11682.10493951 Ry
     estimated scf accuracy    <       0.00019687 Ry

     iteration #146     ecut=    80.00 Ry     beta= 0.10
     Davidson diagonalization with overlap
     ethr =  5.10E-09,  avg # of iterations =  1.0

     negative rho (up, down):  5.977E-02 0.000E+00

     total cpu time spent up to now is    43068.5 secs

     total energy              =  -11682.10493930 Ry
     estimated scf accuracy    <       0.00043629 Ry

     iteration #147     ecut=    80.00 Ry     beta= 0.10
     Davidson diagonalization with overlap
     ethr =  5.10E-09,  avg # of iterations =  1.0

     negative rho (up, down):  5.977E-02 0.000E+00

     total cpu time spent up to now is    43355.1 secs

     total energy              =  -11682.10494079 Ry
     estimated scf accuracy    <       0.00010657 Ry

     iteration #148     ecut=    80.00 Ry     beta= 0.10
     Davidson diagonalization with overlap
     ethr =  5.10E-09,  avg # of iterations =  1.0

     negative rho (up, down):  5.977E-02 0.000E+00

     total cpu time spent up to now is    43643.2 secs

     total energy              =  -11682.10494200 Ry
     estimated scf accuracy    <       0.00006371 Ry

     iteration #149     ecut=    80.00 Ry     beta= 0.10
     Davidson diagonalization with overlap
     ethr =  3.40E-09,  avg # of iterations =  1.0

     negative rho (up, down):  5.977E-02 0.000E+00

     total cpu time spent up to now is    43930.3 secs

     total energy              =  -11682.10494306 Ry
     estimated scf accuracy    <       0.00004815 Ry

     iteration #150     ecut=    80.00 Ry     beta= 0.10
     Davidson diagonalization with overlap
     ethr =  2.57E-09,  avg # of iterations =  1.0

     negative rho (up, down):  5.977E-02 0.000E+00

     total cpu time spent up to now is    44217.7 secs

     total energy              =  -11682.10494263 Ry
     estimated scf accuracy    <       0.00005730 Ry

     iteration #151     ecut=    80.00 Ry     beta= 0.10
     Davidson diagonalization with overlap
     ethr =  2.57E-09,  avg # of iterations =  1.0

     negative rho (up, down):  5.978E-02 0.000E+00

     total cpu time spent up to now is    44505.4 secs

     total energy              =  -11682.10494332 Ry
     estimated scf accuracy    <       0.00006602 Ry

     iteration #152     ecut=    80.00 Ry     beta= 0.10
     Davidson diagonalization with overlap
     ethr =  2.57E-09,  avg # of iterations =  1.0

     negative rho (up, down):  5.978E-02 0.000E+00

     total cpu time spent up to now is    44792.6 secs

     total energy              =  -11682.10494416 Ry
     estimated scf accuracy    <       0.00003898 Ry

     iteration #153     ecut=    80.00 Ry     beta= 0.10
     Davidson diagonalization with overlap
     ethr =  2.08E-09,  avg # of iterations =  1.0

     negative rho (up, down):  5.978E-02 0.000E+00

     total cpu time spent up to now is    45079.2 secs

     total energy              =  -11682.10494278 Ry
     estimated scf accuracy    <       0.00013720 Ry

     iteration #154     ecut=    80.00 Ry     beta= 0.10
     Davidson diagonalization with overlap
     ethr =  2.08E-09,  avg # of iterations =  1.0

     negative rho (up, down):  5.978E-02 0.000E+00

     total cpu time spent up to now is    45367.2 secs

     total energy              =  -11682.10494353 Ry
     estimated scf accuracy    <       0.00022704 Ry

     iteration #155     ecut=    80.00 Ry     beta= 0.10
     Davidson diagonalization with overlap
     ethr =  2.08E-09,  avg # of iterations =  1.0

     negative rho (up, down):  5.978E-02 0.000E+00

     total cpu time spent up to now is    45654.6 secs

     total energy              =  -11682.10494423 Ry
     estimated scf accuracy    <       0.00010579 Ry

     iteration #156     ecut=    80.00 Ry     beta= 0.10
     Davidson diagonalization with overlap
     ethr =  2.08E-09,  avg # of iterations =  1.0

     negative rho (up, down):  5.978E-02 0.000E+00

     total cpu time spent up to now is    45942.4 secs

     total energy              =  -11682.10494329 Ry
     estimated scf accuracy    <       0.00028926 Ry

     iteration #157     ecut=    80.00 Ry     beta= 0.10
     Davidson diagonalization with overlap
     ethr =  2.08E-09,  avg # of iterations =  1.0

     negative rho (up, down):  5.978E-02 0.000E+00

     total cpu time spent up to now is    46230.2 secs

     total energy              =  -11682.10494404 Ry
     estimated scf accuracy    <       0.00009267 Ry

     iteration #158     ecut=    80.00 Ry     beta= 0.10
     Davidson diagonalization with overlap
     ethr =  2.08E-09,  avg # of iterations =  1.0

     negative rho (up, down):  5.978E-02 0.000E+00

     total cpu time spent up to now is    46518.0 secs

     total energy              =  -11682.10494476 Ry
     estimated scf accuracy    <       0.00006738 Ry

     iteration #159     ecut=    80.00 Ry     beta= 0.10
     Davidson diagonalization with overlap
     ethr =  2.08E-09,  avg # of iterations =  1.0

     negative rho (up, down):  5.979E-02 0.000E+00

     total cpu time spent up to now is    46805.9 secs

     total energy              =  -11682.10494564 Ry
     estimated scf accuracy    <       0.00003439 Ry

     iteration #160     ecut=    80.00 Ry     beta= 0.10
     Davidson diagonalization with overlap
     ethr =  1.84E-09,  avg # of iterations =  1.0

     negative rho (up, down):  5.979E-02 0.000E+00

     total cpu time spent up to now is    47094.5 secs

     total energy              =  -11682.10494550 Ry
     estimated scf accuracy    <       0.00002709 Ry

     iteration #161     ecut=    80.00 Ry     beta= 0.10
     Davidson diagonalization with overlap
     ethr =  1.45E-09,  avg # of iterations =  1.0

     negative rho (up, down):  5.979E-02 0.000E+00

     total cpu time spent up to now is    47381.5 secs

     total energy              =  -11682.10494573 Ry
     estimated scf accuracy    <       0.00003314 Ry

     iteration #162     ecut=    80.00 Ry     beta= 0.10
     Davidson diagonalization with overlap
     ethr =  1.45E-09,  avg # of iterations =  1.0

     negative rho (up, down):  5.979E-02 0.000E+00

     total cpu time spent up to now is    47669.1 secs

     total energy              =  -11682.10494629 Ry
     estimated scf accuracy    <       0.00001599 Ry

     iteration #163     ecut=    80.00 Ry     beta= 0.10
     Davidson diagonalization with overlap
     ethr =  8.54E-10,  avg # of iterations =  1.0

     negative rho (up, down):  5.979E-02 0.000E+00

     total cpu time spent up to now is    47956.9 secs

     total energy              =  -11682.10494612 Ry
     estimated scf accuracy    <       0.00003906 Ry

     iteration #164     ecut=    80.00 Ry     beta= 0.10
     Davidson diagonalization with overlap
     ethr =  8.54E-10,  avg # of iterations =  1.0

     negative rho (up, down):  5.979E-02 0.000E+00

     total cpu time spent up to now is    48245.7 secs

     total energy              =  -11682.10494625 Ry
     estimated scf accuracy    <       0.00008826 Ry

     iteration #165     ecut=    80.00 Ry     beta= 0.10
     Davidson diagonalization with overlap
     ethr =  8.54E-10,  avg # of iterations =  1.0

     negative rho (up, down):  5.980E-02 0.000E+00

     total cpu time spent up to now is    48533.5 secs

     total energy              =  -11682.10494668 Ry
     estimated scf accuracy    <       0.00003604 Ry

     iteration #166     ecut=    80.00 Ry     beta= 0.10
     Davidson diagonalization with overlap
     ethr =  8.54E-10,  avg # of iterations =  1.0

     negative rho (up, down):  5.979E-02 0.000E+00

     total cpu time spent up to now is    48821.6 secs

     total energy              =  -11682.10494603 Ry
     estimated scf accuracy    <       0.00011666 Ry

     iteration #167     ecut=    80.00 Ry     beta= 0.10
     Davidson diagonalization with overlap
     ethr =  8.54E-10,  avg # of iterations =  1.0

     negative rho (up, down):  5.979E-02 0.000E+00

     total cpu time spent up to now is    49109.3 secs

     total energy              =  -11682.10494618 Ry
     estimated scf accuracy    <       0.00006395 Ry

     iteration #168     ecut=    80.00 Ry     beta= 0.10
     Davidson diagonalization with overlap
     ethr =  8.54E-10,  avg # of iterations =  1.0

     negative rho (up, down):  5.979E-02 0.000E+00

     total cpu time spent up to now is    49397.0 secs

     total energy              =  -11682.10494634 Ry
     estimated scf accuracy    <       0.00006794 Ry

     iteration #169     ecut=    80.00 Ry     beta= 0.10
     Davidson diagonalization with overlap
     ethr =  8.54E-10,  avg # of iterations =  1.0

     negative rho (up, down):  5.980E-02 0.000E+00

     total cpu time spent up to now is    49683.9 secs

     total energy              =  -11682.10494703 Ry
     estimated scf accuracy    <       0.00003351 Ry

     iteration #170     ecut=    80.00 Ry     beta= 0.10
     Davidson diagonalization with overlap
     ethr =  8.54E-10,  avg # of iterations =  1.0

     negative rho (up, down):  5.980E-02 0.000E+00

     total cpu time spent up to now is    49971.4 secs

     total energy              =  -11682.10494705 Ry
     estimated scf accuracy    <       0.00001922 Ry

     iteration #171     ecut=    80.00 Ry     beta= 0.10
     Davidson diagonalization with overlap
     ethr =  8.54E-10,  avg # of iterations =  1.0

     negative rho (up, down):  5.980E-02 0.000E+00

     total cpu time spent up to now is    50258.5 secs

     total energy              =  -11682.10494704 Ry
     estimated scf accuracy    <       0.00002400 Ry

     iteration #172     ecut=    80.00 Ry     beta= 0.10
     Davidson diagonalization with overlap
     ethr =  8.54E-10,  avg # of iterations =  1.0

     negative rho (up, down):  5.980E-02 0.000E+00

     total cpu time spent up to now is    50546.3 secs

     total energy              =  -11682.10494739 Ry
     estimated scf accuracy    <       0.00000924 Ry

     iteration #173     ecut=    80.00 Ry     beta= 0.10
     Davidson diagonalization with overlap
     ethr =  4.94E-10,  avg # of iterations =  1.0

     negative rho (up, down):  5.980E-02 0.000E+00

     total cpu time spent up to now is    50835.9 secs

     total energy              =  -11682.10494748 Ry
     estimated scf accuracy    <       0.00001189 Ry

     iteration #174     ecut=    80.00 Ry     beta= 0.10
     Davidson diagonalization with overlap
     ethr =  4.94E-10,  avg # of iterations =  1.0

     negative rho (up, down):  5.980E-02 0.000E+00

     total cpu time spent up to now is    51122.9 secs

     total energy              =  -11682.10494751 Ry
     estimated scf accuracy    <       0.00002484 Ry

     iteration #175     ecut=    80.00 Ry     beta= 0.10
     Davidson diagonalization with overlap
     ethr =  4.94E-10,  avg # of iterations =  1.0

     negative rho (up, down):  5.980E-02 0.000E+00

     total cpu time spent up to now is    51409.7 secs

     total energy              =  -11682.10494771 Ry
     estimated scf accuracy    <       0.00001062 Ry

     iteration #176     ecut=    80.00 Ry     beta= 0.10
     Davidson diagonalization with overlap
     ethr =  4.94E-10,  avg # of iterations =  1.0

     negative rho (up, down):  5.980E-02 0.000E+00

     total cpu time spent up to now is    51697.5 secs

     total energy              =  -11682.10494745 Ry
     estimated scf accuracy    <       0.00003545 Ry

     iteration #177     ecut=    80.00 Ry     beta= 0.10
     Davidson diagonalization with overlap
     ethr =  4.94E-10,  avg # of iterations =  1.0

     negative rho (up, down):  5.980E-02 0.000E+00

     total cpu time spent up to now is    51984.5 secs

     total energy              =  -11682.10494755 Ry
     estimated scf accuracy    <       0.00003408 Ry

     iteration #178     ecut=    80.00 Ry     beta= 0.10
     Davidson diagonalization with overlap
     ethr =  4.94E-10,  avg # of iterations =  1.0

     negative rho (up, down):  5.980E-02 0.000E+00

     total cpu time spent up to now is    52273.0 secs

     total energy              =  -11682.10494748 Ry
     estimated scf accuracy    <       0.00003990 Ry

     iteration #179     ecut=    80.00 Ry     beta= 0.10
     Davidson diagonalization with overlap
     ethr =  4.94E-10,  avg # of iterations =  1.0

     negative rho (up, down):  5.980E-02 0.000E+00

     total cpu time spent up to now is    52560.0 secs

     total energy              =  -11682.10494780 Ry
     estimated scf accuracy    <       0.00002468 Ry

     iteration #180     ecut=    80.00 Ry     beta= 0.10
     Davidson diagonalization with overlap
     ethr =  4.94E-10,  avg # of iterations =  1.0

     negative rho (up, down):  5.980E-02 0.000E+00

     total cpu time spent up to now is    52847.6 secs

     total energy              =  -11682.10494791 Ry
     estimated scf accuracy    <       0.00001190 Ry

     iteration #181     ecut=    80.00 Ry     beta= 0.10
     Davidson diagonalization with overlap
     ethr =  4.94E-10,  avg # of iterations =  1.0

     negative rho (up, down):  5.980E-02 0.000E+00

     total cpu time spent up to now is    53135.0 secs

     total energy              =  -11682.10494777 Ry
     estimated scf accuracy    <       0.00001731 Ry

     iteration #182     ecut=    80.00 Ry     beta= 0.10
     Davidson diagonalization with overlap
     ethr =  4.94E-10,  avg # of iterations =  1.0

     negative rho (up, down):  5.980E-02 0.000E+00

     total cpu time spent up to now is    53422.7 secs

     total energy              =  -11682.10494798 Ry
     estimated scf accuracy    <       0.00000814 Ry

     iteration #183     ecut=    80.00 Ry     beta= 0.10
     Davidson diagonalization with overlap
     ethr =  4.35E-10,  avg # of iterations =  1.0

     negative rho (up, down):  5.981E-02 0.000E+00

     total cpu time spent up to now is    53710.4 secs

     total energy              =  -11682.10494808 Ry
     estimated scf accuracy    <       0.00000674 Ry

     iteration #184     ecut=    80.00 Ry     beta= 0.10
     Davidson diagonalization with overlap
     ethr =  3.60E-10,  avg # of iterations =  1.0

     negative rho (up, down):  5.981E-02 0.000E+00

     total cpu time spent up to now is    53997.7 secs

     total energy              =  -11682.10494807 Ry
     estimated scf accuracy    <       0.00001024 Ry

     iteration #185     ecut=    80.00 Ry     beta= 0.10
     Davidson diagonalization with overlap
     ethr =  3.60E-10,  avg # of iterations =  1.0

     negative rho (up, down):  5.981E-02 0.000E+00

     total cpu time spent up to now is    54285.5 secs

     total energy              =  -11682.10494818 Ry
     estimated scf accuracy    <       0.00000412 Ry

     iteration #186     ecut=    80.00 Ry     beta= 0.10
     Davidson diagonalization with overlap
     ethr =  2.20E-10,  avg # of iterations =  1.0

     negative rho (up, down):  5.981E-02 0.000E+00

     total cpu time spent up to now is    54573.1 secs

     total energy              =  -11682.10494811 Ry
     estimated scf accuracy    <       0.00001050 Ry

     iteration #187     ecut=    80.00 Ry     beta= 0.10
     Davidson diagonalization with overlap
     ethr =  2.20E-10,  avg # of iterations =  1.0

     negative rho (up, down):  5.981E-02 0.000E+00

     total cpu time spent up to now is    54860.3 secs

     total energy              =  -11682.10494821 Ry
     estimated scf accuracy    <       0.00001332 Ry

     iteration #188     ecut=    80.00 Ry     beta= 0.10
     Davidson diagonalization with overlap
     ethr =  2.20E-10,  avg # of iterations =  1.0

     negative rho (up, down):  5.981E-02 0.000E+00

     total cpu time spent up to now is    55148.2 secs

     total energy              =  -11682.10494817 Ry
     estimated scf accuracy    <       0.00001330 Ry

     iteration #189     ecut=    80.00 Ry     beta= 0.10
     Davidson diagonalization with overlap
     ethr =  2.20E-10,  avg # of iterations =  1.0

     negative rho (up, down):  5.981E-02 0.000E+00

     total cpu time spent up to now is    55436.3 secs

     total energy              =  -11682.10494825 Ry
     estimated scf accuracy    <       0.00001143 Ry

     iteration #190     ecut=    80.00 Ry     beta= 0.10
     Davidson diagonalization with overlap
     ethr =  2.20E-10,  avg # of iterations =  1.0

     negative rho (up, down):  5.981E-02 0.000E+00

     total cpu time spent up to now is    55724.0 secs

     total energy              =  -11682.10494834 Ry
     estimated scf accuracy    <       0.00000566 Ry

     iteration #191     ecut=    80.00 Ry     beta= 0.10
     Davidson diagonalization with overlap
     ethr =  2.20E-10,  avg # of iterations =  1.0

     negative rho (up, down):  5.981E-02 0.000E+00

     total cpu time spent up to now is    56011.3 secs

     total energy              =  -11682.10494822 Ry
     estimated scf accuracy    <       0.00000912 Ry

     iteration #192     ecut=    80.00 Ry     beta= 0.10
     Davidson diagonalization with overlap
     ethr =  2.20E-10,  avg # of iterations =  1.0

     negative rho (up, down):  5.981E-02 0.000E+00

     total cpu time spent up to now is    56298.5 secs

     total energy              =  -11682.10494829 Ry
     estimated scf accuracy    <       0.00000802 Ry

     iteration #193     ecut=    80.00 Ry     beta= 0.10
     Davidson diagonalization with overlap
     ethr =  2.20E-10,  avg # of iterations =  1.0

     negative rho (up, down):  5.981E-02 0.000E+00

     total cpu time spent up to now is    56586.4 secs

     total energy              =  -11682.10494838 Ry
     estimated scf accuracy    <       0.00000665 Ry

     iteration #194     ecut=    80.00 Ry     beta= 0.10
     Davidson diagonalization with overlap
     ethr =  2.20E-10,  avg # of iterations =  1.0

     negative rho (up, down):  5.981E-02 0.000E+00

     total cpu time spent up to now is    56874.0 secs

     total energy              =  -11682.10494836 Ry
     estimated scf accuracy    <       0.00000745 Ry

     iteration #195     ecut=    80.00 Ry     beta= 0.10
     Davidson diagonalization with overlap
     ethr =  2.20E-10,  avg # of iterations =  1.0

     negative rho (up, down):  5.981E-02 0.000E+00

     total cpu time spent up to now is    57162.2 secs

     total energy              =  -11682.10494843 Ry
     estimated scf accuracy    <       0.00000269 Ry

     iteration #196     ecut=    80.00 Ry     beta= 0.10
     Davidson diagonalization with overlap
     ethr =  1.44E-10,  avg # of iterations =  1.0

     negative rho (up, down):  5.981E-02 0.000E+00

     total cpu time spent up to now is    57449.4 secs

     total energy              =  -11682.10494842 Ry
     estimated scf accuracy    <       0.00000415 Ry

     iteration #197     ecut=    80.00 Ry     beta= 0.10
     Davidson diagonalization with overlap
     ethr =  1.44E-10,  avg # of iterations =  1.0

     negative rho (up, down):  5.981E-02 0.000E+00

     total cpu time spent up to now is    57736.8 secs

     total energy              =  -11682.10494847 Ry
     estimated scf accuracy    <       0.00000479 Ry

     iteration #198     ecut=    80.00 Ry     beta= 0.10
     Davidson diagonalization with overlap
     ethr =  1.44E-10,  avg # of iterations =  1.0

     negative rho (up, down):  5.981E-02 0.000E+00

     total cpu time spent up to now is    58024.9 secs

     total energy              =  -11682.10494847 Ry
     estimated scf accuracy    <       0.00000364 Ry

     iteration #199     ecut=    80.00 Ry     beta= 0.10
     Davidson diagonalization with overlap
     ethr =  1.44E-10,  avg # of iterations =  1.0

     negative rho (up, down):  5.981E-02 0.000E+00

     total cpu time spent up to now is    58313.0 secs

     total energy              =  -11682.10494848 Ry
     estimated scf accuracy    <       0.00000408 Ry

     iteration #200     ecut=    80.00 Ry     beta= 0.10
     Davidson diagonalization with overlap
     ethr =  1.44E-10,  avg # of iterations =  1.0

     negative rho (up, down):  5.981E-02 0.000E+00

     total cpu time spent up to now is    58602.7 secs

     total energy              =  -11682.10494853 Ry
     estimated scf accuracy    <       0.00000230 Ry

     iteration #201     ecut=    80.00 Ry     beta= 0.10
     Davidson diagonalization with overlap
     ethr =  1.23E-10,  avg # of iterations =  1.0

     negative rho (up, down):  5.981E-02 0.000E+00

     total cpu time spent up to now is    58890.0 secs

     total energy              =  -11682.10494850 Ry
     estimated scf accuracy    <       0.00000359 Ry

     iteration #202     ecut=    80.00 Ry     beta= 0.10
     Davidson diagonalization with overlap
     ethr =  1.23E-10,  avg # of iterations =  1.0

     negative rho (up, down):  5.981E-02 0.000E+00

     total cpu time spent up to now is    59177.7 secs

     total energy              =  -11682.10494848 Ry
     estimated scf accuracy    <       0.00000562 Ry

     iteration #203     ecut=    80.00 Ry     beta= 0.10
     Davidson diagonalization with overlap
     ethr =  1.23E-10,  avg # of iterations =  1.0

     negative rho (up, down):  5.981E-02 0.000E+00

     total cpu time spent up to now is    59465.5 secs

     total energy              =  -11682.10494854 Ry
     estimated scf accuracy    <       0.00000615 Ry

     iteration #204     ecut=    80.00 Ry     beta= 0.10
     Davidson diagonalization with overlap
     ethr =  1.23E-10,  avg # of iterations =  1.0

     negative rho (up, down):  5.981E-02 0.000E+00

     total cpu time spent up to now is    59752.4 secs

     total energy              =  -11682.10494852 Ry
     estimated scf accuracy    <       0.00000499 Ry

     iteration #205     ecut=    80.00 Ry     beta= 0.10
     Davidson diagonalization with overlap
     ethr =  1.23E-10,  avg # of iterations =  1.0

     negative rho (up, down):  5.981E-02 0.000E+00

     total cpu time spent up to now is    60039.5 secs

     total energy              =  -11682.10494855 Ry
     estimated scf accuracy    <       0.00000246 Ry

     iteration #206     ecut=    80.00 Ry     beta= 0.10
     Davidson diagonalization with overlap
     ethr =  1.23E-10,  avg # of iterations =  1.0

     negative rho (up, down):  5.981E-02 0.000E+00

     total cpu time spent up to now is    60327.2 secs

     total energy              =  -11682.10494856 Ry
     estimated scf accuracy    <       0.00000278 Ry

     iteration #207     ecut=    80.00 Ry     beta= 0.10
     Davidson diagonalization with overlap
     ethr =  1.23E-10,  avg # of iterations =  1.0

     negative rho (up, down):  5.981E-02 0.000E+00

     total cpu time spent up to now is    60614.9 secs

     total energy              =  -11682.10494858 Ry
     estimated scf accuracy    <       0.00000267 Ry

     iteration #208     ecut=    80.00 Ry     beta= 0.10
     Davidson diagonalization with overlap
     ethr =  1.23E-10,  avg # of iterations =  1.0

     negative rho (up, down):  5.981E-02 0.000E+00

     total cpu time spent up to now is    60902.6 secs

     total energy              =  -11682.10494859 Ry
     estimated scf accuracy    <       0.00000145 Ry

     iteration #209     ecut=    80.00 Ry     beta= 0.10
     Davidson diagonalization with overlap
     ethr =  7.76E-11,  avg # of iterations =  1.0

     negative rho (up, down):  5.981E-02 0.000E+00

     total cpu time spent up to now is    61190.7 secs

     total energy              =  -11682.10494859 Ry
     estimated scf accuracy    <       0.00000174 Ry

     iteration #210     ecut=    80.00 Ry     beta= 0.10
     Davidson diagonalization with overlap
     ethr =  7.76E-11,  avg # of iterations =  1.0

     negative rho (up, down):  5.981E-02 0.000E+00

     total cpu time spent up to now is    61478.7 secs

     total energy              =  -11682.10494861 Ry
     estimated scf accuracy    <       0.00000095 Ry

     iteration #211     ecut=    80.00 Ry     beta= 0.10
     Davidson diagonalization with overlap
     ethr =  5.10E-11,  avg # of iterations =  1.0

     negative rho (up, down):  5.981E-02 0.000E+00

     total cpu time spent up to now is    61766.2 secs

     total energy              =  -11682.10494862 Ry
     estimated scf accuracy    <       0.00000118 Ry

     iteration #212     ecut=    80.00 Ry     beta= 0.10
     Davidson diagonalization with overlap
     ethr =  5.10E-11,  avg # of iterations =  1.0

     negative rho (up, down):  5.981E-02 0.000E+00

     total cpu time spent up to now is    62053.5 secs

     total energy              =  -11682.10494860 Ry
     estimated scf accuracy    <       0.00000222 Ry

     iteration #213     ecut=    80.00 Ry     beta= 0.10
     Davidson diagonalization with overlap
     ethr =  5.10E-11,  avg # of iterations =  1.0

     negative rho (up, down):  5.982E-02 0.000E+00

     total cpu time spent up to now is    62341.0 secs

     total energy              =  -11682.10494862 Ry
     estimated scf accuracy    <       0.00000363 Ry

     iteration #214     ecut=    80.00 Ry     beta= 0.10
     Davidson diagonalization with overlap
     ethr =  5.10E-11,  avg # of iterations =  1.0

     negative rho (up, down):  5.981E-02 0.000E+00

     total cpu time spent up to now is    62628.3 secs

     total energy              =  -11682.10494861 Ry
     estimated scf accuracy    <       0.00000230 Ry

     iteration #215     ecut=    80.00 Ry     beta= 0.10
     Davidson diagonalization with overlap
     ethr =  5.10E-11,  avg # of iterations =  1.0

     negative rho (up, down):  5.981E-02 0.000E+00

     total cpu time spent up to now is    62916.2 secs

     total energy              =  -11682.10494862 Ry
     estimated scf accuracy    <       0.00000217 Ry

     iteration #216     ecut=    80.00 Ry     beta= 0.10
     Davidson diagonalization with overlap
     ethr =  5.10E-11,  avg # of iterations =  1.0

     negative rho (up, down):  5.982E-02 0.000E+00

     total cpu time spent up to now is    63203.8 secs

     total energy              =  -11682.10494862 Ry
     estimated scf accuracy    <       0.00000252 Ry

     iteration #217     ecut=    80.00 Ry     beta= 0.10
     Davidson diagonalization with overlap
     ethr =  5.10E-11,  avg # of iterations =  1.0

     negative rho (up, down):  5.982E-02 0.000E+00

     total cpu time spent up to now is    63491.4 secs

     total energy              =  -11682.10494863 Ry
     estimated scf accuracy    <       0.00000263 Ry

     iteration #218     ecut=    80.00 Ry     beta= 0.10
     Davidson diagonalization with overlap
     ethr =  5.10E-11,  avg # of iterations =  1.0

     negative rho (up, down):  5.982E-02 0.000E+00

     total cpu time spent up to now is    63779.5 secs

     total energy              =  -11682.10494864 Ry
     estimated scf accuracy    <       0.00000099 Ry

     iteration #219     ecut=    80.00 Ry     beta= 0.10
     Davidson diagonalization with overlap
     ethr =  5.10E-11,  avg # of iterations =  1.0

     negative rho (up, down):  5.982E-02 0.000E+00

     total cpu time spent up to now is    64068.7 secs

     total energy              =  -11682.10494864 Ry
     estimated scf accuracy    <       0.00000114 Ry

     iteration #220     ecut=    80.00 Ry     beta= 0.10
     Davidson diagonalization with overlap
     ethr =  5.10E-11,  avg # of iterations =  1.0

     negative rho (up, down):  5.982E-02 0.000E+00

     total cpu time spent up to now is    64355.8 secs

     total energy              =  -11682.10494865 Ry
     estimated scf accuracy    <       0.00000054 Ry

     iteration #221     ecut=    80.00 Ry     beta= 0.10
     Davidson diagonalization with overlap
     ethr =  2.86E-11,  avg # of iterations =  1.0

     negative rho (up, down):  5.982E-02 0.000E+00

     total cpu time spent up to now is    64644.1 secs

     total energy              =  -11682.10494866 Ry
     estimated scf accuracy    <       0.00000039 Ry

     iteration #222     ecut=    80.00 Ry     beta= 0.10
     Davidson diagonalization with overlap
     ethr =  2.08E-11,  avg # of iterations =  1.0

     negative rho (up, down):  5.982E-02 0.000E+00

     total cpu time spent up to now is    64932.5 secs

     total energy              =  -11682.10494866 Ry
     estimated scf accuracy    <       0.00000057 Ry

     iteration #223     ecut=    80.00 Ry     beta= 0.10
     Davidson diagonalization with overlap
     ethr =  2.08E-11,  avg # of iterations =  1.0

     negative rho (up, down):  5.982E-02 0.000E+00

     total cpu time spent up to now is    65220.4 secs

     total energy              =  -11682.10494866 Ry
     estimated scf accuracy    <       0.00000142 Ry

     iteration #224     ecut=    80.00 Ry     beta= 0.10
     Davidson diagonalization with overlap
     ethr =  2.08E-11,  avg # of iterations =  1.0

     negative rho (up, down):  5.982E-02 0.000E+00

     total cpu time spent up to now is    65507.8 secs

     total energy              =  -11682.10494866 Ry
     estimated scf accuracy    <       0.00000088 Ry

     iteration #225     ecut=    80.00 Ry     beta= 0.10
     Davidson diagonalization with overlap
     ethr =  2.08E-11,  avg # of iterations =  1.0

     negative rho (up, down):  5.982E-02 0.000E+00

     total cpu time spent up to now is    65795.0 secs

     total energy              =  -11682.10494865 Ry
     estimated scf accuracy    <       0.00000141 Ry

     iteration #226     ecut=    80.00 Ry     beta= 0.10
     Davidson diagonalization with overlap
     ethr =  2.08E-11,  avg # of iterations =  1.0

     negative rho (up, down):  5.982E-02 0.000E+00

     total cpu time spent up to now is    66082.5 secs

     total energy              =  -11682.10494866 Ry
     estimated scf accuracy    <       0.00000198 Ry

     iteration #227     ecut=    80.00 Ry     beta= 0.10
     Davidson diagonalization with overlap
     ethr =  2.08E-11,  avg # of iterations =  1.0

     negative rho (up, down):  5.982E-02 0.000E+00

     total cpu time spent up to now is    66370.6 secs

     total energy              =  -11682.10494866 Ry
     estimated scf accuracy    <       0.00000219 Ry

     iteration #228     ecut=    80.00 Ry     beta= 0.10
     Davidson diagonalization with overlap
     ethr =  2.08E-11,  avg # of iterations =  1.0

     negative rho (up, down):  5.982E-02 0.000E+00

     total cpu time spent up to now is    66658.1 secs

     total energy              =  -11682.10494867 Ry
     estimated scf accuracy    <       0.00000066 Ry

     iteration #229     ecut=    80.00 Ry     beta= 0.10
     Davidson diagonalization with overlap
     ethr =  2.08E-11,  avg # of iterations =  1.0

     negative rho (up, down):  5.982E-02 0.000E+00

     total cpu time spent up to now is    66945.9 secs

     total energy              =  -11682.10494866 Ry
     estimated scf accuracy    <       0.00000084 Ry

     iteration #230     ecut=    80.00 Ry     beta= 0.10
     Davidson diagonalization with overlap
     ethr =  2.08E-11,  avg # of iterations =  1.0

     negative rho (up, down):  5.982E-02 0.000E+00

     total cpu time spent up to now is    67233.9 secs

     total energy              =  -11682.10494867 Ry
     estimated scf accuracy    <       0.00000047 Ry

     iteration #231     ecut=    80.00 Ry     beta= 0.10
     Davidson diagonalization with overlap
     ethr =  2.08E-11,  avg # of iterations =  1.0

     negative rho (up, down):  5.982E-02 0.000E+00

     total cpu time spent up to now is    67521.5 secs

     total energy              =  -11682.10494867 Ry
     estimated scf accuracy    <       0.00000020 Ry

     iteration #232     ecut=    80.00 Ry     beta= 0.10
     Davidson diagonalization with overlap
     ethr =  1.06E-11,  avg # of iterations =  1.0

     negative rho (up, down):  5.982E-02 0.000E+00

     total cpu time spent up to now is    67809.4 secs

     total energy              =  -11682.10494867 Ry
     estimated scf accuracy    <       0.00000020 Ry

     iteration #233     ecut=    80.00 Ry     beta= 0.10
     Davidson diagonalization with overlap
     ethr =  1.06E-11,  avg # of iterations =  1.0

     negative rho (up, down):  5.982E-02 0.000E+00

     total cpu time spent up to now is    68096.8 secs

     total energy              =  -11682.10494867 Ry
     estimated scf accuracy    <       0.00000049 Ry

     iteration #234     ecut=    80.00 Ry     beta= 0.10
     Davidson diagonalization with overlap
     ethr =  1.06E-11,  avg # of iterations =  1.0

     negative rho (up, down):  5.982E-02 0.000E+00

     total cpu time spent up to now is    68384.0 secs

     total energy              =  -11682.10494867 Ry
     estimated scf accuracy    <       0.00000030 Ry

     iteration #235     ecut=    80.00 Ry     beta= 0.10
     Davidson diagonalization with overlap
     ethr =  1.06E-11,  avg # of iterations =  1.0

     negative rho (up, down):  5.982E-02 0.000E+00

     total cpu time spent up to now is    68671.9 secs

     total energy              =  -11682.10494867 Ry
     estimated scf accuracy    <       0.00000059 Ry

     iteration #236     ecut=    80.00 Ry     beta= 0.10
     Davidson diagonalization with overlap
     ethr =  1.06E-11,  avg # of iterations =  1.0

     negative rho (up, down):  5.982E-02 0.000E+00

     total cpu time spent up to now is    68960.8 secs

     total energy              =  -11682.10494867 Ry
     estimated scf accuracy    <       0.00000094 Ry

     iteration #237     ecut=    80.00 Ry     beta= 0.10
     Davidson diagonalization with overlap
     ethr =  1.06E-11,  avg # of iterations =  1.0

     negative rho (up, down):  5.982E-02 0.000E+00

     total cpu time spent up to now is    69248.7 secs

     total energy              =  -11682.10494867 Ry
     estimated scf accuracy    <       0.00000097 Ry

     iteration #238     ecut=    80.00 Ry     beta= 0.10
     Davidson diagonalization with overlap
     ethr =  1.06E-11,  avg # of iterations =  1.0

     negative rho (up, down):  5.982E-02 0.000E+00

     total cpu time spent up to now is    69536.3 secs

     total energy              =  -11682.10494867 Ry
     estimated scf accuracy    <       0.00000033 Ry

     iteration #239     ecut=    80.00 Ry     beta= 0.10
     Davidson diagonalization with overlap
     ethr =  1.06E-11,  avg # of iterations =  1.0

     negative rho (up, down):  5.982E-02 0.000E+00

     total cpu time spent up to now is    69825.4 secs

     total energy              =  -11682.10494867 Ry
     estimated scf accuracy    <       0.00000052 Ry

     iteration #240     ecut=    80.00 Ry     beta= 0.10
     Davidson diagonalization with overlap
     ethr =  1.06E-11,  avg # of iterations =  1.0

     negative rho (up, down):  5.982E-02 0.000E+00

     total cpu time spent up to now is    70113.3 secs

     total energy              =  -11682.10494867 Ry
     estimated scf accuracy    <       0.00000048 Ry

     iteration #241     ecut=    80.00 Ry     beta= 0.10
     Davidson diagonalization with overlap
     ethr =  1.06E-11,  avg # of iterations =  1.0

     negative rho (up, down):  5.982E-02 0.000E+00

     total cpu time spent up to now is    70401.9 secs

     total energy              =  -11682.10494868 Ry
     estimated scf accuracy    <       0.00000019 Ry

     iteration #242     ecut=    80.00 Ry     beta= 0.10
     Davidson diagonalization with overlap
     ethr =  9.96E-12,  avg # of iterations =  1.0

     negative rho (up, down):  5.982E-02 0.000E+00

     total cpu time spent up to now is    70690.0 secs

     total energy              =  -11682.10494868 Ry
     estimated scf accuracy    <       0.00000012 Ry

     iteration #243     ecut=    80.00 Ry     beta= 0.10
     Davidson diagonalization with overlap
     ethr =  6.40E-12,  avg # of iterations =  1.0

     negative rho (up, down):  5.982E-02 0.000E+00

     total cpu time spent up to now is    70977.5 secs

     total energy              =  -11682.10494867 Ry
     estimated scf accuracy    <       0.00000025 Ry

     iteration #244     ecut=    80.00 Ry     beta= 0.10
     Davidson diagonalization with overlap
     ethr =  6.40E-12,  avg # of iterations =  1.0

     negative rho (up, down):  5.982E-02 0.000E+00

     total cpu time spent up to now is    71265.7 secs

     total energy              =  -11682.10494868 Ry
     estimated scf accuracy    <       0.00000012 Ry

     iteration #245     ecut=    80.00 Ry     beta= 0.10
     Davidson diagonalization with overlap
     ethr =  6.23E-12,  avg # of iterations =  1.0

     negative rho (up, down):  5.982E-02 0.000E+00

     total cpu time spent up to now is    71552.9 secs

     total energy              =  -11682.10494868 Ry
     estimated scf accuracy    <       0.00000018 Ry

     iteration #246     ecut=    80.00 Ry     beta= 0.10
     Davidson diagonalization with overlap
     ethr =  6.23E-12,  avg # of iterations =  1.0

     negative rho (up, down):  5.982E-02 0.000E+00

     total cpu time spent up to now is    71840.5 secs

     total energy              =  -11682.10494867 Ry
     estimated scf accuracy    <       0.00000029 Ry

     iteration #247     ecut=    80.00 Ry     beta= 0.10
     Davidson diagonalization with overlap
     ethr =  6.23E-12,  avg # of iterations =  1.0

     negative rho (up, down):  5.982E-02 0.000E+00

     total cpu time spent up to now is    72128.6 secs

     total energy              =  -11682.10494868 Ry
     estimated scf accuracy    <       0.00000028 Ry

     iteration #248     ecut=    80.00 Ry     beta= 0.10
     Davidson diagonalization with overlap
     ethr =  6.23E-12,  avg # of iterations =  1.0

     negative rho (up, down):  5.982E-02 0.000E+00

     total cpu time spent up to now is    72416.3 secs

     total energy              =  -11682.10494868 Ry
     estimated scf accuracy    <       0.00000013 Ry

     iteration #249     ecut=    80.00 Ry     beta= 0.10
     Davidson diagonalization with overlap
     ethr =  6.23E-12,  avg # of iterations =  1.0

     negative rho (up, down):  5.982E-02 0.000E+00

     total cpu time spent up to now is    72704.8 secs

     total energy              =  -11682.10494867 Ry
     estimated scf accuracy    <       0.00000025 Ry

     iteration #250     ecut=    80.00 Ry     beta= 0.10
     Davidson diagonalization with overlap
     ethr =  6.23E-12,  avg # of iterations =  1.0

     negative rho (up, down):  5.982E-02 0.000E+00

     total cpu time spent up to now is    72992.9 secs

     total energy              =  -11682.10494868 Ry
     estimated scf accuracy    <       0.00000033 Ry

     iteration #251     ecut=    80.00 Ry     beta= 0.10
     Davidson diagonalization with overlap
     ethr =  6.23E-12,  avg # of iterations =  1.0

     negative rho (up, down):  5.982E-02 0.000E+00

     total cpu time spent up to now is    73280.6 secs

     total energy              =  -11682.10494868 Ry
     estimated scf accuracy    <       0.00000019 Ry

     iteration #252     ecut=    80.00 Ry     beta= 0.10
     Davidson diagonalization with overlap
     ethr =  6.23E-12,  avg # of iterations =  1.0

     negative rho (up, down):  5.982E-02 0.000E+00

     total cpu time spent up to now is    73568.0 secs

     total energy              =  -11682.10494868 Ry
     estimated scf accuracy    <       0.00000009 Ry

     iteration #253     ecut=    80.00 Ry     beta= 0.10
     Davidson diagonalization with overlap
     ethr =  4.88E-12,  avg # of iterations =  1.0

     negative rho (up, down):  5.982E-02 0.000E+00

     total cpu time spent up to now is    73856.0 secs

     total energy              =  -11682.10494867 Ry
     estimated scf accuracy    <       0.00000018 Ry

     iteration #254     ecut=    80.00 Ry     beta= 0.10
     Davidson diagonalization with overlap
     ethr =  4.88E-12,  avg # of iterations =  1.0

     negative rho (up, down):  5.982E-02 0.000E+00

     total cpu time spent up to now is    74143.5 secs

     total energy              =  -11682.10494868 Ry
     estimated scf accuracy    <       0.00000007 Ry

     iteration #255     ecut=    80.00 Ry     beta= 0.10
     Davidson diagonalization with overlap
     ethr =  3.88E-12,  avg # of iterations =  1.0

     negative rho (up, down):  5.982E-02 0.000E+00

     total cpu time spent up to now is    74430.8 secs

     total energy              =  -11682.10494868 Ry
     estimated scf accuracy    <       0.00000007 Ry

     iteration #256     ecut=    80.00 Ry     beta= 0.10
     Davidson diagonalization with overlap
     ethr =  3.54E-12,  avg # of iterations =  1.0

     negative rho (up, down):  5.982E-02 0.000E+00

     total cpu time spent up to now is    74717.9 secs

     total energy              =  -11682.10494868 Ry
     estimated scf accuracy    <       0.00000010 Ry

     iteration #257     ecut=    80.00 Ry     beta= 0.10
     Davidson diagonalization with overlap
     ethr =  3.54E-12,  avg # of iterations =  1.0

     negative rho (up, down):  5.982E-02 0.000E+00

     total cpu time spent up to now is    75005.0 secs

     total energy              =  -11682.10494867 Ry
     estimated scf accuracy    <       0.00000009 Ry

     iteration #258     ecut=    80.00 Ry     beta= 0.10
     Davidson diagonalization with overlap
     ethr =  3.54E-12,  avg # of iterations =  1.0

     negative rho (up, down):  5.982E-02 0.000E+00

     total cpu time spent up to now is    75292.4 secs

     total energy              =  -11682.10494868 Ry
     estimated scf accuracy    <       0.00000005 Ry

     iteration #259     ecut=    80.00 Ry     beta= 0.10
     Davidson diagonalization with overlap
     ethr =  2.81E-12,  avg # of iterations =  1.0

     negative rho (up, down):  5.982E-02 0.000E+00

     total cpu time spent up to now is    75579.3 secs

     total energy              =  -11682.10494867 Ry
     estimated scf accuracy    <       0.00000010 Ry

     iteration #260     ecut=    80.00 Ry     beta= 0.10
     Davidson diagonalization with overlap
     ethr =  2.81E-12,  avg # of iterations =  1.0

     negative rho (up, down):  5.982E-02 0.000E+00

     total cpu time spent up to now is    75867.1 secs

     total energy              =  -11682.10494867 Ry
     estimated scf accuracy    <       0.00000013 Ry

     iteration #261     ecut=    80.00 Ry     beta= 0.10
     Davidson diagonalization with overlap
     ethr =  2.81E-12,  avg # of iterations =  1.0

     negative rho (up, down):  5.982E-02 0.000E+00

     total cpu time spent up to now is    76155.5 secs

     total energy              =  -11682.10494867 Ry
     estimated scf accuracy    <       0.00000013 Ry

     iteration #262     ecut=    80.00 Ry     beta= 0.10
     Davidson diagonalization with overlap
     ethr =  2.81E-12,  avg # of iterations =  1.0

     negative rho (up, down):  5.982E-02 0.000E+00

     total cpu time spent up to now is    76443.3 secs

     total energy              =  -11682.10494867 Ry
     estimated scf accuracy    <       0.00000006 Ry

     iteration #263     ecut=    80.00 Ry     beta= 0.10
     Davidson diagonalization with overlap
     ethr =  2.81E-12,  avg # of iterations =  1.0

     negative rho (up, down):  5.982E-02 0.000E+00

     total cpu time spent up to now is    76730.7 secs

     total energy              =  -11682.10494867 Ry
     estimated scf accuracy    <       0.00000012 Ry

     iteration #264     ecut=    80.00 Ry     beta= 0.10
     Davidson diagonalization with overlap
     ethr =  2.81E-12,  avg # of iterations =  1.0

     negative rho (up, down):  5.982E-02 0.000E+00

     total cpu time spent up to now is    77017.9 secs

     total energy              =  -11682.10494867 Ry
     estimated scf accuracy    <       0.00000007 Ry

     iteration #265     ecut=    80.00 Ry     beta= 0.10
     Davidson diagonalization with overlap
     ethr =  2.81E-12,  avg # of iterations =  1.0

     negative rho (up, down):  5.982E-02 0.000E+00

     total cpu time spent up to now is    77305.6 secs

     total energy              =  -11682.10494867 Ry
     estimated scf accuracy    <       0.00000005 Ry

     iteration #266     ecut=    80.00 Ry     beta= 0.10
     Davidson diagonalization with overlap
     ethr =  2.67E-12,  avg # of iterations =  1.0

     negative rho (up, down):  5.982E-02 0.000E+00

     total cpu time spent up to now is    77592.1 secs

     total energy              =  -11682.10494867 Ry
     estimated scf accuracy    <       0.00000008 Ry

     iteration #267     ecut=    80.00 Ry     beta= 0.10
     Davidson diagonalization with overlap
     ethr =  2.67E-12,  avg # of iterations =  1.0

     negative rho (up, down):  5.982E-02 0.000E+00

     total cpu time spent up to now is    77880.7 secs

     total energy              =  -11682.10494867 Ry
     estimated scf accuracy    <       0.00000005 Ry

     iteration #268     ecut=    80.00 Ry     beta= 0.10
     Davidson diagonalization with overlap
     ethr =  2.45E-12,  avg # of iterations =  1.0

     negative rho (up, down):  5.982E-02 0.000E+00

     total cpu time spent up to now is    78168.5 secs

     total energy              =  -11682.10494867 Ry
     estimated scf accuracy    <       0.00000002 Ry

     iteration #269     ecut=    80.00 Ry     beta= 0.10
     Davidson diagonalization with overlap
     ethr =  1.33E-12,  avg # of iterations =  1.0

     negative rho (up, down):  5.982E-02 0.000E+00

     total cpu time spent up to now is    78456.2 secs

     total energy              =  -11682.10494867 Ry
     estimated scf accuracy    <       0.00000003 Ry

     iteration #270     ecut=    80.00 Ry     beta= 0.10
     Davidson diagonalization with overlap
     ethr =  1.33E-12,  avg # of iterations =  1.0

     negative rho (up, down):  5.982E-02 0.000E+00

     total cpu time spent up to now is    78744.3 secs

     total energy              =  -11682.10494867 Ry
     estimated scf accuracy    <       0.00000003 Ry

     iteration #271     ecut=    80.00 Ry     beta= 0.10
     Davidson diagonalization with overlap
     ethr =  1.33E-12,  avg # of iterations =  1.0

     negative rho (up, down):  5.982E-02 0.000E+00

     total cpu time spent up to now is    79032.1 secs

     total energy              =  -11682.10494867 Ry
     estimated scf accuracy    <       0.00000006 Ry

     iteration #272     ecut=    80.00 Ry     beta= 0.10
     Davidson diagonalization with overlap
     ethr =  1.33E-12,  avg # of iterations =  1.0

     negative rho (up, down):  5.982E-02 0.000E+00

     total cpu time spent up to now is    79319.7 secs

     total energy              =  -11682.10494867 Ry
     estimated scf accuracy    <       0.00000003 Ry

     iteration #273     ecut=    80.00 Ry     beta= 0.10
     Davidson diagonalization with overlap
     ethr =  1.33E-12,  avg # of iterations =  1.0

     negative rho (up, down):  5.982E-02 0.000E+00

     total cpu time spent up to now is    79606.8 secs

     total energy              =  -11682.10494867 Ry
     estimated scf accuracy    <       0.00000006 Ry

     iteration #274     ecut=    80.00 Ry     beta= 0.10
     Davidson diagonalization with overlap
     ethr =  1.33E-12,  avg # of iterations =  1.0

     negative rho (up, down):  5.982E-02 0.000E+00

     total cpu time spent up to now is    79895.0 secs

     total energy              =  -11682.10494867 Ry
     estimated scf accuracy    <       0.00000008 Ry

     iteration #275     ecut=    80.00 Ry     beta= 0.10
     Davidson diagonalization with overlap
     ethr =  1.33E-12,  avg # of iterations =  1.0

     negative rho (up, down):  5.982E-02 0.000E+00

     total cpu time spent up to now is    80182.7 secs

     total energy              =  -11682.10494867 Ry
     estimated scf accuracy    <       0.00000005 Ry

     iteration #276     ecut=    80.00 Ry     beta= 0.10
     Davidson diagonalization with overlap
     ethr =  1.33E-12,  avg # of iterations =  1.0

     negative rho (up, down):  5.982E-02 0.000E+00

     total cpu time spent up to now is    80470.7 secs

     total energy              =  -11682.10494867 Ry
     estimated scf accuracy    <       0.00000007 Ry

     iteration #277     ecut=    80.00 Ry     beta= 0.10
     Davidson diagonalization with overlap
     ethr =  1.33E-12,  avg # of iterations =  1.0

     negative rho (up, down):  5.982E-02 0.000E+00

     total cpu time spent up to now is    80758.1 secs

     total energy              =  -11682.10494867 Ry
     estimated scf accuracy    <       0.00000003 Ry

     iteration #278     ecut=    80.00 Ry     beta= 0.10
     Davidson diagonalization with overlap
     ethr =  1.33E-12,  avg # of iterations =  1.0

     negative rho (up, down):  5.982E-02 0.000E+00

     total cpu time spent up to now is    81045.1 secs

     total energy              =  -11682.10494867 Ry
     estimated scf accuracy    <       0.00000002 Ry

     iteration #279     ecut=    80.00 Ry     beta= 0.10
     Davidson diagonalization with overlap
     ethr =  9.21E-13,  avg # of iterations =  1.0

     negative rho (up, down):  5.982E-02 0.000E+00

     total cpu time spent up to now is    81332.7 secs

     total energy              =  -11682.10494867 Ry
     estimated scf accuracy    <       0.00000001 Ry

     iteration #280     ecut=    80.00 Ry     beta= 0.10
     Davidson diagonalization with overlap
     ethr =  6.84E-13,  avg # of iterations =  1.0

     negative rho (up, down):  5.982E-02 0.000E+00

     total cpu time spent up to now is    81620.5 secs

     End of self-consistent calculation

          k = 0.0000 0.0000 0.0000 (****** PWs)   bands (ev):

   -58.1049 -56.3249 -55.9840 -55.9559 -55.7319 -55.7143 -55.1529 -55.1074
   -54.8821 -54.6270 -53.9889 -30.0315 -30.0143 -29.9763 -28.2758 -28.2330
   -28.1918 -27.9173 -27.9096 -27.8925 -27.8740 -27.8698 -27.8510 -27.6820
   -27.6650 -27.6374 -27.6162 -27.6000 -27.5877 -27.2544 -27.1236 -27.0636
   -27.0600 -27.0289 -26.9995 -26.9790 -26.8746 -26.8230 -26.7824 -26.6034
   -26.5647 -26.5095 -26.3780 -26.2501 -25.9958 -25.9396 -25.9117 -25.8938
   -25.8912 -25.8805 -25.7428 -25.7016 -25.6822 -25.6753 -25.5764 -25.4898
   -25.4207 -25.3600 -25.3112 -25.2540 -25.2330 -25.1790 -25.1548 -25.1375
   -25.1251 -25.1178 -25.0695 -25.0296 -25.0206 -25.0089 -24.9739 -24.9730
   -24.9230 -24.9090 -24.8807 -24.8572 -24.8311 -24.7919 -24.7680 -24.7497
   -24.7320 -24.7285 -24.6947 -24.6735 -24.6585 -24.6343 -24.6109 -24.5774
   -24.5639 -24.5289 -24.5252 -24.5009 -24.4868 -24.4600 -24.4493 -24.4276
   -24.4147 -24.3883 -24.3812 -24.3677 -24.3398 -24.3338 -24.3074 -24.2965
   -24.2744 -24.2483 -24.2283 -24.2203 -24.2040 -24.1845 -24.1706 -24.1438
   -24.1127 -24.0985 -24.0857 -24.0641 -24.0481 -24.0216 -23.9926 -23.9892
   -23.9357 -23.9147 -23.9114 -23.8954 -23.8788 -23.8632 -23.8540 -23.8416
   -23.8269 -23.8213 -23.8145 -23.8066 -23.7983 -23.7883 -23.7585 -23.7446
   -23.7305 -23.7241 -23.7109 -23.6845 -23.6790 -23.6657 -23.6468 -23.6371
   -23.6258 -23.6132 -23.5963 -23.5648 -23.5385 -23.5284 -23.5115 -23.5093
   -23.4818 -23.4676 -23.4637 -23.4306 -23.4239 -23.4134 -23.4015 -23.3830
   -23.3724 -23.3427 -23.3348 -23.3171 -23.3075 -23.2782 -23.2693 -23.2478
   -23.2470 -23.2228 -23.2112 -23.2032 -23.1842 -23.1747 -23.1735 -23.1583
   -23.1409 -23.1326 -23.1177 -23.0803 -23.0525 -23.0326 -23.0278 -23.0120
   -23.0039 -22.9815 -22.9680 -22.9553 -22.9501 -22.9227 -22.9151 -22.8971
   -22.8894 -22.8715 -22.8353 -22.8285 -22.8251 -22.8192 -22.7880 -22.7828
   -22.7619 -22.6850 -22.6513 -22.6410 -22.5977 -22.5747 -22.5251 -22.5170
   -22.5114 -22.5071 -22.5031 -22.4482 -22.3869 -22.3665 -22.3604 -22.3408
   -22.3300 -22.2949 -22.2344 -22.1517 -22.1070 -22.0984 -22.0562 -21.9596
   -21.7721 -21.7027 -21.6983 -21.6772 -21.6283 -21.5751 -21.5524 -21.5156
   -21.4521 -21.4289 -20.7644 -20.7183 -20.6851 -20.6760 -20.6744 -20.6475
   -20.6452 -20.5930 -20.5896 -20.4843 -20.4836 -20.2859 -20.2027 -20.1949
   -20.1355 -19.9505 -19.8569 -19.8547 -19.8525 -19.8401 -19.8353 -19.8344
   -19.8311 -19.8045 -19.7967 -19.7889 -19.7247 -19.0216 -18.6452 -17.7965
   -17.0464 -16.2449 -15.4707 -15.3319 -15.2701 -15.1985 -15.0903 -15.0104
   -14.9753 -14.9063 -14.8713 -14.8277 -14.7782 -14.7107 -14.7022 -14.6519
   -14.6267 -14.5405 -14.4623 -14.4061 -14.3317 -14.3028 -14.2498 -14.2197
   -14.1510 -14.1361 -14.1276 -14.0784 -14.0410 -14.0247 -13.9992 -13.9356
   -13.9161 -13.8710 -13.8649 -13.8088 -13.7803 -13.7257 -13.6572 -13.6433
   -13.6175 -13.5660 -13.5612 -13.5427 -13.4942 -13.4429 -13.4185 -13.4074
   -13.3628 -13.3386 -13.3321 -13.2732 -13.2502 -13.2092 -13.2017 -13.1727
   -13.1291 -13.1119 -13.0829 -13.0478 -13.0261 -13.0048 -12.9702 -12.9470
   -12.9222 -12.8940 -12.8552 -12.8446 -12.7884 -12.7694 -12.7477 -12.6703
   -12.6594 -12.6393 -12.6029 -12.5618 -12.5347 -12.4951 -12.4807 -12.4473
   -12.4377 -12.4196 -12.4105 -12.3493 -12.3312 -12.2865 -12.2665 -12.2462
   -12.2050 -12.1617 -12.1421 -12.1196 -12.0981 -12.0684 -12.0365 -12.0078
   -11.9864 -11.9731 -11.9472 -11.9284 -11.9046 -11.8694 -11.8614 -11.8257
   -11.8219 -11.8128 -11.7663 -11.7549 -11.7220 -11.7179 -11.7024 -11.6871
   -11.6648 -11.6560 -11.6377 -11.6150 -11.6017 -11.5842 -11.5802 -11.5638
   -11.5443 -11.5331 -11.5053 -11.4948 -11.4910 -11.4523 -11.4311 -11.4152
   -11.3940 -11.3853 -11.3687 -11.3352 -11.3166 -11.2964 -11.2925 -11.2857
   -11.2634 -11.2590 -11.2399 -11.2186 -11.2041 -11.1895 -11.1858 -11.1603
   -11.1110 -11.1070 -11.0818 -11.0703 -11.0473 -11.0209 -11.0138 -11.0034
   -11.0006 -10.9961 -10.9755 -10.9717 -10.9494 -10.9428 -10.9314 -10.9000
   -10.8977 -10.8601 -10.8392 -10.8293 -10.8129 -10.8099 -10.7815 -10.7731
   -10.7346 -10.7155 -10.7026 -10.6835 -10.6675 -10.6589 -10.6386 -10.6098
   -10.5948 -10.5815 -10.5505 -10.5102 -10.4989 -10.4531 -10.4308 -10.4161
   -10.4021 -10.3535 -10.3317 -10.3264 -10.3017 -10.2840 -10.2309 -10.1955
   -10.1924 -10.1676 -10.1504 -10.1104 -10.0882 -10.0318 -10.0179  -9.9952
    -9.9804  -9.9554  -9.9335  -9.9187  -9.9052  -9.8836  -9.8590  -9.8411
    -9.7873  -9.7682  -9.7114  -9.7068  -9.6892  -9.6589  -9.6493  -9.6328
    -9.6158  -9.6041  -9.5858  -9.5759  -9.5398  -9.5183  -9.4930  -9.4842
    -9.4794  -9.4585  -9.4553  -9.4479  -9.4447  -9.4318  -9.4234  -9.4105
    -9.3672  -9.3511  -9.3436  -9.3099  -9.2987  -9.2903  -9.2675  -9.2614
    -9.2420  -9.2282  -9.1984  -9.1791  -9.1629  -9.1389  -9.1361  -9.0964
    -9.0886  -9.0626  -9.0325  -9.0300  -9.0018  -8.9855  -8.9770  -8.9683
    -8.9587  -8.9437  -8.9255  -8.9038  -8.8920  -8.8831  -8.8583  -8.8553
    -8.8431  -8.8294  -8.8204  -8.8053  -8.7854  -8.7807  -8.7761  -8.7629
    -8.7592  -8.7424  -8.7137  -8.7071  -8.6981  -8.6916  -8.6908  -8.6883
    -8.6721  -8.6604  -8.6535  -8.6344  -8.6310  -8.6205  -8.6101  -8.5939
    -8.5838  -8.5773  -8.5638  -8.5527  -8.5377  -8.5157  -8.5113  -8.5057
    -8.4938  -8.4870  -8.4811  -8.4669  -8.4535  -8.4477  -8.4322  -8.4243
    -8.4176  -8.4055  -8.3895  -8.3879  -8.3835  -8.3689  -8.3568  -8.3425
    -8.3362  -8.3238  -8.3138  -8.2973  -8.2921  -8.2839  -8.2663  -8.2617
    -8.2607  -8.2489  -8.2290  -8.2106  -8.2033  -8.1918  -8.1841  -8.1694
    -8.1580  -8.1556  -8.1487  -8.1424  -8.1401  -8.1257  -8.1168  -8.1086
    -8.1009  -8.0794  -8.0701  -8.0639  -8.0601  -8.0373  -8.0325  -8.0288
    -8.0057  -8.0019  -7.9893  -7.9786  -7.9714  -7.9594  -7.9552  -7.9432
    -7.9421  -7.9266  -7.9209  -7.9119  -7.8980  -7.8938  -7.8835  -7.8700
    -7.8665  -7.8599  -7.8537  -7.8383  -7.8364  -7.8227  -7.8143  -7.8002
    -7.7935  -7.7927  -7.7735  -7.7665  -7.7612  -7.7468  -7.7422  -7.7339
    -7.7190  -7.7166  -7.7049  -7.6942  -7.6922  -7.6738  -7.6713  -7.6583
    -7.6560  -7.6329  -7.6256  -7.6213  -7.6136  -7.6024  -7.5882  -7.5866
    -7.5708  -7.5663  -7.5611  -7.5456  -7.5388  -7.5355  -7.5274  -7.5210
    -7.5054  -7.4982  -7.4924  -7.4839  -7.4782  -7.4483  -7.4344  -7.4197
    -7.4130  -7.4107  -7.4060  -7.3949  -7.3824  -7.3758  -7.3673  -7.3519
    -7.3445  -7.3313  -7.3238  -7.3079  -7.3048  -7.3028  -7.2941  -7.2834
    -7.2730  -7.2603  -7.2504  -7.2397  -7.2331  -7.2144  -7.2046  -7.1966
    -7.1841  -7.1804  -7.1686  -7.1591  -7.1481  -7.1408  -7.1285  -7.1247
    -7.1141  -7.1096  -7.1016  -7.0857  -7.0780  -7.0728  -7.0572  -7.0437
    -7.0266  -7.0185  -7.0078  -6.9953  -6.9845  -6.9741  -6.9649  -6.9614
    -6.9494  -6.9462  -6.9288  -6.9110  -6.9039  -6.8968  -6.8860  -6.8754
    -6.8639  -6.8548  -6.8436  -6.8369  -6.8260  -6.8164  -6.8066  -6.8013
    -6.7942  -6.7800  -6.7723  -6.7576  -6.7469  -6.7418  -6.7399  -6.7277
    -6.7179  -6.7103  -6.7098  -6.7036  -6.6753  -6.6736  -6.6530  -6.6346
    -6.6265  -6.6159  -6.6126  -6.6062  -6.6010  -6.5900  -6.5886  -6.5735
    -6.5691  -6.5559  -6.5523  -6.5406  -6.5268  -6.5221  -6.5086  -6.4998
    -6.4941  -6.4767  -6.4708  -6.4671  -6.4491  -6.4403  -6.4261  -6.4179
    -6.4028  -6.4001  -6.3865  -6.3740  -6.3670  -6.3592  -6.3446  -6.3399
    -6.3323  -6.3138  -6.3010  -6.2971  -6.2862  -6.2647  -6.2622  -6.2281
    -6.2175  -6.2037  -6.1968  -6.1828  -6.1774  -6.1565  -6.1531  -6.1315
    -6.1137  -6.1079  -6.0934  -6.0767  -6.0710  -6.0602  -6.0574  -6.0453
    -6.0377  -6.0278  -6.0063  -5.9992  -5.9877  -5.9676  -5.9645  -5.9590
    -5.9486  -5.9312  -5.9175  -5.9022  -5.8963  -5.8879  -5.8671  -5.8507
    -5.8452  -5.8409  -5.8369  -5.8218  -5.8070  -5.8035  -5.7968  -5.7732
    -5.7692  -5.7496  -5.7425  -5.7283  -5.7207  -5.7065  -5.6941  -5.6871
    -5.6657  -5.6382  -5.6174  -5.6004  -5.5863  -5.5758  -5.5673  -5.5579
    -5.5329  -5.5204  -5.5093  -5.4972  -5.4639  -5.4603  -5.4559  -5.4538
    -5.4453  -5.4348  -5.3955  -5.3875  -5.3708  -5.3477  -5.3439  -5.3364
    -5.2922  -5.2749  -5.2584  -5.2319  -5.1853  -5.1810  -5.1741  -5.1507
    -5.1251  -5.0908  -4.9886  -4.9736  -4.9600  -4.9542  -4.9478  -4.9352
    -4.8912  -4.8824  -4.8437  -4.8347  -4.8053  -4.7849  -4.7305  -4.7257
    -4.7072  -4.6289  -4.6006  -4.5795  -4.5759  -4.5669  -4.5611  -4.5484
    -4.4657  -4.3729  -4.3267  -4.3259  -4.2678  -4.2316  -4.1654  -4.1603
    -4.1526  -4.1428  -4.1303  -4.0964  -4.0766  -4.0567  -4.0412  -4.0323
    -4.0228  -4.0180  -4.0058  -3.9723  -3.9691  -3.9632  -3.9595  -3.9541
    -3.9477  -3.9388  -3.9335  -3.9251  -3.9212  -3.9180  -3.9101  -3.9072
    -3.9033  -3.8986  -3.8836  -3.8688  -3.8638  -3.8559  -3.8462  -3.8422
    -3.8329  -3.8327  -3.7988  -3.7894  -3.7709  -3.7527  -3.7520  -3.7391
    -3.6564  -3.5732  -3.5091  -3.4614  -3.4406  -3.4028  -3.3021  -3.2307
    -2.8495  -2.7493  -2.3476  -2.1175  -1.6935  -0.7655  -0.7413  -0.5983
    -0.5447  -0.5266  -0.3937  -0.3655  -0.2878  -0.2324  -0.1508  -0.1278
    -0.0792   0.0287   0.1288   0.1913   0.2702   0.3452   0.4103   0.5043
     0.5582   0.5913   0.6171   0.6491   0.7031   0.7584   0.8129   0.8185
     0.8588   0.9014   0.9377   0.9719   1.0186   1.0233   1.0281   1.0855
     1.0936   1.1229   1.1617   1.1809   1.2158   1.2448   1.2527   1.2679
     1.3001   1.3200   1.3263   1.3704   1.3749   1.3849   1.3977   1.4164
     1.4375   1.4955   1.4992   1.5273   1.5596   1.5766   1.6031   1.6161
     1.6261   1.6411   1.6664   1.6789   1.6887   1.7097   1.7300   1.7490
     1.7688   1.7821   1.8012   1.8248   1.8406   1.8566   1.8873   1.8903
     1.9099   1.9203   1.9327   1.9588   1.9844   1.9906   2.0056   2.0225
     2.0353   2.0488   2.0542   2.0707   2.0733   2.0819   2.0866   2.0930
     2.1015   2.1111   2.1357   2.1454   2.1634   2.1726   2.1949   2.2022
     2.2130   2.2233   2.2327   2.2499   2.2625   2.2900   2.2928   2.3271
     2.3340   2.3556   2.3579   2.3654   2.3785   2.3943   2.4033   2.4203
     2.4270   2.4365   2.4522   2.4609   2.4726   2.4896   2.4981   2.5018
     2.5090   2.5159   2.5272   2.5359   2.5469   2.5636   2.5688   2.5718
     2.5919   2.5983   2.6067   2.6113   2.6257   2.6328   2.6461   2.6516
     2.6616   2.6701   2.6801   2.6835   2.6947   2.7006   2.7091   2.7193
     2.7302   2.7342   2.7464   2.7499   2.7572   2.7681   2.7724   2.7823
     2.7976   2.8034   2.8214   2.8339   2.8406   2.8513   2.8581   2.8676
     2.8739   2.8793   2.8818

     the Fermi energy is    -3.8073 ev

!    total energy              =  -11682.10494865 Ry
     estimated scf accuracy    <          9.8E-09 Ry
     smearing contrib. (-TS)   =      -0.11091853 Ry
     internal energy E=F+TS    =  -11681.99403012 Ry

     The total energy is F=E-TS. E is the sum of the following terms:
     one-electron contribution = -359559.77556947 Ry
     hartree contribution      =  180234.59803333 Ry
     xc contribution           =   -2470.89651274 Ry
     ewald contribution        =  172473.78489774 Ry
     one-center paw contrib.   =   -2359.70487898 Ry

     convergence has been achieved in 280 iterations

     negative rho (up, down):  5.982E-02 0.000E+00

     Forces acting on atoms (cartesian axes, Ry/au):

     atom    1 type  1   force =     0.01199135    0.01351289    0.05505195
     atom    2 type  1   force =     0.02830495    0.02473218   -0.00016058
     atom    3 type  1   force =     0.00759804    0.00108260   -0.00348552
     atom    4 type  1   force =    -0.01245899   -0.01522848   -0.01031194
     atom    5 type  1   force =     0.01479248   -0.02243705   -0.02706769
     atom    6 type  1   force =     0.00350314   -0.00147992    0.00467954
     atom    7 type  1   force =    -0.00851447    0.01190363    0.01207231
     atom    8 type  1   force =    -0.01214898   -0.03109053    0.00340860
     atom    9 type  1   force =    -0.00149688    0.00641181    0.01348461
     atom   10 type  1   force =     0.01823200   -0.00179759    0.01767735
     atom   11 type  1   force =    -0.01120935   -0.00523051   -0.01232121
     atom   12 type  2   force =     0.00697255    0.12282167   -0.04037293
     atom   13 type  2   force =     0.13683668    0.10062950   -0.00113362
     atom   14 type  2   force =     0.08062126    0.03195950   -0.06290368
     atom   15 type  2   force =     0.14694754   -0.03951271   -0.15272303
     atom   16 type  2   force =     0.02149422    0.03840545    0.04013774
     atom   17 type  2   force =     0.15428216    0.01502367    0.25440813
     atom   18 type  2   force =    -0.01247156   -0.04665234   -0.04946902
     atom   19 type  2   force =    -0.01071966    0.03865287   -0.10069440
     atom   20 type  2   force =    -0.02586230   -0.01329817   -0.04180043
     atom   21 type  2   force =    -0.05465523    0.13496542   -0.03939085
     atom   22 type  2   force =     0.03568773   -0.13305173    0.09252709
     atom   23 type  2   force =    -0.03934130   -0.06824852   -0.05871498
     atom   24 type  2   force =     0.03247421    0.02647344    0.01012398
     atom   25 type  2   force =     0.06549062    0.00676457    0.07206188
     atom   26 type  2   force =    -0.01646587   -0.00957614   -0.01107114
     atom   27 type  2   force =     0.04180031    0.11799096   -0.07347654
     atom   28 type  2   force =    -0.00194342   -0.05839742   -0.01138705
     atom   29 type  2   force =    -0.03140732   -0.05047505    0.08152937
     atom   30 type  2   force =     0.03233133   -0.03167508   -0.03952613
     atom   31 type  2   force =     0.03575368    0.02201351    0.00223837
     atom   32 type  2   force =    -0.00991059   -0.06580062    0.08801253
     atom   33 type  2   force =    -0.05573168    0.01800893   -0.05540515
     atom   34 type  2   force =     0.06105075   -0.02693228   -0.02230106
     atom   35 type  3   force =    -0.01331602   -0.07802637    0.00316434
     atom   36 type  3   force =    -0.16436993    0.08795555   -0.04857905
     atom   37 type  3   force =    -0.06763771    0.03586459   -0.01400843
     atom   38 type  3   force =    -0.05433077   -0.00011306   -0.00933451
     atom   39 type  3   force =     0.07405510    0.00716317    0.01036721
     atom   40 type  3   force =     0.08666736    0.02283284   -0.04332505
     atom   41 type  3   force =    -0.10896528   -0.09031609   -0.13254546
     atom   42 type  3   force =     0.01200596   -0.06049767    0.06464920
     atom   43 type  3   force =     0.01844021   -0.02230079   -0.04845719
     atom   44 type  3   force =     0.06109266    0.10574100    0.04121112
     atom   45 type  3   force =    -0.03235945   -0.00091779   -0.03154393
     atom   46 type  3   force =    -0.03631512    0.12444342    0.05982581
     atom   47 type  3   force =    -0.05595228    0.00757173   -0.14729555
     atom   48 type  3   force =    -0.02875601   -0.12203936   -0.13758376
     atom   49 type  3   force =     0.06189286    0.18236372    0.05227819
     atom   50 type  3   force =     0.04374195   -0.02210128   -0.09770930
     atom   51 type  3   force =    -0.01917507    0.04788323    0.07060182
     atom   52 type  3   force =    -0.12115781   -0.10576964    0.11946397
     atom   53 type  3   force =    -0.12316583   -0.10991704   -0.05468532
     atom   54 type  3   force =    -0.03654038   -0.02307924    0.10035923
     atom   55 type  3   force =    -0.14993634    0.03093329    0.03097262
     atom   56 type  3   force =    -0.02261498    0.01123374    0.12161119
     atom   57 type  3   force =     0.00706297   -0.09506323   -0.04893985
     atom   58 type  3   force =     0.06096941   -0.00842419    0.04778620
     atom   59 type  3   force =    -0.03557296   -0.01076759    0.03896226
     atom   60 type  3   force =     0.07904274   -0.07455208   -0.00355859
     atom   61 type  3   force =     0.01541908    0.19123277    0.03557165
     atom   62 type  3   force =    -0.01925578   -0.01655840   -0.00615984
     atom   63 type  3   force =     0.01626106    0.01190725   -0.00638666
     atom   64 type  3   force =     0.00300964    0.05905647    0.08277828
     atom   65 type  3   force =    -0.00806616    0.02319595    0.02028681
     atom   66 type  3   force =    -0.01589236    0.00338955   -0.01873139
     atom   67 type  3   force =     0.03136201    0.00053267    0.10211202
     atom   68 type  3   force =    -0.06485110   -0.03466056    0.07981509
     atom   69 type  3   force =     0.04496649    0.03723695    0.03187050
     atom   70 type  3   force =    -0.05033623   -0.06710094   -0.05576557
     atom   71 type  3   force =     0.04847862   -0.03741757    0.05248971
     atom   72 type  3   force =     0.01423462    0.11139552    0.19923214
     atom   73 type  3   force =    -0.07869215    0.05105562   -0.07639729
     atom   74 type  3   force =     0.00531644   -0.06456241   -0.04794555
     atom   75 type  3   force =    -0.06312411    0.00863786   -0.00229847
     atom   76 type  3   force =     0.04452555   -0.10613924   -0.06057287
     atom   77 type  3   force =    -0.03078433    0.07738602    0.03345942
     atom   78 type  3   force =    -0.09863020   -0.02063840   -0.06888896
     atom   79 type  3   force =    -0.00397550   -0.04281405    0.03498821
     atom   80 type  3   force =    -0.03162580    0.03982086   -0.00614991
     atom   81 type  3   force =     0.03049775    0.01865803   -0.03971375
     atom   82 type  3   force =    -0.04203018    0.01739430   -0.05431094
     atom   83 type  3   force =    -0.05124506    0.09452895    0.02436603
     atom   84 type  3   force =    -0.02490651    0.04022974   -0.04043967
     atom   85 type  3   force =    -0.01127659   -0.09864828    0.07703747
     atom   86 type  3   force =    -0.02850888   -0.07920978   -0.10456062
     atom   87 type  3   force =     0.02214979   -0.00717292   -0.06807803
     atom   88 type  3   force =    -0.00062888    0.05375658   -0.11882706
     atom   89 type  3   force =    -0.04860713   -0.02057067    0.06483092
     atom   90 type  3   force =     0.05367576   -0.04775062   -0.04650874
     atom   91 type  3   force =     0.06646562    0.04065665   -0.01538572
     atom   92 type  3   force =    -0.00909200   -0.00581387   -0.02089105
     atom   93 type  3   force =    -0.08709266   -0.10490978   -0.00534320
     atom   94 type  3   force =     0.07176115    0.08987039    0.05021684
     atom   95 type  3   force =    -0.01086495   -0.01077035   -0.06896058
     atom   96 type  3   force =    -0.09370351   -0.01180500    0.15325863
     atom   97 type  3   force =    -0.02818113   -0.04657506   -0.00175023
     atom   98 type  3   force =     0.10434456    0.01083349    0.09549529
     atom   99 type  3   force =    -0.05541432   -0.00677528    0.03650740
     atom  100 type  3   force =     0.02259079   -0.07808660    0.07966315
     atom  101 type  3   force =    -0.06015905    0.02731015   -0.01091067
     atom  102 type  3   force =     0.03023318    0.01711451    0.03128977
     atom  103 type  3   force =     0.04697642    0.03113190    0.09744263
     atom  104 type  3   force =    -0.08245000   -0.07740436   -0.00517145
     atom  105 type  3   force =     0.02908995    0.05417582   -0.00659499
     atom  106 type  3   force =     0.03822561    0.11422945   -0.01548980
     atom  107 type  3   force =    -0.02833992   -0.00302586    0.02820064
     atom  108 type  3   force =     0.04678635   -0.01004542    0.04577973
     atom  109 type  3   force =     0.10912221    0.02056199   -0.03993848
     atom  110 type  3   force =     0.13934452    0.00801574   -0.06093533
     atom  111 type  3   force =    -0.02034572   -0.01790535    0.01772752
     atom  112 type  3   force =    -0.06696908    0.09519079   -0.01068925
     atom  113 type  3   force =     0.02128380   -0.01983304   -0.05617560
     atom  114 type  3   force =    -0.03896782    0.02175116    0.08107325
     atom  115 type  3   force =     0.01334986   -0.02840902    0.07656050
     atom  116 type  3   force =     0.08473616    0.00791388   -0.04835590
     atom  117 type  3   force =    -0.06880985    0.00332062    0.03776208
     atom  118 type  3   force =    -0.11824599    0.11168130    0.02567658
     atom  119 type  3   force =     0.07046394   -0.00673286    0.03244243
     atom  120 type  3   force =     0.00918296    0.02808295    0.10530793
     atom  121 type  3   force =     0.12989818    0.07610978    0.01641292
     atom  122 type  4   force =     0.03932347    0.01292392    0.02859371
     atom  123 type  4   force =    -0.06150111   -0.04007488   -0.00950324
     atom  124 type  4   force =     0.00361018    0.02432133   -0.04630042
     atom  125 type  4   force =     0.01813188   -0.00577884   -0.00429247
     atom  126 type  4   force =    -0.13134638   -0.14924308   -0.01139261
     atom  127 type  4   force =    -0.09950655   -0.12885914   -0.07373558
     atom  128 type  4   force =     0.01054717   -0.04946045    0.05952252
     atom  129 type  4   force =     0.00883208   -0.06150404   -0.01151238
     atom  130 type  4   force =     0.00889562   -0.02172377    0.00934272
     atom  131 type  4   force =     0.00672405   -0.01824039   -0.01306046
     atom  132 type  4   force =     0.04931916   -0.03836598   -0.01677436
     atom  133 type  4   force =    -0.03659074   -0.05918576    0.03629979
     atom  134 type  4   force =    -0.09349418    0.00757443   -0.04010257
     atom  135 type  4   force =     0.02241200   -0.02688066    0.12453928
     atom  136 type  4   force =     0.01793693   -0.01015085   -0.01838875
     atom  137 type  4   force =     0.05384414    0.04126878   -0.03420280
     atom  138 type  4   force =     0.01577774    0.00198211   -0.01531466
     atom  139 type  4   force =    -0.00675076    0.02802890   -0.02076981
     atom  140 type  4   force =     0.02154313   -0.06866722    0.02200602
     atom  141 type  4   force =     0.05843895   -0.01199444    0.00213192
     atom  142 type  4   force =    -0.10496998   -0.05310645    0.04674526
     atom  143 type  4   force =    -0.15038614   -0.03712903   -0.09754089
     atom  144 type  4   force =    -0.00562991   -0.01755277    0.02992699
     atom  145 type  4   force =    -0.04010013    0.03667613    0.01600909
     atom  146 type  4   force =    -0.02192804    0.01688964   -0.02250626
     atom  147 type  4   force =    -0.13171990   -0.04975013    0.03207336
     atom  148 type  4   force =     0.01368423   -0.02072177   -0.01296332
     atom  149 type  4   force =     0.06869587    0.03542885    0.01729145
     atom  150 type  4   force =    -0.06349990   -0.05299196   -0.02001567
     atom  151 type  4   force =     0.05092297    0.03694509    0.02447750
     atom  152 type  4   force =    -0.05807916    0.02464241    0.01510286
     atom  153 type  4   force =     0.07628060    0.01869230    0.07641507
     atom  154 type  4   force =    -0.09646539    0.00591068    0.00664694
     atom  155 type  4   force =    -0.01248391   -0.01447167   -0.00922742
     atom  156 type  4   force =    -0.05024176    0.04124225   -0.02248741
     atom  157 type  4   force =     0.04245107   -0.01057637   -0.00374139
     atom  158 type  4   force =     0.01335169    0.01209577   -0.02431251
     atom  159 type  4   force =     0.06701068    0.00747721   -0.05885502
     atom  160 type  4   force =     0.03930696   -0.08923264    0.01383551
     atom  161 type  4   force =     0.00299517   -0.02877916    0.07141544
     atom  162 type  4   force =     0.05271771    0.09510703    0.01494230
     atom  163 type  4   force =    -0.01543182    0.05817510   -0.01561042
     atom  164 type  4   force =     0.02451849    0.02903932    0.06696540
     atom  165 type  4   force =    -0.07482122    0.00941353    0.04935837
     atom  166 type  4   force =    -0.00155954   -0.10197165    0.00500504
     atom  167 type  4   force =    -0.03914988   -0.04005109   -0.01519692
     atom  168 type  4   force =     0.01691663   -0.18433739    0.05842499
     atom  169 type  4   force =     0.05232382    0.04495745   -0.09520274
     atom  170 type  4   force =     0.02789064   -0.04777797   -0.03583871
     atom  171 type  4   force =     0.01258286   -0.01692212    0.00344441
     atom  172 type  4   force =    -0.07004035    0.01231128   -0.04393489
     atom  173 type  4   force =    -0.03892361    0.00702201   -0.02545871
     atom  174 type  4   force =     0.05689951    0.08615727    0.01850168
     atom  175 type  4   force =     0.01311023    0.04180227    0.00303895
     atom  176 type  4   force =     0.03802398   -0.00538425    0.02570367
     atom  177 type  4   force =     0.06427370   -0.00466043   -0.00850451
     atom  178 type  4   force =    -0.00358922    0.03675111    0.04536581
     atom  179 type  4   force =    -0.01188731    0.02841922    0.00298229
     atom  180 type  4   force =    -0.05734861    0.00564443   -0.00722409
     atom  181 type  4   force =    -0.00000043   -0.00052635    0.09592779
     atom  182 type  4   force =    -0.02452758   -0.06135763    0.05014593
     atom  183 type  4   force =    -0.03311911    0.10676371   -0.05863208
     atom  184 type  4   force =     0.01826877   -0.01126832    0.05175976
     atom  185 type  4   force =     0.04933492   -0.03493329   -0.01727224
     atom  186 type  4   force =    -0.01141092   -0.01732505    0.00166515
     atom  187 type  4   force =    -0.02757078   -0.01186354    0.05026825
     atom  188 type  4   force =    -0.02038003   -0.01787072   -0.04715802
     atom  189 type  4   force =    -0.01985684    0.03531859   -0.00038205
     atom  190 type  4   force =     0.05861164   -0.03610331    0.00663516
     atom  191 type  4   force =    -0.01852473   -0.00335130   -0.00668556
     atom  192 type  4   force =    -0.03514410    0.02414466   -0.03100002
     atom  193 type  4   force =     0.03626990   -0.06462854    0.02165133
     atom  194 type  4   force =    -0.04962982    0.00127345   -0.00628856
     atom  195 type  4   force =    -0.01023486   -0.00647346    0.01840778
     atom  196 type  4   force =     0.00241923   -0.02551691   -0.06109087
     atom  197 type  4   force =     0.00926605    0.01571917   -0.00012903
     atom  198 type  4   force =    -0.03842831    0.04138819   -0.01355839
     atom  199 type  4   force =     0.00812778   -0.02589458    0.00624117
     atom  200 type  4   force =    -0.00958905   -0.03603672    0.05783548
     atom  201 type  4   force =    -0.01078211   -0.04758318   -0.02854383
     atom  202 type  4   force =     0.01618871    0.01501718    0.04154646
     atom  203 type  4   force =    -0.05688517   -0.05915138   -0.10308909
     atom  204 type  4   force =    -0.00238920    0.01816060    0.06244188
     atom  205 type  4   force =     0.01018940    0.07388141   -0.01371190
     atom  206 type  4   force =    -0.04069866   -0.03140232   -0.04467660
     atom  207 type  4   force =    -0.00467716   -0.03032794    0.03532754
     atom  208 type  4   force =    -0.00081283    0.01181382   -0.01007145
     atom  209 type  4   force =    -0.04447280    0.03168772   -0.05088006
     atom  210 type  4   force =    -0.01135702    0.01307937   -0.05118515
     atom  211 type  4   force =    -0.00048944   -0.03481006   -0.05647555
     atom  212 type  4   force =     0.04253122   -0.03954740   -0.03319977
     atom  213 type  4   force =     0.04284448   -0.14884329   -0.08361865
     atom  214 type  4   force =     0.05169585    0.06497448   -0.05764012
     atom  215 type  4   force =    -0.02677611   -0.02907383    0.00518708
     atom  216 type  4   force =    -0.02211747    0.07576094    0.04091187
     atom  217 type  4   force =    -0.02414143    0.03766194   -0.04189394
     atom  218 type  4   force =     0.01495094    0.02514070   -0.00788651
     atom  219 type  4   force =    -0.04401872   -0.04014396   -0.00919432
     atom  220 type  4   force =     0.01253370   -0.04158713    0.02306122
     atom  221 type  4   force =    -0.00426589    0.03038498    0.06497581
     atom  222 type  4   force =     0.10391714   -0.01656563    0.00584968
     atom  223 type  4   force =     0.02180627    0.08581804   -0.05092853
     atom  224 type  4   force =     0.03971210    0.02492708   -0.01338840
     atom  225 type  4   force =     0.06108096    0.04951528   -0.00338709
     atom  226 type  4   force =     0.02006574   -0.02508672    0.02081765
     atom  227 type  4   force =    -0.02257574    0.05200618    0.04178078
     atom  228 type  4   force =     0.00321869   -0.01708741   -0.02723130
     atom  229 type  4   force =     0.01368954    0.00004424    0.05416366
     atom  230 type  4   force =     0.05287575    0.04912917   -0.00148340
     atom  231 type  4   force =     0.04247861   -0.02095931    0.07123699
     atom  232 type  4   force =     0.04274690   -0.06426393   -0.00879526
     atom  233 type  4   force =     0.03888218    0.05820178    0.02901986
     atom  234 type  4   force =    -0.03304150   -0.05983354   -0.11439240
     atom  235 type  4   force =    -0.01906826    0.15896550   -0.01450104
     atom  236 type  4   force =     0.08809068   -0.01639158   -0.04575898
     atom  237 type  4   force =     0.00620209    0.00678727    0.01214247
     atom  238 type  4   force =    -0.01093470   -0.01289909    0.04262526
     atom  239 type  4   force =     0.01912357   -0.03605253    0.00734312
     atom  240 type  4   force =     0.07764795    0.03085469    0.02820907
     atom  241 type  4   force =     0.03135806   -0.01972742   -0.00497887
     atom  242 type  4   force =    -0.20427623   -0.02977426    0.07891611
     atom  243 type  4   force =     0.02975650    0.00104363    0.02044154
     atom  244 type  4   force =    -0.05117738   -0.00158984   -0.04531764
     atom  245 type  4   force =    -0.01912246   -0.02914787   -0.09480783
     atom  246 type  4   force =     0.02447563   -0.00896146   -0.03125610
     atom  247 type  4   force =    -0.00636365   -0.01714648   -0.06720026
     atom  248 type  4   force =    -0.01645903    0.03019205    0.05874154
     atom  249 type  4   force =     0.03809347    0.02613466   -0.06222241
     atom  250 type  4   force =    -0.08195704   -0.01670874    0.00421827
     atom  251 type  4   force =    -0.00777799   -0.00391834   -0.01948677
     atom  252 type  4   force =    -0.07099698    0.01905255   -0.05228950
     atom  253 type  4   force =     0.00126136   -0.04522574   -0.11036477
     atom  254 type  4   force =    -0.09101457    0.01337908   -0.01475971
     atom  255 type  4   force =     0.01623779   -0.01882446    0.02039042
     atom  256 type  4   force =     0.03194378   -0.00801021    0.03525244
     atom  257 type  4   force =     0.02693218   -0.02500822    0.03378957
     atom  258 type  4   force =     0.00067445    0.01269537   -0.02909220
     atom  259 type  4   force =     0.04801694    0.01503293   -0.00891375
     atom  260 type  4   force =    -0.04570120   -0.01158963   -0.06093127
     atom  261 type  4   force =     0.04154206    0.02786437   -0.03934025
     atom  262 type  4   force =    -0.05485428   -0.01077871    0.04592977
     atom  263 type  4   force =     0.09636486   -0.02625310    0.01766086
     atom  264 type  4   force =    -0.04573674    0.04262434   -0.02251628
     atom  265 type  4   force =     0.02496326    0.01539010   -0.03976171
     atom  266 type  4   force =     0.02700991    0.02036604   -0.04800238
     atom  267 type  4   force =     0.07743858   -0.00409776   -0.04267313
     atom  268 type  4   force =     0.02718879   -0.04396490   -0.03136764
     atom  269 type  4   force =    -0.01663329   -0.06671128    0.00511101
     atom  270 type  4   force =    -0.07175109   -0.01326455   -0.02963912
     atom  271 type  4   force =     0.06961859    0.01181025    0.00868138
     atom  272 type  4   force =     0.02761089    0.05490363   -0.01276634
     atom  273 type  4   force =     0.00244315   -0.00628605    0.04767439
     atom  274 type  4   force =    -0.02440305    0.00275978    0.02711443
     atom  275 type  4   force =    -0.01180288   -0.02055054    0.01818127
     atom  276 type  4   force =     0.04365368    0.07911643    0.06965702
     atom  277 type  4   force =     0.02661375   -0.01173350   -0.07657394
     atom  278 type  4   force =    -0.02162961    0.06302854    0.04434621
     atom  279 type  4   force =    -0.01201546   -0.02156554    0.00405710
     atom  280 type  4   force =    -0.02690214    0.05670077    0.00946204
     atom  281 type  4   force =     0.04153567    0.03158755    0.04328316
     atom  282 type  4   force =     0.03677447   -0.05139427    0.01537144
     atom  283 type  4   force =     0.00388497   -0.06519414   -0.03213844
     atom  284 type  4   force =     0.07177877   -0.05365576   -0.03051977
     atom  285 type  4   force =     0.01850489   -0.01659200    0.01459720
     atom  286 type  4   force =    -0.11833230   -0.02981640   -0.06916681
     atom  287 type  4   force =    -0.01602368   -0.00146908    0.04442276
     atom  288 type  4   force =     0.06713293   -0.00391706   -0.05574253
     atom  289 type  4   force =     0.02102808    0.09117362   -0.02694284
     atom  290 type  4   force =     0.10197285   -0.05834040   -0.11030979
     atom  291 type  4   force =    -0.03027053    0.01406971   -0.01561709
     atom  292 type  4   force =    -0.01957866   -0.01138558    0.01440909
     atom  293 type  4   force =    -0.00649598   -0.02628544   -0.04963067
     atom  294 type  4   force =     0.08007367   -0.02996351    0.16775243
     atom  295 type  4   force =    -0.05388012    0.06401972    0.06797413
     atom  296 type  4   force =    -0.05990482    0.01920773    0.03731781
     atom  297 type  4   force =    -0.01787796    0.01397092   -0.02434323
     atom  298 type  4   force =     0.01301526    0.01340976    0.01803740
     atom  299 type  4   force =    -0.06670385   -0.14469505   -0.02715527
     atom  300 type  4   force =    -0.01170247   -0.05288881   -0.03411619
     atom  301 type  4   force =    -0.07375764    0.03965687    0.02584867
     atom  302 type  4   force =     0.00578773    0.12646073    0.11048849
     atom  303 type  4   force =    -0.01421142   -0.02294845   -0.03986740
     atom  304 type  4   force =    -0.03900629   -0.00163421    0.01124389
     atom  305 type  4   force =    -0.03630412   -0.01653131    0.00697503
     atom  306 type  4   force =     0.00811992    0.01577063   -0.05869734
     atom  307 type  4   force =     0.02342555    0.02015868    0.04235666
     atom  308 type  4   force =     0.00975188    0.00088607   -0.05118735
     atom  309 type  4   force =     0.00197402   -0.02057294    0.01389845
     atom  310 type  4   force =     0.09237006   -0.00427285    0.11082603
     atom  311 type  4   force =    -0.03278471   -0.01344045    0.01146596
     atom  312 type  4   force =    -0.02337777    0.02160548    0.01458191
     atom  313 type  4   force =     0.01445083   -0.08749048    0.01936625
     atom  314 type  4   force =    -0.04558410    0.01303249   -0.02396517
     atom  315 type  4   force =    -0.01721329   -0.00381680   -0.02790752
     atom  316 type  4   force =    -0.00559847   -0.00390273    0.01813601
     atom  317 type  4   force =    -0.00165453    0.06902192    0.04009604
     atom  318 type  4   force =     0.04039039    0.00254183   -0.01761505
     atom  319 type  4   force =    -0.02971060   -0.01473194   -0.06110206
     atom  320 type  4   force =     0.04268054   -0.01855627   -0.02678536
     atom  321 type  4   force =    -0.02611495    0.12886996    0.03816403
     atom  322 type  4   force =     0.02390780    0.01095583   -0.06530333
     atom  323 type  4   force =     0.03524336   -0.03551645    0.04976101
     atom  324 type  4   force =     0.05187184    0.00481301   -0.02337248
     atom  325 type  4   force =     0.03439909   -0.02324544   -0.02834934
     atom  326 type  4   force =    -0.00823840    0.11665647    0.05597989
     atom  327 type  4   force =     0.04741024    0.04959714   -0.03981577
     atom  328 type  4   force =     0.02045383    0.00101009   -0.01990248
     atom  329 type  4   force =     0.10558068    0.01069249    0.01855029
     atom  330 type  4   force =     0.02365118   -0.03644727   -0.05438195
     atom  331 type  4   force =     0.03238654    0.04217741   -0.00806918
     atom  332 type  4   force =     0.02198876    0.05076992   -0.01243390
     atom  333 type  4   force =    -0.05390314   -0.05586512    0.02738877
     atom  334 type  4   force =     0.02373992    0.04554681   -0.02800024
     atom  335 type  4   force =     0.06795001    0.02175300   -0.02188765
     atom  336 type  4   force =    -0.03955005   -0.03106192   -0.04408240
     atom  337 type  4   force =    -0.00492584   -0.00467283   -0.02310343
     atom  338 type  4   force =    -0.05724157    0.04314458   -0.01901706
     atom  339 type  5   force =    -0.02047537    0.02372596    0.03467609
     atom  340 type  5   force =     0.00637740   -0.02889261    0.02836835
     atom  341 type  6   force =     0.02478557    0.00363867    0.00426041
     atom  342 type  6   force =    -0.02463174   -0.00362692   -0.00415509
     atom  343 type  6   force =     0.00310157   -0.04251320    0.00344519
     atom  344 type  6   force =     0.00758708   -0.04203227    0.00441110
     atom  345 type  6   force =    -0.00728005    0.04209122   -0.00413387
     atom  346 type  6   force =    -0.00363175    0.04247775   -0.00352588
     atom  347 type  6   force =     0.02931163    0.02313576    0.00388422
     atom  348 type  6   force =    -0.03417093    0.01408053   -0.00741096
     atom  349 type  6   force =     0.03417744   -0.01405928    0.00743441
     atom  350 type  6   force =    -0.02949449   -0.02314454   -0.00386599
     atom  351 type  7   force =     0.00296663    0.00579086    0.00010605
     atom  352 type  7   force =    -0.00416682    0.00474463   -0.00120304
     atom  353 type  7   force =     0.00417993   -0.00473312    0.00106968
     atom  354 type  7   force =    -0.00271484   -0.00574069   -0.00019837
     atom  355 type  7   force =     0.00390625   -0.00333929    0.00089837
     atom  356 type  7   force =    -0.00287080   -0.00421587   -0.00030872
     atom  357 type  7   force =     0.00295056    0.00427234    0.00023073
     atom  358 type  7   force =    -0.00382791    0.00321581   -0.00100692

     Total force =     1.686647     Total SCF correction =     0.000161


     Computing stress (Cartesian axis) and pressure


     negative rho (up, down):  5.982E-02 0.000E+00
          total   stress  (Ry/bohr**3)                   (kbar)     P=        7.98
   0.00005257   0.00000157  -0.00000258            7.73        0.23       -0.38
   0.00000157   0.00006095   0.00000342            0.23        8.97        0.50
  -0.00000258   0.00000342   0.00004924           -0.38        0.50        7.24


     Writing all to output data dir ./outputs/pwscf.save/ :
     XML data file, charge density, pseudopotentials, collected wavefunctions
 
     init_run     :    145.37s CPU    148.52s WALL (       1 calls)
     electrons    :  79752.43s CPU  81474.02s WALL (       1 calls)
     forces       :     92.42s CPU     96.98s WALL (       1 calls)
     stress       :    349.90s CPU    356.23s WALL (       1 calls)

     Called by init_run:
     wfcinit      :    129.48s CPU    131.36s WALL (       1 calls)
     potinit      :      1.21s CPU      1.32s WALL (       1 calls)
     hinit0       :      1.40s CPU      1.45s WALL (       1 calls)

     Called by electrons:
     c_bands      :  66809.56s CPU  67950.73s WALL (     280 calls)
     sum_band     :  11615.55s CPU  11945.62s WALL (     280 calls)
     v_of_rho     :    126.62s CPU    132.47s WALL (     281 calls)
     newd         :    953.83s CPU   1193.25s WALL (     281 calls)
     PAW_pot      :    159.22s CPU    160.29s WALL (     281 calls)
     mix_rho      :     71.11s CPU     73.29s WALL (     280 calls)

     Called by c_bands:
     init_us_2    :    616.82s CPU    626.84s WALL (     562 calls)
     cegterg      :  65974.98s CPU  67098.35s WALL (     280 calls)

     Called by *egterg:
     cdiaghg      :    942.80s CPU    950.13s WALL (     607 calls)
     h_psi        :  36376.82s CPU  36856.34s WALL (     608 calls)
     s_psi        :  10855.39s CPU  10968.74s WALL (     608 calls)
     g_psi        :    109.87s CPU    111.50s WALL (     327 calls)

     Called by h_psi:
     h_psi:calbec :  10843.57s CPU  10926.06s WALL (     608 calls)
     vloc_psi     :  14604.60s CPU  14761.93s WALL (     608 calls)
                                        0.00s GPU  (     608 calls)
     add_vuspsi   :  10856.14s CPU  10976.96s WALL (     608 calls)

     General routines
     calbec       :  16552.79s CPU  16672.26s WALL (     905 calls)
     fft          :    119.95s CPU    126.97s WALL (    3676 calls)
     ffts         :     11.11s CPU     11.72s WALL (     561 calls)
     fftw         :  14278.79s CPU  14409.40s WALL ( 1580362 calls)
     interpolate  :     15.34s CPU     16.15s WALL (     281 calls)
 
     Parallel routines
 
     PWSCF        :     22h19m CPU     22h49m WALL

 
   This run was terminated on:   4:22:34   8Mar2026            

=------------------------------------------------------------------------------=
   JOB DONE.
=------------------------------------------------------------------------------=
