
     Program PWSCF v.7.5 starts on  6Mar2026 at  8:40:22 

     This program is part of the open-source Quantum ESPRESSO suite
     for quantum simulation of materials; please cite
         "P. Giannozzi et al., J. Phys.:Condens. Matter 21 395502 (2009);
         "P. Giannozzi et al., J. Phys.:Condens. Matter 29 465901 (2017);
         "P. Giannozzi et al., J. Chem. Phys. 152 154105 (2020);
          URL http://www.quantum-espresso.org", 
     in publications or presentations arising from this work. More details at
     http://www.quantum-espresso.org/quote

     Parallel version (MPI), running on    80 processors

     MPI processes distributed on     4 nodes
     74283 MiB available memory on the printing compute node when the environment starts
 
     Reading input from NaphthaleneOnGlassSite2Snapshot17.in
Warning: card &CELL ignored
Warning: card &FCP ignored
Warning: card &RISM ignored

     Current dimensions of program PWSCF are:
     Max number of different atomic species (ntypx) = 10
     Max number of k-points (npk) =  40000
     Max angular momentum in pseudopotentials (lmaxx) =  4
     file Na.paw.z_9.ld1.psl.v1.0.0-low.upf: wavefunction(s)  2P renormalized
     file O.pbe-n-kjpaw_psl.0.1.UPF: wavefunction(s)  2P renormalized
     file Al.pbe-n-kjpaw_psl.1.0.0.UPF: wavefunction(s)  3S 3P renormalized
     file C.pbe-n-kjpaw_psl.1.0.0.UPF: wavefunction(s)  2S 2P renormalized
 
     R & G space division:  proc/nbgrp/npool/nimage =      80
     Subspace diagonalization in iterative solution of the eigenvalue problem:
     one sub-group per band group will be used
     custom distributed-memory algorithm (size of sub-group:  8*  8 procs)

 
     Parallelization info
     --------------------
     sticks:   dense  smooth     PW     G-vecs:    dense   smooth      PW
     Min         450     400    100               199276   167008   20874
     Max         451     401    101               199303   167021   20885
     Sum       36073   32057   8021             15943719 13361281 1670237
 
     Using Slab Decomposition
 


     bravais-lattice index     =            0
     lattice parameter (alat)  =      35.4885  a.u.
     unit-cell volume          =  138228.4306 (a.u.)^3
     number of atoms/cell      =          358
     number of atomic types    =            7
     number of electrons       =      1872.00
     number of Kohn-Sham states=         1123
     kinetic-energy cutoff     =      80.0000  Ry
     charge density cutoff     =     360.0000  Ry
     scf convergence threshold =      1.0E-08
     mixing beta               =       0.1000
     number of iterations used =            8  plain     mixing
     Exchange-correlation= PBE
                           (   1   4   3   4   0   0   0)

     celldm(1)=  35.488539  celldm(2)=   0.000000  celldm(3)=   0.000000
     celldm(4)=   0.000000  celldm(5)=   0.000000  celldm(6)=   0.000000

     crystal axes: (cart. coord. in units of alat)
               a(1) = (   1.000000   0.000000   0.000000 )  
               a(2) = (   0.000000   1.000000   0.000000 )  
               a(3) = (   0.000000   0.000000   3.092666 )  

     reciprocal axes: (cart. coord. in units 2 pi/alat)
               b(1) = (  1.000000  0.000000  0.000000 )  
               b(2) = (  0.000000  1.000000  0.000000 )  
               b(3) = (  0.000000  0.000000  0.323346 )  


     PseudoPot. # 1 for Na read from file:
     /home/sabeel/VOCC_Simulation/pseudopotentials/SSSP_Precision/Na.paw.z_9.ld1.psl.v1.0.0-low.upf
     MD5 check sum: 32bccecb13d7399e6c7dae6fe6685ff0
     Pseudo is Projector augmented-wave + core cor, Zval =  9.0
     Generated using &quot;atomic&quot; code by A. Dal Corso  v.6.3MaX
     Shape of augmentation charge: PSQ
     Using radial grid of 1121 points,  4 beta functions with: 
                l(1) =   0
                l(2) =   0
                l(3) =   1
                l(4) =   1
     Q(r) pseudized with 0 coefficients 


     PseudoPot. # 2 for B  read from file:
     /home/sabeel/VOCC_Simulation/pseudopotentials/SSSP_Precision/B_pbe_v1.01.uspp.F.UPF
     MD5 check sum: d081ebb89d0c768e112975f650467a00
     Pseudo is Ultrasoft + core correction, Zval =  3.0
     Generated by new atomic code, or converted to UPF format
     Using radial grid of  781 points,  4 beta functions with: 
                l(1) =   0
                l(2) =   0
                l(3) =   1
                l(4) =   1
     Q(r) pseudized with  8 coefficients,  rinner =    1.100   1.100   1.100


     PseudoPot. # 3 for Si read from file:
     /home/sabeel/VOCC_Simulation/pseudopotentials/SSSP_Precision/Si.pbe-n-rrkjus_psl.1.0.0.UPF
     MD5 check sum: 0b0bb1205258b0d07b9f9672cf965d36
     Pseudo is Ultrasoft + core correction, Zval =  4.0
     Generated using "atomic" code by A. Dal Corso  v.5.1
     Using radial grid of 1141 points,  6 beta functions with: 
                l(1) =   0
                l(2) =   0
                l(3) =   1
                l(4) =   1
                l(5) =   2
                l(6) =   2
     Q(r) pseudized with 0 coefficients 


     PseudoPot. # 4 for O  read from file:
     /home/sabeel/VOCC_Simulation/pseudopotentials/SSSP_Precision/O.pbe-n-kjpaw_psl.0.1.UPF
     MD5 check sum: 0234752ac141de4415c5fc33072bef88
     Pseudo is Projector augmented-wave + core cor, Zval =  6.0
     Generated using "atomic" code by A. Dal Corso  v.5.0.99 svn rev. 10869
     Shape of augmentation charge: BESSEL
     Using radial grid of 1095 points,  4 beta functions with: 
                l(1) =   0
                l(2) =   0
                l(3) =   1
                l(4) =   1
     Q(r) pseudized with 0 coefficients 


     PseudoPot. # 5 for Al read from file:
     /home/sabeel/VOCC_Simulation/pseudopotentials/SSSP_Precision/Al.pbe-n-kjpaw_psl.1.0.0.UPF
     MD5 check sum: cfc449ca30b5f3223ec38ddd88ac046d
     Pseudo is Projector augmented-wave + core cor, Zval =  3.0
     Generated using "atomic" code by A. Dal Corso  v.5.1
     Shape of augmentation charge: PSQ
     Using radial grid of 1135 points,  6 beta functions with: 
                l(1) =   0
                l(2) =   0
                l(3) =   1
                l(4) =   1
                l(5) =   2
                l(6) =   2
     Q(r) pseudized with 0 coefficients 


     PseudoPot. # 6 for C  read from file:
     /home/sabeel/VOCC_Simulation/pseudopotentials/SSSP_Precision/C.pbe-n-kjpaw_psl.1.0.0.UPF
     MD5 check sum: 5d2aebdfa2cae82b50a7e79e9516da0f
     Pseudo is Projector augmented-wave + core cor, Zval =  4.0
     Generated using "atomic" code by A. Dal Corso  v.5.1
     Shape of augmentation charge: PSQ
     Using radial grid of 1073 points,  4 beta functions with: 
                l(1) =   0
                l(2) =   0
                l(3) =   1
                l(4) =   1
     Q(r) pseudized with 0 coefficients 


     PseudoPot. # 7 for H  read from file:
     /home/sabeel/VOCC_Simulation/pseudopotentials/SSSP_Precision/H_ONCV_PBE-1.0.oncvpsp.upf
     MD5 check sum: 1790becc920ee074925cf490c71280fe
     Pseudo is Norm-conserving, Zval =  1.0
     Generated using ONCVPSP code by D. R. Hamann
     Using radial grid of 1166 points,  2 beta functions with: 
                l(1) =   0
                l(2) =   0

     atomic species   valence    mass     pseudopotential
     Na                9.00    22.98977     Na( 1.00)
     B                 3.00    10.81000     B ( 1.00)
     Si                4.00    28.08500     Si( 1.00)
     O                 6.00    15.99900     O ( 1.00)
     Al                3.00    26.98154     Al( 1.00)
     C                 4.00    12.01100     C ( 1.00)
     H                 1.00     1.00800     H ( 1.00)

     No symmetry found



   Cartesian axes

     site n.     atom                  positions (alat units)
         1        Na     tau(   1) = (   0.2476327   0.1287261   1.4401902  )
         2        Na     tau(   2) = (   0.2347070   0.3964799   1.8357059  )
         3        Na     tau(   3) = (   0.2580766   0.4457236   1.6551511  )
         4        Na     tau(   4) = (   0.0484944   0.0277893   1.6277847  )
         5        Na     tau(   5) = (   0.2352313   0.0813062   1.2863150  )
         6        Na     tau(   6) = (   0.0747243   0.2371463   1.1982473  )
         7        Na     tau(   7) = (   0.1133306   0.7698962   1.8611434  )
         8        Na     tau(   8) = (   0.9037110   0.1954209   1.2700780  )
         9        Na     tau(   9) = (   0.5181841   0.1014052   1.4940734  )
        10        Na     tau(  10) = (   0.3803624   0.0140251   1.8302637  )
        11        Na     tau(  11) = (   0.3545179   0.4989222   1.3772145  )
        12        B      tau(  12) = (   0.9565860   0.6559989   1.4661680  )
        13        B      tau(  13) = (   0.3779039   0.3190213   1.8506233  )
        14        B      tau(  14) = (   0.6357433   0.7757670   1.3375748  )
        15        B      tau(  15) = (   0.9958362   0.0827877   1.8476266  )
        16        B      tau(  16) = (   0.6987179   0.5586979   1.3943070  )
        17        B      tau(  17) = (   0.0903279   0.5997535   1.2200041  )
        18        B      tau(  18) = (   0.9460845   0.5017876   1.4754679  )
        19        B      tau(  19) = (   0.0032347   0.0527127   1.2839437  )
        20        B      tau(  20) = (   0.1241012   0.5940167   1.6016841  )
        21        B      tau(  21) = (   0.4174729   0.9198072   1.5541475  )
        22        B      tau(  22) = (   0.4638227   0.9107282   1.2322731  )
        23        B      tau(  23) = (   0.5096053   0.7092947   1.5000083  )
        24        B      tau(  24) = (   0.4035376   0.9367665   1.6900270  )
        25        B      tau(  25) = (   0.7132674   0.8560217   1.2558196  )
        26        B      tau(  26) = (   0.2579773   0.4217781   1.2874388  )
        27        B      tau(  27) = (   0.1862793   0.2338812   1.3576537  )
        28        B      tau(  28) = (   0.2134919   0.3664862   1.5073156  )
        29        B      tau(  29) = (   0.3546252   0.0462610   1.5293894  )
        30        B      tau(  30) = (   0.8082206   0.9504483   1.6218439  )
        31        B      tau(  31) = (   0.4915043   0.5408159   1.2913026  )
        32        B      tau(  32) = (   0.2471486   0.9450605   1.4099193  )
        33        B      tau(  33) = (   0.7089246   0.1566090   1.6669558  )
        34        B      tau(  34) = (   0.4858908   0.1745693   1.3498737  )
        35        Si     tau(  35) = (   0.5740761   0.3686341   1.4981594  )
        36        Si     tau(  36) = (   0.9600416   0.6521543   1.2713743  )
        37        Si     tau(  37) = (   0.8029666   0.9237355   1.4090604  )
        38        Si     tau(  38) = (   0.6589027   0.0111466   1.4303706  )
        39        Si     tau(  39) = (   0.7148031   0.8518694   1.6658713  )
        40        Si     tau(  40) = (   0.4062844   0.4370669   1.7000479  )
        41        Si     tau(  41) = (   0.8652299   0.0194200   1.2866760  )
        42        Si     tau(  42) = (   0.8792462   0.4724358   1.3313926  )
        43        Si     tau(  43) = (   0.9761010   0.8191325   1.3004490  )
        44        Si     tau(  44) = (   0.0927580   0.6000365   1.4532062  )
        45        Si     tau(  45) = (   0.8492038   0.6801733   1.8429896  )
        46        Si     tau(  46) = (   0.7648638   0.9759642   1.8781504  )
        47        Si     tau(  47) = (   0.8282769   0.9005504   1.7531841  )
        48        Si     tau(  48) = (   0.2400871   0.2615564   1.6009290  )
        49        Si     tau(  49) = (   0.0782160   0.8578516   1.7113893  )
        50        Si     tau(  50) = (   0.1793983   0.5421597   1.3229395  )
        51        Si     tau(  51) = (   0.3045589   0.3154693   1.3856788  )
        52        Si     tau(  52) = (   0.1868342   0.9496617   1.8144358  )
        53        Si     tau(  53) = (   0.5597482   0.9942014   1.8563540  )
        54        Si     tau(  54) = (   0.3283405   0.8654915   1.7979255  )
        55        Si     tau(  55) = (   0.3944303   0.1342286   1.2558232  )
        56        Si     tau(  56) = (   0.5556116   0.4029995   1.7688172  )
        57        Si     tau(  57) = (   0.8886951   0.0519111   1.5515978  )
        58        Si     tau(  58) = (   0.9177874   0.8266438   1.8602018  )
        59        Si     tau(  59) = (   0.5141592   0.7513592   1.7304853  )
        60        Si     tau(  60) = (   0.6200680   0.7296116   1.5975635  )
        61        Si     tau(  61) = (   0.4531771   0.2653855   1.4551164  )
        62        Si     tau(  62) = (   0.9530092   0.1910999   1.6203079  )
        63        Si     tau(  63) = (   0.9806318   0.2594417   1.4695044  )
        64        Si     tau(  64) = (   0.1810221   0.5658568   1.7318917  )
        65        Si     tau(  65) = (   0.2276537   0.6624309   1.2309086  )
        66        Si     tau(  66) = (   0.7086066   0.3068958   1.4624957  )
        67        Si     tau(  67) = (   0.7573617   0.5008676   1.2102682  )
        68        Si     tau(  68) = (   0.0630774   0.5052222   1.8068999  )
        69        Si     tau(  69) = (   0.9531780   0.4208941   1.7332624  )
        70        Si     tau(  70) = (   0.8429520   0.6341042   1.3864806  )
        71        Si     tau(  71) = (   0.8255070   0.2513717   1.7092992  )
        72        Si     tau(  72) = (   0.4660404   0.3166643   1.5999861  )
        73        Si     tau(  73) = (   0.3218087   0.1696541   1.7095271  )
        74        Si     tau(  74) = (   0.6054871   0.0864265   1.2929813  )
        75        Si     tau(  75) = (   0.4402609   0.0821865   1.6559030  )
        76        Si     tau(  76) = (   0.3770531   0.0317907   1.3941734  )
        77        Si     tau(  77) = (   0.5059912   0.8072476   1.3243503  )
        78        Si     tau(  78) = (   0.6069382   0.5044701   1.6609957  )
        79        Si     tau(  79) = (   0.6370349   0.4244534   1.3741369  )
        80        Si     tau(  80) = (   0.6855674   0.7078304   1.8645318  )
        81        Si     tau(  81) = (   0.0765130   0.9298841   1.2314627  )
        82        Si     tau(  82) = (   0.9863684   0.4054382   1.2235204  )
        83        Si     tau(  83) = (   0.4950631   0.2585395   1.7548401  )
        84        Si     tau(  84) = (   0.5719431   0.1160579   1.7357262  )
        85        Si     tau(  85) = (   0.3566442   0.7389475   1.7027041  )
        86        Si     tau(  86) = (   0.5887626   0.6478135   1.7482870  )
        87        Si     tau(  87) = (   0.3778403   0.4701707   1.1981005  )
        88        Si     tau(  88) = (   0.7705746   0.7745811   1.3546535  )
        89        Si     tau(  89) = (   0.6353056   0.3899359   1.2194797  )
        90        Si     tau(  90) = (   0.3199297   0.6027545   1.8036004  )
        91        Si     tau(  91) = (   0.6901246   0.5787282   1.5496775  )
        92        Si     tau(  92) = (   0.1108815   0.9857043   1.4484254  )
        93        Si     tau(  93) = (   0.0087222   0.8101075   1.4596435  )
        94        Si     tau(  94) = (   0.4662737   0.5842118   1.4387730  )
        95        Si     tau(  95) = (   0.1497603   0.1150345   1.8191784  )
        96        Si     tau(  96) = (   0.9119816   0.9073773   1.5284091  )
        97        Si     tau(  97) = (   0.5081777   0.9347421   1.4393654  )
        98        Si     tau(  98) = (   0.9733658   0.9480751   1.7929925  )
        99        Si     tau(  99) = (   0.2449909   0.7736475   1.5958723  )
       100        Si     tau( 100) = (   0.2568298   0.7840856   1.3334763  )
       101        Si     tau( 101) = (   0.1600543   0.7576293   1.4557816  )
       102        Si     tau( 102) = (   0.9190690   0.2974838   1.8287833  )
       103        Si     tau( 103) = (   0.8499270   0.3745654   1.6104514  )
       104        Si     tau( 104) = (   0.8444491   0.5369054   1.7673517  )
       105        Si     tau( 105) = (   0.1203187   0.1732756   1.6597012  )
       106        Si     tau( 106) = (   0.6321686   0.6005607   1.2681838  )
       107        Si     tau( 107) = (   0.6235724   0.8470731   1.8048529  )
       108        Si     tau( 108) = (   0.7501132   0.1202716   1.2309056  )
       109        Si     tau( 109) = (   0.2746484   0.2046900   1.8670863  )
       110        Si     tau( 110) = (   0.2273259   0.0646953   1.6216725  )
       111        Si     tau( 111) = (   0.0729274   0.4042159   1.4579120  )
       112        Si     tau( 112) = (   0.6640697   0.1601480   1.5162335  )
       113        Si     tau( 113) = (   0.1226817   0.7031938   1.6887692  )
       114        Si     tau( 114) = (   0.8406300   0.5276586   1.5875131  )
       115        Si     tau( 115) = (   0.8389500   0.3149315   1.3901795  )
       116        Si     tau( 116) = (   0.1722727   0.9211130   1.5953570  )
       117        Si     tau( 117) = (   0.0763504   0.1375521   1.3930086  )
       118        Si     tau( 118) = (   0.3256209   0.9115638   1.2548481  )
       119        Si     tau( 119) = (   0.3955849   0.7224945   1.4035300  )
       120        Si     tau( 120) = (   0.4652418   0.5499611   1.5942954  )
       121        Si     tau( 121) = (   0.1212618   0.3651412   1.3045003  )
       122        O      tau( 122) = (   0.0295168   0.4481121   1.8630498  )
       123        O      tau( 123) = (   0.8632305   0.7660730   1.8351295  )
       124        O      tau( 124) = (   0.7865379   0.5198677   1.8292109  )
       125        O      tau( 125) = (   0.7687039   0.8065522   1.2712216  )
       126        O      tau( 126) = (   0.2613316   0.2462125   1.3627201  )
       127        O      tau( 127) = (   0.4383841   0.2721051   1.5384261  )
       128        O      tau( 128) = (   0.4075804   0.9041606   1.6244717  )
       129        O      tau( 129) = (   0.2891632   0.9821156   1.2266374  )
       130        O      tau( 130) = (   0.3003666   0.1796727   1.7902854  )
       131        O      tau( 131) = (   0.5973279   0.4225163   1.2949590  )
       132        O      tau( 132) = (   0.5334428   0.5020140   1.6146071  )
       133        O      tau( 133) = (   0.2755656   0.1058719   1.6786020  )
       134        O      tau( 134) = (   0.1545595   0.1075181   1.6150265  )
       135        O      tau( 135) = (   0.1198242   0.5723265   1.5291309  )
       136        O      tau( 136) = (   0.5826608   0.7211316   1.6806210  )
       137        O      tau( 137) = (   0.4384820   0.7620469   1.6969890  )
       138        O      tau( 138) = (   0.3813441   0.2977472   1.4178316  )
       139        O      tau( 139) = (   0.9518571   0.2429557   1.5505285  )
       140        O      tau( 140) = (   0.6668767   0.5177678   1.6031137  )
       141        O      tau( 141) = (   0.1520770   0.1695411   1.3620472  )
       142        O      tau( 142) = (   0.6925009   0.7509516   1.3753791  )
       143        O      tau( 143) = (   0.1434568   0.6580895   1.2139172  )
       144        O      tau( 144) = (   0.4761486   0.9028411   1.5138988  )
       145        O      tau( 145) = (   0.0631356   0.5782061   1.8492954  )
       146        O      tau( 146) = (   0.5876332   0.4146284   1.8503125  )
       147        O      tau( 147) = (   0.1071621   0.8902567   1.6361869  )
       148        O      tau( 148) = (   0.0331486   0.1967754   1.4407710  )
       149        O      tau( 149) = (   0.9443941   0.9810288   1.5588672  )
       150        O      tau( 150) = (   0.5485694   0.5774714   1.2625723  )
       151        O      tau( 151) = (   0.6090489   0.9225244   1.8421140  )
       152        O      tau( 152) = (   0.3184350   0.7927686   1.7545505  )
       153        O      tau( 153) = (   0.2965868   0.2359092   1.6579206  )
       154        O      tau( 154) = (   0.3399948   0.4149078   1.7451441  )
       155        O      tau( 155) = (   0.6583099   0.3076783   1.2358723  )
       156        O      tau( 156) = (   0.5620926   0.7442927   1.5385442  )
       157        O      tau( 157) = (   0.5556976   0.3175372   1.7688381  )
       158        O      tau( 158) = (   0.3525972   0.6632019   1.7471104  )
       159        O      tau( 159) = (   0.9620412   0.3446718   1.7697440  )
       160        O      tau( 160) = (   0.5313272   0.1848172   1.7709556  )
       161        O      tau( 161) = (   0.9429693   0.0183272   1.3239474  )
       162        O      tau( 162) = (   0.4858005   0.9533180   1.8755890  )
       163        O      tau( 163) = (   0.3657073   0.5328581   1.8345358  )
       164        O      tau( 164) = (   0.4406081   0.5066782   1.2484323  )
       165        O      tau( 165) = (   0.3135028   0.2834622   1.8690668  )
       166        O      tau( 166) = (   0.7907911   0.8360261   1.7119523  )
       167        O      tau( 167) = (   0.7289290   0.9234833   1.2340123  )
       168        O      tau( 168) = (   0.1454692   0.2885690   1.3267456  )
       169        O      tau( 169) = (   0.3914991   0.9066251   1.7575926  )
       170        O      tau( 170) = (   0.7079875   0.2222935   1.4707635  )
       171        O      tau( 171) = (   0.9743698   0.8515159   1.5269402  )
       172        O      tau( 172) = (   0.1330105   0.5361140   1.2470617  )
       173        O      tau( 173) = (   0.5827735   0.0420994   1.2254729  )
       174        O      tau( 174) = (   0.8602910   0.6220068   1.7811976  )
       175        O      tau( 175) = (   0.5252483   0.6418342   1.4684534  )
       176        O      tau( 176) = (   0.6556139   0.6691234   1.7930720  )
       177        O      tau( 177) = (   0.9478947   0.4555202   1.2814895  )
       178        O      tau( 178) = (   0.9699578   0.0766966   1.2188133  )
       179        O      tau( 179) = (   0.5480526   0.8088247   1.7836236  )
       180        O      tau( 180) = (   0.3152477   0.7447790   1.3880620  )
       181        O      tau( 181) = (   0.1477991   0.6460434   1.7450578  )
       182        O      tau( 182) = (   0.4226375   0.0083615   1.6949577  )
       183        O      tau( 183) = (   0.5004654   0.8461638   1.2447985  )
       184        O      tau( 184) = (   0.7864920   0.8423242   1.4036977  )
       185        O      tau( 185) = (   0.9046070   0.6136339   1.3286598  )
       186        O      tau( 186) = (   0.1308852   0.5564651   1.3912596  )
       187        O      tau( 187) = (   0.0181193   0.9388870   1.8632981  )
       188        O      tau( 188) = (   0.5236768   0.3172741   1.4469420  )
       189        O      tau( 189) = (   0.6771903   0.1363695   1.2729556  )
       190        O      tau( 190) = (   0.5668565   0.7520726   1.3411952  )
       191        O      tau( 191) = (   0.4390184   0.1054952   1.8920128  )
       192        O      tau( 192) = (   0.2801127   0.0556319   1.5537880  )
       193        O      tau( 193) = (   0.9517833   0.2240015   1.8530263  )
       194        O      tau( 194) = (   0.4078786   0.5134087   1.6517908  )
       195        O      tau( 195) = (   0.6735166   0.7941076   1.8547702  )
       196        O      tau( 196) = (   0.7896414   0.2674110   1.3392843  )
       197        O      tau( 197) = (   0.9136500   0.5214282   1.5392122  )
       198        O      tau( 198) = (   0.5881526   0.4350093   1.4460280  )
       199        O      tau( 199) = (   0.7745755   0.5842257   1.3844862  )
       200        O      tau( 200) = (   0.2034896   0.9862494   1.6415920  )
       201        O      tau( 201) = (   0.1233221   0.6813655   1.4530684  )
       202        O      tau( 202) = (   0.7937827   0.3272627   1.4639956  )
       203        O      tau( 203) = (   0.4473563   0.5396589   1.5104804  )
       204        O      tau( 204) = (   0.6542799   0.3403998   1.5182787  )
       205        O      tau( 205) = (   0.8234572   0.7113307   1.3622509  )
       206        O      tau( 206) = (   0.8127487   0.4431771   1.5824090  )
       207        O      tau( 207) = (   0.5134106   0.6764784   1.7758121  )
       208        O      tau( 208) = (   0.1836556   0.7783442   1.3761575  )
       209        O      tau( 209) = (   0.8104766   0.3105590   1.6473803  )
       210        O      tau( 210) = (   0.3044033   0.9850075   1.3843284  )
       211        O      tau( 211) = (   0.1301504   0.8965179   1.7717389  )
       212        O      tau( 212) = (   0.3197141   0.1653364   1.2298596  )
       213        O      tau( 213) = (   0.4699233   0.1934200   1.4196372  )
       214        O      tau( 214) = (   0.2809558   0.8612246   1.3097159  )
       215        O      tau( 215) = (   0.4264163   0.2824703   1.8051299  )
       216        O      tau( 216) = (   0.6599679   0.6539216   1.5790006  )
       217        O      tau( 217) = (   0.7349642   0.9291111   1.6364595  )
       218        O      tau( 218) = (   0.0099961   0.4612132   1.4800917  )
       219        O      tau( 219) = (   0.5892025   0.1978638   1.5290320  )
       220        O      tau( 220) = (   0.0485841   0.8646896   1.2765110  )
       221        O      tau( 221) = (   0.9732948   0.8322736   1.3845405  )
       222        O      tau( 222) = (   0.4005127   0.1467648   1.7001924  )
       223        O      tau( 223) = (   0.8561165   0.3880932   1.3551362  )
       224        O      tau( 224) = (   0.1908703   0.7320545   1.6493092  )
       225        O      tau( 225) = (   0.5316561   0.3624401   1.5720686  )
       226        O      tau( 226) = (   0.6407674   0.0341441   1.3503554  )
       227        O      tau( 227) = (   0.2507360   0.3493753   1.4464087  )
       228        O      tau( 228) = (   0.5138994   0.8709061   1.3834646  )
       229        O      tau( 229) = (   0.9079300   0.5013233   1.4088368  )
       230        O      tau( 230) = (   0.4395504   0.1937154   1.2966161  )
       231        O      tau( 231) = (   0.2308999   0.6103161   1.2990312  )
       232        O      tau( 232) = (   0.3685013   0.9700313   1.5258447  )
       233        O      tau( 233) = (   0.8514985   0.9494698   1.6877232  )
       234        O      tau( 234) = (   0.0187499   0.4824011   1.7364241  )
       235        O      tau( 235) = (   0.2414021   0.3421124   1.5740169  )
       236        O      tau( 236) = (   0.6097970   0.4413714   1.7163163  )
       237        O      tau( 237) = (   0.4788214   0.4352721   1.7472383  )
       238        O      tau( 238) = (   0.1395403   0.9630524   1.5257738  )
       239        O      tau( 239) = (   0.3787358   0.0784353   1.3203646  )
       240        O      tau( 240) = (   0.5839692   0.9685892   1.4551464  )
       241        O      tau( 241) = (   0.9110607   0.6557788   1.2003494  )
       242        O      tau( 242) = (   0.0686474   0.1043740   1.8437037  )
       243        O      tau( 243) = (   0.1460976   0.3999842   1.5060950  )
       244        O      tau( 244) = (   0.4166165   0.3782170   1.6358330  )
       245        O      tau( 245) = (   0.0075933   0.9084354   1.7265037  )
       246        O      tau( 246) = (   0.8482460   0.9888286   1.2074661  )
       247        O      tau( 247) = (   0.6787187   0.3475581   1.3906861  )
       248        O      tau( 248) = (   0.2793975   0.6318760   1.8700688  )
       249        O      tau( 249) = (   0.1753735   0.9662414   1.3957977  )
       250        O      tau( 250) = (   0.0079684   0.6039592   1.4520956  )
       251        O      tau( 251) = (   0.6799702   0.7916690   1.6137563  )
       252        O      tau( 252) = (   0.8228944   0.4963375   1.2716413  )
       253        O      tau( 253) = (   0.1652982   0.5553089   1.6491463  )
       254        O      tau( 254) = (   0.6527640   0.8346788   1.2935381  )
       255        O      tau( 255) = (   0.0358116   0.1810737   1.6422342  )
       256        O      tau( 256) = (   0.5638762   0.0484964   1.7892635  )
       257        O      tau( 257) = (   0.7314789   0.9670683   1.4359075  )
       258        O      tau( 258) = (   0.2559548   0.8899428   1.4535926  )
       259        O      tau( 259) = (   0.7774448   0.5773609   1.5598674  )
       260        O      tau( 260) = (   0.0868638   0.6515873   1.6288983  )
       261        O      tau( 261) = (   0.2614827   0.9212168   1.7891965  )
       262        O      tau( 262) = (   0.1954831   0.1735609   1.8664394  )
       263        O      tau( 263) = (   0.9906684   0.7948073   1.8435173  )
       264        O      tau( 264) = (   0.4575167   0.9955248   1.4051103  )
       265        O      tau( 265) = (   0.7735858   0.2011661   1.2118609  )
       266        O      tau( 266) = (   0.8814090   0.9281431   1.4499689  )
       267        O      tau( 267) = (   0.4072071   0.9256292   1.2771435  )
       268        O      tau( 268) = (   0.8399764   0.8937974   1.5751596  )
       269        O      tau( 269) = (   0.9802476   0.7272430   1.4739436  )
       270        O      tau( 270) = (   0.4029974   0.6353892   1.4077172  )
       271        O      tau( 271) = (   0.5236271   0.0940762   1.6637713  )
       272        O      tau( 272) = (   0.2291142   0.8566340   1.6031926  )
       273        O      tau( 273) = (   0.1369597   0.1529802   1.7410824  )
       274        O      tau( 274) = (   0.8956842   0.4684356   1.7728116  )
       275        O      tau( 275) = (   0.0304714   0.3296381   1.4668483  )
       276        O      tau( 276) = (   0.9261533   0.1126670   1.5937994  )
       277        O      tau( 277) = (   0.3196110   0.7473434   1.6269653  )
       278        O      tau( 278) = (   0.2346612   0.4755155   1.3381933  )
       279        O      tau( 279) = (   0.0309321   0.9618656   1.4299785  )
       280        O      tau( 280) = (   0.1026240   0.4047238   1.3770124  )
       281        O      tau( 281) = (   0.0996948   0.0720356   1.4419196  )
       282        O      tau( 282) = (   0.9796419   0.7336502   1.2951357  )
       283        O      tau( 283) = (   0.4798587   0.2721799   1.6719849  )
       284        O      tau( 284) = (   0.1447462   0.5042309   1.7791641  )
       285        O      tau( 285) = (   0.6584207   0.0850578   1.4744274  )
       286        O      tau( 286) = (   0.8447302   0.2856675   1.7867899  )
       287        O      tau( 287) = (   0.9236456   0.3532967   1.8933803  )
       288        O      tau( 288) = (   0.7131244   0.4260542   1.2089447  )
       289        O      tau( 289) = (   0.1815374   0.0351118   1.8104616  )
       290        O      tau( 290) = (   0.0329975   0.6097415   1.2681351  )
       291        O      tau( 291) = (   0.8998275   0.8951096   1.8045433  )
       292        O      tau( 292) = (   0.3016404   0.4593341   1.2337882  )
       293        O      tau( 293) = (   0.2631331   0.5633327   1.7490475  )
       294        O      tau( 294) = (   0.7023044   0.1539457   1.5910141  )
       295        O      tau( 295) = (   0.5450848   0.1349270   1.3303906  )
       296        O      tau( 296) = (   0.1632620   0.2443342   1.6379519  )
       297        O      tau( 297) = (   0.1916640   0.3894955   1.2601897  )
       298        O      tau( 298) = (   0.0615898   0.0043928   1.2718305  )
       299        O      tau( 299) = (   0.3967139   0.3875856   1.8762703  )
       300        O      tau( 300) = (   0.4846187   0.5410669   1.3666698  )
       301        O      tau( 301) = (   0.8186424   0.0168112   1.5820830  )
       302        O      tau( 302) = (   0.5974300   0.5762403   1.7036424  )
       303        O      tau( 303) = (   0.4323575   0.7667648   1.3386386  )
       304        O      tau( 304) = (   0.7719883   0.9374236   1.8028857  )
       305        O      tau( 305) = (   0.7672182   0.1900179   1.6976508  )
       306        O      tau( 306) = (   0.8994379   0.0650389   1.4672678  )
       307        O      tau( 307) = (   0.4462121   0.7426137   1.4731770  )
       308        O      tau( 308) = (   0.9211726   0.3961581   1.6533343  )
       309        O      tau( 309) = (   0.2420202   0.2200105   1.5251544  )
       310        O      tau( 310) = (   0.8842963   0.6436934   1.4589679  )
       311        O      tau( 311) = (   0.6482991   0.6785877   1.2330670  )
       312        O      tau( 312) = (   0.4832983   0.6325017   1.6039613  )
       313        O      tau( 313) = (   0.7361349   0.0571749   1.8732737  )
       314        O      tau( 314) = (   0.6649925   0.8590630   1.7336776  )
       315        O      tau( 315) = (   0.9130296   0.2721061   1.4159943  )
       316        O      tau( 316) = (   0.6511009   0.5989696   1.3506902  )
       317        O      tau( 317) = (   0.8131240   0.0898692   1.2825970  )
       318        O      tau( 318) = (   0.6524595   0.1336951   1.7108949  )
       319        O      tau( 319) = (   0.6784211   0.5695802   1.4690337  )
       320        O      tau( 320) = (   0.9018920   0.2183548   1.6834522  )
       321        O      tau( 321) = (   0.9678130   0.0358255   1.7940055  )
       322        O      tau( 322) = (   0.8368182   0.5391156   1.6776043  )
       323        O      tau( 323) = (   0.7668768   0.6856661   1.8697035  )
       324        O      tau( 324) = (   0.1531671   0.9301796   1.8945654  )
       325        O      tau( 325) = (   0.2178402   0.7542098   1.5177838  )
       326        O      tau( 326) = (   0.3614324   0.0782581   1.4600024  )
       327        O      tau( 327) = (   0.4053368   0.0766386   1.5793453  )
       328        O      tau( 328) = (   0.3320739   0.8564650   1.8828345  )
       329        O      tau( 329) = (   0.0914304   0.8126101   1.4681485  )
       330        O      tau( 330) = (   0.2416337   0.7445048   1.2588964  )
       331        O      tau( 331) = (   0.8232583   0.9617889   1.3373563  )
       332        O      tau( 332) = (   0.0224173   0.1103921   1.3331986  )
       333        O      tau( 333) = (   0.0827261   0.7743688   1.7158336  )
       334        O      tau( 334) = (   0.3058372   0.3697607   1.3216954  )
       335        O      tau( 335) = (   0.6940744   0.4843818   1.3763524  )
       336        O      tau( 336) = (   0.0505520   0.3569640   1.2588409  )
       337        O      tau( 337) = (   0.6956442   0.5556100   1.2255199  )
       338        O      tau( 338) = (   0.9205918   0.8444316   1.2442634  )
       339        Al     tau( 339) = (   0.9474166   0.9984982   1.4171699  )
       340        Al     tau( 340) = (   0.7317137   0.2651324   1.2660316  )
       341        C      tau( 341) = (   0.5214378   0.4015461   0.6616667  )
       342        C      tau( 342) = (   0.4479569   0.3909766   0.6487188  )
       343        C      tau( 343) = (   0.5653175   0.3422400   0.6739043  )
       344        C      tau( 344) = (   0.4205128   0.3214128   0.6484047  )
       345        C      tau( 345) = (   0.5488767   0.4711092   0.6619800  )
       346        C      tau( 346) = (   0.4040833   0.4502831   0.6364769  )
       347        C      tau( 347) = (   0.5371518   0.2734980   0.6733885  )
       348        C      tau( 348) = (   0.4648892   0.2631047   0.6606660  )
       349        C      tau( 349) = (   0.5045065   0.5294176   0.6497143  )
       350        C      tau( 350) = (   0.4322510   0.5190244   0.6369823  )
       351        H      tau( 351) = (   0.6219558   0.3491057   0.6839629  )
       352        H      tau( 352) = (   0.3641909   0.3120316   0.6385725  )
       353        H      tau( 353) = (   0.6051969   0.4804959   0.6718168  )
       354        H      tau( 354) = (   0.3474366   0.4434151   0.6264060  )
       355        H      tau( 355) = (   0.5716658   0.2280845   0.6829334  )
       356        H      tau( 356) = (   0.4429953   0.2095720   0.6602706  )
       357        H      tau( 357) = (   0.5264020   0.5829447   0.6501050  )
       358        H      tau( 358) = (   0.3977363   0.5644431   0.6274369  )

     number of k points=     1  Gaussian smearing, width (Ry)=  0.0100
                       cart. coord. in units 2pi/alat
        k(    1) = (   0.0000000   0.0000000   0.0000000), wk =   2.0000000

     Dense  grid: 15943719 G-vectors     FFT dimensions: ( 216, 216, 675)

     Smooth grid: 13361281 G-vectors     FFT dimensions: ( 216, 216, 625)

     Estimated max dynamical RAM per process >       4.14 GB

     Estimated total dynamical RAM >     331.13 GB

     Check: negative core charge=   -0.000001

     Initial potential from superposition of free atoms

     starting charge    1871.8703, renormalised to    1872.0000

     negative rho (up, down):  4.118E-02 0.000E+00
     Starting wfcs are 1419 randomized atomic wfcs
     Checking if some PAW data can be deallocated... 

     total cpu time spent up to now is      149.2 secs

     per-process dynamical memory:  1754.0 Mb

     Self-consistent Calculation

     iteration #  1     ecut=    80.00 Ry     beta= 0.10
     Davidson diagonalization with overlap
     ethr =  1.00E-02,  avg # of iterations =  3.0

     negative rho (up, down):  4.322E-02 0.000E+00

     total cpu time spent up to now is      641.2 secs

     total energy              =  -11693.37404161 Ry
     estimated scf accuracy    <     115.60615625 Ry

     iteration #  2     ecut=    80.00 Ry     beta= 0.10
     Davidson diagonalization with overlap
     ethr =  6.18E-03,  avg # of iterations =  1.0

     negative rho (up, down):  4.492E-02 0.000E+00

     total cpu time spent up to now is      928.5 secs

     total energy              =  -11688.10871775 Ry
     estimated scf accuracy    <      84.83579815 Ry

     iteration #  3     ecut=    80.00 Ry     beta= 0.10
     Davidson diagonalization with overlap
     ethr =  4.53E-03,  avg # of iterations =  1.0

     negative rho (up, down):  4.677E-02 0.000E+00

     total cpu time spent up to now is     1215.3 secs

     total energy              =  -11681.50017480 Ry
     estimated scf accuracy    <      59.18515776 Ry

     iteration #  4     ecut=    80.00 Ry     beta= 0.10
     Davidson diagonalization with overlap
     ethr =  3.16E-03,  avg # of iterations =  2.0

     negative rho (up, down):  4.785E-02 0.000E+00

     total cpu time spent up to now is     1536.1 secs

     total energy              =  -11682.82261453 Ry
     estimated scf accuracy    <      60.36497168 Ry

     iteration #  5     ecut=    80.00 Ry     beta= 0.10
     Davidson diagonalization with overlap
     ethr =  3.16E-03,  avg # of iterations =  1.0

     negative rho (up, down):  4.897E-02 0.000E+00

     total cpu time spent up to now is     1819.8 secs

     total energy              =  -11682.19746345 Ry
     estimated scf accuracy    <      39.48157803 Ry

     iteration #  6     ecut=    80.00 Ry     beta= 0.10
     Davidson diagonalization with overlap
     ethr =  2.11E-03,  avg # of iterations =  1.0

     negative rho (up, down):  4.983E-02 0.000E+00

     total cpu time spent up to now is     2104.2 secs

     total energy              =  -11682.42772949 Ry
     estimated scf accuracy    <      26.81691563 Ry

     iteration #  7     ecut=    80.00 Ry     beta= 0.10
     Davidson diagonalization with overlap
     ethr =  1.43E-03,  avg # of iterations =  2.0

     negative rho (up, down):  5.064E-02 0.000E+00

     total cpu time spent up to now is     2424.0 secs

     total energy              =  -11682.17315892 Ry
     estimated scf accuracy    <      34.81216621 Ry

     iteration #  8     ecut=    80.00 Ry     beta= 0.10
     Davidson diagonalization with overlap
     ethr =  1.43E-03,  avg # of iterations =  1.0

     negative rho (up, down):  5.123E-02 0.000E+00

     total cpu time spent up to now is     2708.2 secs

     total energy              =  -11682.31222982 Ry
     estimated scf accuracy    <      18.91298523 Ry

     iteration #  9     ecut=    80.00 Ry     beta= 0.10
     Davidson diagonalization with overlap
     ethr =  1.01E-03,  avg # of iterations =  2.0

     negative rho (up, down):  5.182E-02 0.000E+00

     total cpu time spent up to now is     3026.2 secs

     total energy              =  -11682.13419786 Ry
     estimated scf accuracy    <      18.45877760 Ry

     iteration # 10     ecut=    80.00 Ry     beta= 0.10
     Davidson diagonalization with overlap
     ethr =  9.86E-04,  avg # of iterations =  2.0

     negative rho (up, down):  5.234E-02 0.000E+00

     total cpu time spent up to now is     3345.0 secs

     total energy              =  -11682.15253116 Ry
     estimated scf accuracy    <      12.49311607 Ry

     iteration # 11     ecut=    80.00 Ry     beta= 0.10
     Davidson diagonalization with overlap
     ethr =  6.67E-04,  avg # of iterations =  2.0

     negative rho (up, down):  5.268E-02 0.000E+00

     total cpu time spent up to now is     3665.4 secs

     total energy              =  -11682.04811636 Ry
     estimated scf accuracy    <      21.66072963 Ry

     iteration # 12     ecut=    80.00 Ry     beta= 0.10
     Davidson diagonalization with overlap
     ethr =  6.67E-04,  avg # of iterations =  2.0

     negative rho (up, down):  5.297E-02 0.000E+00

     total cpu time spent up to now is     3984.0 secs

     total energy              =  -11682.31664262 Ry
     estimated scf accuracy    <       4.96465566 Ry

     iteration # 13     ecut=    80.00 Ry     beta= 0.10
     Davidson diagonalization with overlap
     ethr =  2.65E-04,  avg # of iterations = 16.0

     negative rho (up, down):  5.338E-02 0.000E+00

     total cpu time spent up to now is     4419.9 secs

     total energy              =  -11682.21434571 Ry
     estimated scf accuracy    <       5.74058797 Ry

     iteration # 14     ecut=    80.00 Ry     beta= 0.10
     Davidson diagonalization with overlap
     ethr =  2.65E-04,  avg # of iterations =  1.0

     negative rho (up, down):  5.395E-02 0.000E+00

     total cpu time spent up to now is     4703.9 secs

     total energy              =  -11682.09236559 Ry
     estimated scf accuracy    <       4.75828677 Ry

     iteration # 15     ecut=    80.00 Ry     beta= 0.10
     Davidson diagonalization with overlap
     ethr =  2.54E-04,  avg # of iterations =  1.0

     negative rho (up, down):  5.391E-02 0.000E+00

     total cpu time spent up to now is     4987.6 secs

     total energy              =  -11681.89335298 Ry
     estimated scf accuracy    <      19.02328087 Ry

     iteration # 16     ecut=    80.00 Ry     beta= 0.10
     Davidson diagonalization with overlap
     ethr =  2.54E-04,  avg # of iterations =  2.0

     negative rho (up, down):  5.428E-02 0.000E+00

     total cpu time spent up to now is     5305.0 secs

     total energy              =  -11682.13519756 Ry
     estimated scf accuracy    <       3.79230326 Ry

     iteration # 17     ecut=    80.00 Ry     beta= 0.10
     Davidson diagonalization with overlap
     ethr =  2.03E-04,  avg # of iterations =  1.0

     negative rho (up, down):  5.481E-02 0.000E+00

     total cpu time spent up to now is     5588.3 secs

     total energy              =  -11682.07361922 Ry
     estimated scf accuracy    <       3.33502628 Ry

     iteration # 18     ecut=    80.00 Ry     beta= 0.10
     Davidson diagonalization with overlap
     ethr =  1.78E-04,  avg # of iterations =  2.0

     negative rho (up, down):  5.480E-02 0.000E+00

     total cpu time spent up to now is     5905.9 secs

     total energy              =  -11681.96384738 Ry
     estimated scf accuracy    <       8.21123785 Ry

     iteration # 19     ecut=    80.00 Ry     beta= 0.10
     Davidson diagonalization with overlap
     ethr =  1.78E-04,  avg # of iterations =  2.0

     negative rho (up, down):  5.505E-02 0.000E+00

     total cpu time spent up to now is     6223.7 secs

     total energy              =  -11682.11783092 Ry
     estimated scf accuracy    <       3.12525047 Ry

     iteration # 20     ecut=    80.00 Ry     beta= 0.10
     Davidson diagonalization with overlap
     ethr =  1.67E-04,  avg # of iterations =  1.0

     negative rho (up, down):  5.551E-02 0.000E+00

     total cpu time spent up to now is     6507.5 secs

     total energy              =  -11682.06807828 Ry
     estimated scf accuracy    <       2.91677429 Ry

     iteration # 21     ecut=    80.00 Ry     beta= 0.10
     Davidson diagonalization with overlap
     ethr =  1.56E-04,  avg # of iterations =  1.0

     negative rho (up, down):  5.569E-02 0.000E+00

     total cpu time spent up to now is     6791.1 secs

     total energy              =  -11681.99370532 Ry
     estimated scf accuracy    <      10.37911854 Ry

     iteration # 22     ecut=    80.00 Ry     beta= 0.10
     Davidson diagonalization with overlap
     ethr =  1.56E-04,  avg # of iterations =  1.0

     negative rho (up, down):  5.575E-02 0.000E+00

     total cpu time spent up to now is     7076.7 secs

     total energy              =  -11682.03849164 Ry
     estimated scf accuracy    <       8.56026923 Ry

     iteration # 23     ecut=    80.00 Ry     beta= 0.10
     Davidson diagonalization with overlap
     ethr =  1.56E-04,  avg # of iterations =  1.0

     negative rho (up, down):  5.578E-02 0.000E+00

     total cpu time spent up to now is     7361.3 secs

     total energy              =  -11682.07925978 Ry
     estimated scf accuracy    <       4.14852350 Ry

     iteration # 24     ecut=    80.00 Ry     beta= 0.10
     Davidson diagonalization with overlap
     ethr =  1.56E-04,  avg # of iterations =  1.0

     negative rho (up, down):  5.632E-02 0.000E+00

     total cpu time spent up to now is     7646.9 secs

     total energy              =  -11682.06627998 Ry
     estimated scf accuracy    <       3.79687951 Ry

     iteration # 25     ecut=    80.00 Ry     beta= 0.10
     Davidson diagonalization with overlap
     ethr =  1.56E-04,  avg # of iterations =  1.0

     negative rho (up, down):  5.630E-02 0.000E+00

     total cpu time spent up to now is     7930.9 secs

     total energy              =  -11682.06454113 Ry
     estimated scf accuracy    <       2.95653216 Ry

     iteration # 26     ecut=    80.00 Ry     beta= 0.10
     Davidson diagonalization with overlap
     ethr =  1.56E-04,  avg # of iterations =  1.0

     negative rho (up, down):  5.649E-02 0.000E+00

     total cpu time spent up to now is     8215.0 secs

     total energy              =  -11682.08400216 Ry
     estimated scf accuracy    <       1.48212590 Ry

     iteration # 27     ecut=    80.00 Ry     beta= 0.10
     Davidson diagonalization with overlap
     ethr =  7.92E-05,  avg # of iterations =  1.0

     negative rho (up, down):  5.723E-02 0.000E+00

     total cpu time spent up to now is     8499.3 secs

     total energy              =  -11682.06270791 Ry
     estimated scf accuracy    <       1.90304032 Ry

     iteration # 28     ecut=    80.00 Ry     beta= 0.10
     Davidson diagonalization with overlap
     ethr =  7.92E-05,  avg # of iterations =  1.0

     negative rho (up, down):  5.666E-02 0.000E+00

     total cpu time spent up to now is     8783.0 secs

     total energy              =  -11681.99758103 Ry
     estimated scf accuracy    <       6.20453816 Ry

     iteration # 29     ecut=    80.00 Ry     beta= 0.10
     Davidson diagonalization with overlap
     ethr =  7.92E-05,  avg # of iterations =  1.0

     negative rho (up, down):  5.689E-02 0.000E+00

     total cpu time spent up to now is     9067.0 secs

     total energy              =  -11682.07397855 Ry
     estimated scf accuracy    <       4.45158530 Ry

     iteration # 30     ecut=    80.00 Ry     beta= 0.10
     Davidson diagonalization with overlap
     ethr =  7.92E-05,  avg # of iterations =  1.0

     negative rho (up, down):  5.705E-02 0.000E+00

     total cpu time spent up to now is     9351.8 secs

     total energy              =  -11682.09020990 Ry
     estimated scf accuracy    <       0.92547614 Ry

     iteration # 31     ecut=    80.00 Ry     beta= 0.10
     Davidson diagonalization with overlap
     ethr =  4.94E-05,  avg # of iterations =  1.0

     negative rho (up, down):  5.728E-02 0.000E+00

     total cpu time spent up to now is     9635.6 secs

     total energy              =  -11682.08887059 Ry
     estimated scf accuracy    <       1.76642098 Ry

     iteration # 32     ecut=    80.00 Ry     beta= 0.10
     Davidson diagonalization with overlap
     ethr =  4.94E-05,  avg # of iterations =  1.0

     negative rho (up, down):  5.737E-02 0.000E+00

     total cpu time spent up to now is     9921.4 secs

     total energy              =  -11682.07614546 Ry
     estimated scf accuracy    <       1.64000248 Ry

     iteration # 33     ecut=    80.00 Ry     beta= 0.10
     Davidson diagonalization with overlap
     ethr =  4.94E-05,  avg # of iterations =  1.0

     negative rho (up, down):  5.719E-02 0.000E+00

     total cpu time spent up to now is    10205.5 secs

     total energy              =  -11682.05423413 Ry
     estimated scf accuracy    <       6.31722922 Ry

     iteration # 34     ecut=    80.00 Ry     beta= 0.10
     Davidson diagonalization with overlap
     ethr =  4.94E-05,  avg # of iterations =  1.0

     negative rho (up, down):  5.749E-02 0.000E+00

     total cpu time spent up to now is    10489.3 secs

     total energy              =  -11682.08801540 Ry
     estimated scf accuracy    <       1.11470619 Ry

     iteration # 35     ecut=    80.00 Ry     beta= 0.10
     Davidson diagonalization with overlap
     ethr =  4.94E-05,  avg # of iterations =  1.0

     negative rho (up, down):  5.748E-02 0.000E+00

     total cpu time spent up to now is    10774.0 secs

     total energy              =  -11682.08141084 Ry
     estimated scf accuracy    <       1.84760592 Ry

     iteration # 36     ecut=    80.00 Ry     beta= 0.10
     Davidson diagonalization with overlap
     ethr =  4.94E-05,  avg # of iterations =  1.0

     negative rho (up, down):  5.757E-02 0.000E+00

     total cpu time spent up to now is    11057.7 secs

     total energy              =  -11682.09524276 Ry
     estimated scf accuracy    <       0.60670854 Ry

     iteration # 37     ecut=    80.00 Ry     beta= 0.10
     Davidson diagonalization with overlap
     ethr =  3.24E-05,  avg # of iterations =  2.0

     negative rho (up, down):  5.786E-02 0.000E+00

     total cpu time spent up to now is    11375.2 secs

     total energy              =  -11682.09297534 Ry
     estimated scf accuracy    <       0.32967755 Ry

     iteration # 38     ecut=    80.00 Ry     beta= 0.10
     Davidson diagonalization with overlap
     c_bands:  1 eigenvalues not converged
     ethr =  1.76E-05,  avg # of iterations = 20.0

     negative rho (up, down):  5.766E-02 0.000E+00

     total cpu time spent up to now is    11799.8 secs

     total energy              =  -11682.05829790 Ry
     estimated scf accuracy    <       3.25221842 Ry

     iteration # 39     ecut=    80.00 Ry     beta= 0.10
     Davidson diagonalization with overlap
     ethr =  1.76E-05,  avg # of iterations =  1.0

     negative rho (up, down):  5.773E-02 0.000E+00

     total cpu time spent up to now is    12083.8 secs

     total energy              =  -11682.08985834 Ry
     estimated scf accuracy    <       1.60149444 Ry

     iteration # 40     ecut=    80.00 Ry     beta= 0.10
     Davidson diagonalization with overlap
     ethr =  1.76E-05,  avg # of iterations =  1.0

     negative rho (up, down):  5.781E-02 0.000E+00

     total cpu time spent up to now is    12368.5 secs

     total energy              =  -11682.09772187 Ry
     estimated scf accuracy    <       0.39365259 Ry

     iteration # 41     ecut=    80.00 Ry     beta= 0.10
     Davidson diagonalization with overlap
     ethr =  1.76E-05,  avg # of iterations =  1.0

     negative rho (up, down):  5.794E-02 0.000E+00

     total cpu time spent up to now is    12654.4 secs

     total energy              =  -11682.09904905 Ry
     estimated scf accuracy    <       0.25530581 Ry

     iteration # 42     ecut=    80.00 Ry     beta= 0.10
     Davidson diagonalization with overlap
     ethr =  1.36E-05,  avg # of iterations =  1.0

     negative rho (up, down):  5.811E-02 0.000E+00

     total cpu time spent up to now is    12939.5 secs

     total energy              =  -11682.09832261 Ry
     estimated scf accuracy    <       0.32966297 Ry

     iteration # 43     ecut=    80.00 Ry     beta= 0.10
     Davidson diagonalization with overlap
     ethr =  1.36E-05,  avg # of iterations =  1.0

     negative rho (up, down):  5.795E-02 0.000E+00

     total cpu time spent up to now is    13224.6 secs

     total energy              =  -11682.09313889 Ry
     estimated scf accuracy    <       0.41496863 Ry

     iteration # 44     ecut=    80.00 Ry     beta= 0.10
     Davidson diagonalization with overlap
     ethr =  1.36E-05,  avg # of iterations =  1.0

     negative rho (up, down):  5.829E-02 0.000E+00

     total cpu time spent up to now is    13509.2 secs

     total energy              =  -11682.09142581 Ry
     estimated scf accuracy    <       1.39350800 Ry

     iteration # 45     ecut=    80.00 Ry     beta= 0.10
     Davidson diagonalization with overlap
     ethr =  1.36E-05,  avg # of iterations =  1.0

     negative rho (up, down):  5.812E-02 0.000E+00

     total cpu time spent up to now is    13794.3 secs

     total energy              =  -11682.09267242 Ry
     estimated scf accuracy    <       0.53910530 Ry

     iteration # 46     ecut=    80.00 Ry     beta= 0.10
     Davidson diagonalization with overlap
     ethr =  1.36E-05,  avg # of iterations =  1.0

     negative rho (up, down):  5.818E-02 0.000E+00

     total cpu time spent up to now is    14078.6 secs

     total energy              =  -11682.09493603 Ry
     estimated scf accuracy    <       0.81998019 Ry

     iteration # 47     ecut=    80.00 Ry     beta= 0.10
     Davidson diagonalization with overlap
     ethr =  1.36E-05,  avg # of iterations =  1.0

     negative rho (up, down):  5.843E-02 0.000E+00

     total cpu time spent up to now is    14363.0 secs

     total energy              =  -11682.10057640 Ry
     estimated scf accuracy    <       0.21076374 Ry

     iteration # 48     ecut=    80.00 Ry     beta= 0.10
     Davidson diagonalization with overlap
     ethr =  1.13E-05,  avg # of iterations =  1.0

     negative rho (up, down):  5.862E-02 0.000E+00

     total cpu time spent up to now is    14647.0 secs

     total energy              =  -11682.09937781 Ry
     estimated scf accuracy    <       0.25197946 Ry

     iteration # 49     ecut=    80.00 Ry     beta= 0.10
     Davidson diagonalization with overlap
     ethr =  1.13E-05,  avg # of iterations =  1.0

     negative rho (up, down):  5.833E-02 0.000E+00

     total cpu time spent up to now is    14931.8 secs

     total energy              =  -11682.08894315 Ry
     estimated scf accuracy    <       1.43553599 Ry

     iteration # 50     ecut=    80.00 Ry     beta= 0.10
     Davidson diagonalization with overlap
     ethr =  1.13E-05,  avg # of iterations =  1.0

     negative rho (up, down):  5.833E-02 0.000E+00

     total cpu time spent up to now is    15215.9 secs

     total energy              =  -11682.09310299 Ry
     estimated scf accuracy    <       1.01928142 Ry

     iteration # 51     ecut=    80.00 Ry     beta= 0.10
     Davidson diagonalization with overlap
     ethr =  1.13E-05,  avg # of iterations =  1.0

     negative rho (up, down):  5.842E-02 0.000E+00

     total cpu time spent up to now is    15502.2 secs

     total energy              =  -11682.10047278 Ry
     estimated scf accuracy    <       0.25325451 Ry

     iteration # 52     ecut=    80.00 Ry     beta= 0.10
     Davidson diagonalization with overlap
     ethr =  1.13E-05,  avg # of iterations =  1.0

     negative rho (up, down):  5.850E-02 0.000E+00

     total cpu time spent up to now is    15786.8 secs

     total energy              =  -11682.10183653 Ry
     estimated scf accuracy    <       0.12066055 Ry

     iteration # 53     ecut=    80.00 Ry     beta= 0.10
     Davidson diagonalization with overlap
     ethr =  6.45E-06,  avg # of iterations =  1.0

     negative rho (up, down):  5.854E-02 0.000E+00

     total cpu time spent up to now is    16071.7 secs

     total energy              =  -11682.10175258 Ry
     estimated scf accuracy    <       0.06906141 Ry

     iteration # 54     ecut=    80.00 Ry     beta= 0.10
     Davidson diagonalization with overlap
     ethr =  3.69E-06,  avg # of iterations =  1.0

     negative rho (up, down):  5.864E-02 0.000E+00

     total cpu time spent up to now is    16356.8 secs

     total energy              =  -11682.10061815 Ry
     estimated scf accuracy    <       0.34581306 Ry

     iteration # 55     ecut=    80.00 Ry     beta= 0.10
     Davidson diagonalization with overlap
     ethr =  3.69E-06,  avg # of iterations =  1.0

     negative rho (up, down):  5.862E-02 0.000E+00

     total cpu time spent up to now is    16641.1 secs

     total energy              =  -11682.10171122 Ry
     estimated scf accuracy    <       0.06372821 Ry

     iteration # 56     ecut=    80.00 Ry     beta= 0.10
     Davidson diagonalization with overlap
     ethr =  3.40E-06,  avg # of iterations =  1.0

     negative rho (up, down):  5.860E-02 0.000E+00

     total cpu time spent up to now is    16925.8 secs

     total energy              =  -11682.09939247 Ry
     estimated scf accuracy    <       0.46407856 Ry

     iteration # 57     ecut=    80.00 Ry     beta= 0.10
     Davidson diagonalization with overlap
     ethr =  3.40E-06,  avg # of iterations =  1.0

     negative rho (up, down):  5.867E-02 0.000E+00

     total cpu time spent up to now is    17211.2 secs

     total energy              =  -11682.10211301 Ry
     estimated scf accuracy    <       0.09745355 Ry

     iteration # 58     ecut=    80.00 Ry     beta= 0.10
     Davidson diagonalization with overlap
     ethr =  3.40E-06,  avg # of iterations =  1.0

     negative rho (up, down):  5.875E-02 0.000E+00

     total cpu time spent up to now is    17495.5 secs

     total energy              =  -11682.10247057 Ry
     estimated scf accuracy    <       0.11274810 Ry

     iteration # 59     ecut=    80.00 Ry     beta= 0.10
     Davidson diagonalization with overlap
     ethr =  3.40E-06,  avg # of iterations =  1.0

     negative rho (up, down):  5.878E-02 0.000E+00

     total cpu time spent up to now is    17778.8 secs

     total energy              =  -11682.10273646 Ry
     estimated scf accuracy    <       0.06762336 Ry

     iteration # 60     ecut=    80.00 Ry     beta= 0.10
     Davidson diagonalization with overlap
     ethr =  3.40E-06,  avg # of iterations =  1.0

     negative rho (up, down):  5.872E-02 0.000E+00

     total cpu time spent up to now is    18063.3 secs

     total energy              =  -11682.10181178 Ry
     estimated scf accuracy    <       0.09068230 Ry

     iteration # 61     ecut=    80.00 Ry     beta= 0.10
     Davidson diagonalization with overlap
     ethr =  3.40E-06,  avg # of iterations =  1.0

     negative rho (up, down):  5.874E-02 0.000E+00

     total cpu time spent up to now is    18347.5 secs

     total energy              =  -11682.10070748 Ry
     estimated scf accuracy    <       0.33338859 Ry

     iteration # 62     ecut=    80.00 Ry     beta= 0.10
     Davidson diagonalization with overlap
     ethr =  3.40E-06,  avg # of iterations =  1.0

     negative rho (up, down):  5.877E-02 0.000E+00

     total cpu time spent up to now is    18632.3 secs

     total energy              =  -11682.10304212 Ry
     estimated scf accuracy    <       0.07207803 Ry

     iteration # 63     ecut=    80.00 Ry     beta= 0.10
     Davidson diagonalization with overlap
     ethr =  3.40E-06,  avg # of iterations =  1.0

     negative rho (up, down):  5.880E-02 0.000E+00

     total cpu time spent up to now is    18916.9 secs

     total energy              =  -11682.10345400 Ry
     estimated scf accuracy    <       0.02341528 Ry

     iteration # 64     ecut=    80.00 Ry     beta= 0.10
     Davidson diagonalization with overlap
     ethr =  1.25E-06,  avg # of iterations =  1.0

     negative rho (up, down):  5.885E-02 0.000E+00

     total cpu time spent up to now is    19201.8 secs

     total energy              =  -11682.10352671 Ry
     estimated scf accuracy    <       0.04507206 Ry

     iteration # 65     ecut=    80.00 Ry     beta= 0.10
     Davidson diagonalization with overlap
     ethr =  1.25E-06,  avg # of iterations =  1.0

     negative rho (up, down):  5.886E-02 0.000E+00

     total cpu time spent up to now is    19486.3 secs

     total energy              =  -11682.10366378 Ry
     estimated scf accuracy    <       0.01346779 Ry

     iteration # 66     ecut=    80.00 Ry     beta= 0.10
     Davidson diagonalization with overlap
     ethr =  7.19E-07,  avg # of iterations =  1.0

     negative rho (up, down):  5.885E-02 0.000E+00

     total cpu time spent up to now is    19771.0 secs

     total energy              =  -11682.10324967 Ry
     estimated scf accuracy    <       0.06874771 Ry

     iteration # 67     ecut=    80.00 Ry     beta= 0.10
     Davidson diagonalization with overlap
     ethr =  7.19E-07,  avg # of iterations =  1.0

     negative rho (up, down):  5.888E-02 0.000E+00

     total cpu time spent up to now is    20055.7 secs

     total energy              =  -11682.10364879 Ry
     estimated scf accuracy    <       0.02686325 Ry

     iteration # 68     ecut=    80.00 Ry     beta= 0.10
     Davidson diagonalization with overlap
     ethr =  7.19E-07,  avg # of iterations =  1.0

     negative rho (up, down):  5.893E-02 0.000E+00

     total cpu time spent up to now is    20340.5 secs

     total energy              =  -11682.10383891 Ry
     estimated scf accuracy    <       0.02432737 Ry

     iteration # 69     ecut=    80.00 Ry     beta= 0.10
     Davidson diagonalization with overlap
     ethr =  7.19E-07,  avg # of iterations =  1.0

     negative rho (up, down):  5.895E-02 0.000E+00

     total cpu time spent up to now is    20624.7 secs

     total energy              =  -11682.10382030 Ry
     estimated scf accuracy    <       0.03111566 Ry

     iteration # 70     ecut=    80.00 Ry     beta= 0.10
     Davidson diagonalization with overlap
     ethr =  7.19E-07,  avg # of iterations =  1.0

     negative rho (up, down):  5.907E-02 0.000E+00

     total cpu time spent up to now is    20909.5 secs

     total energy              =  -11682.10396613 Ry
     estimated scf accuracy    <       0.03808123 Ry

     iteration # 71     ecut=    80.00 Ry     beta= 0.10
     Davidson diagonalization with overlap
     ethr =  7.19E-07,  avg # of iterations =  1.0

     negative rho (up, down):  5.894E-02 0.000E+00

     total cpu time spent up to now is    21194.1 secs

     total energy              =  -11682.10279960 Ry
     estimated scf accuracy    <       0.12703762 Ry

     iteration # 72     ecut=    80.00 Ry     beta= 0.10
     Davidson diagonalization with overlap
     ethr =  7.19E-07,  avg # of iterations =  1.0

     negative rho (up, down):  5.895E-02 0.000E+00

     total cpu time spent up to now is    21478.0 secs

     total energy              =  -11682.10368231 Ry
     estimated scf accuracy    <       0.05575049 Ry

     iteration # 73     ecut=    80.00 Ry     beta= 0.10
     Davidson diagonalization with overlap
     ethr =  7.19E-07,  avg # of iterations =  1.0

     negative rho (up, down):  5.898E-02 0.000E+00

     total cpu time spent up to now is    21761.6 secs

     total energy              =  -11682.10399672 Ry
     estimated scf accuracy    <       0.02376973 Ry

     iteration # 74     ecut=    80.00 Ry     beta= 0.10
     Davidson diagonalization with overlap
     ethr =  7.19E-07,  avg # of iterations =  1.0

     negative rho (up, down):  5.901E-02 0.000E+00

     total cpu time spent up to now is    22045.4 secs

     total energy              =  -11682.10402619 Ry
     estimated scf accuracy    <       0.03146670 Ry

     iteration # 75     ecut=    80.00 Ry     beta= 0.10
     Davidson diagonalization with overlap
     ethr =  7.19E-07,  avg # of iterations =  1.0

     negative rho (up, down):  5.903E-02 0.000E+00

     total cpu time spent up to now is    22329.9 secs

     total energy              =  -11682.10420741 Ry
     estimated scf accuracy    <       0.00942429 Ry

     iteration # 76     ecut=    80.00 Ry     beta= 0.10
     Davidson diagonalization with overlap
     ethr =  5.03E-07,  avg # of iterations =  1.0

     negative rho (up, down):  5.902E-02 0.000E+00

     total cpu time spent up to now is    22614.3 secs

     total energy              =  -11682.10408452 Ry
     estimated scf accuracy    <       0.01977437 Ry

     iteration # 77     ecut=    80.00 Ry     beta= 0.10
     Davidson diagonalization with overlap
     ethr =  5.03E-07,  avg # of iterations =  1.0

     negative rho (up, down):  5.904E-02 0.000E+00

     total cpu time spent up to now is    22899.0 secs

     total energy              =  -11682.10420209 Ry
     estimated scf accuracy    <       0.01704364 Ry

     iteration # 78     ecut=    80.00 Ry     beta= 0.10
     Davidson diagonalization with overlap
     ethr =  5.03E-07,  avg # of iterations =  1.0

     negative rho (up, down):  5.907E-02 0.000E+00

     total cpu time spent up to now is    23183.8 secs

     total energy              =  -11682.10430098 Ry
     estimated scf accuracy    <       0.00963724 Ry

     iteration # 79     ecut=    80.00 Ry     beta= 0.10
     Davidson diagonalization with overlap
     ethr =  5.03E-07,  avg # of iterations =  1.0

     negative rho (up, down):  5.909E-02 0.000E+00

     total cpu time spent up to now is    23468.1 secs

     total energy              =  -11682.10434732 Ry
     estimated scf accuracy    <       0.01024062 Ry

     iteration # 80     ecut=    80.00 Ry     beta= 0.10
     Davidson diagonalization with overlap
     ethr =  5.03E-07,  avg # of iterations =  1.0

     negative rho (up, down):  5.917E-02 0.000E+00

     total cpu time spent up to now is    23753.2 secs

     total energy              =  -11682.10448882 Ry
     estimated scf accuracy    <       0.01038829 Ry

     iteration # 81     ecut=    80.00 Ry     beta= 0.10
     Davidson diagonalization with overlap
     ethr =  5.03E-07,  avg # of iterations =  1.0

     negative rho (up, down):  5.909E-02 0.000E+00

     total cpu time spent up to now is    24037.6 secs

     total energy              =  -11682.10415657 Ry
     estimated scf accuracy    <       0.01457692 Ry

     iteration # 82     ecut=    80.00 Ry     beta= 0.10
     Davidson diagonalization with overlap
     ethr =  5.03E-07,  avg # of iterations =  1.0

     negative rho (up, down):  5.910E-02 0.000E+00

     total cpu time spent up to now is    24322.6 secs

     total energy              =  -11682.10397385 Ry
     estimated scf accuracy    <       0.05983472 Ry

     iteration # 83     ecut=    80.00 Ry     beta= 0.10
     Davidson diagonalization with overlap
     ethr =  5.03E-07,  avg # of iterations =  1.0

     negative rho (up, down):  5.913E-02 0.000E+00

     total cpu time spent up to now is    24607.2 secs

     total energy              =  -11682.10427258 Ry
     estimated scf accuracy    <       0.03015875 Ry

     iteration # 84     ecut=    80.00 Ry     beta= 0.10
     Davidson diagonalization with overlap
     ethr =  5.03E-07,  avg # of iterations =  1.0

     negative rho (up, down):  5.915E-02 0.000E+00

     total cpu time spent up to now is    24891.4 secs

     total energy              =  -11682.10436701 Ry
     estimated scf accuracy    <       0.02078601 Ry

     iteration # 85     ecut=    80.00 Ry     beta= 0.10
     Davidson diagonalization with overlap
     ethr =  5.03E-07,  avg # of iterations =  1.0

     negative rho (up, down):  5.917E-02 0.000E+00

     total cpu time spent up to now is    25176.7 secs

     total energy              =  -11682.10448569 Ry
     estimated scf accuracy    <       0.00797871 Ry

     iteration # 86     ecut=    80.00 Ry     beta= 0.10
     Davidson diagonalization with overlap
     ethr =  4.26E-07,  avg # of iterations =  1.0

     negative rho (up, down):  5.916E-02 0.000E+00

     total cpu time spent up to now is    25460.8 secs

     total energy              =  -11682.10442976 Ry
     estimated scf accuracy    <       0.01224108 Ry

     iteration # 87     ecut=    80.00 Ry     beta= 0.10
     Davidson diagonalization with overlap
     ethr =  4.26E-07,  avg # of iterations =  1.0

     negative rho (up, down):  5.917E-02 0.000E+00

     total cpu time spent up to now is    25745.3 secs

     total energy              =  -11682.10446050 Ry
     estimated scf accuracy    <       0.01546408 Ry

     iteration # 88     ecut=    80.00 Ry     beta= 0.10
     Davidson diagonalization with overlap
     ethr =  4.26E-07,  avg # of iterations =  1.0

     negative rho (up, down):  5.918E-02 0.000E+00

     total cpu time spent up to now is    26029.5 secs

     total energy              =  -11682.10452901 Ry
     estimated scf accuracy    <       0.00583488 Ry

     iteration # 89     ecut=    80.00 Ry     beta= 0.10
     Davidson diagonalization with overlap
     ethr =  3.12E-07,  avg # of iterations =  1.0

     negative rho (up, down):  5.919E-02 0.000E+00

     total cpu time spent up to now is    26314.0 secs

     total energy              =  -11682.10457189 Ry
     estimated scf accuracy    <       0.00405330 Ry

     iteration # 90     ecut=    80.00 Ry     beta= 0.10
     Davidson diagonalization with overlap
     ethr =  2.17E-07,  avg # of iterations =  1.0

     negative rho (up, down):  5.922E-02 0.000E+00

     total cpu time spent up to now is    26597.2 secs

     total energy              =  -11682.10464455 Ry
     estimated scf accuracy    <       0.00193627 Ry

     iteration # 91     ecut=    80.00 Ry     beta= 0.10
     Davidson diagonalization with overlap
     ethr =  1.03E-07,  avg # of iterations =  1.0

     negative rho (up, down):  5.922E-02 0.000E+00

     total cpu time spent up to now is    26882.4 secs

     total energy              =  -11682.10460160 Ry
     estimated scf accuracy    <       0.00229202 Ry

     iteration # 92     ecut=    80.00 Ry     beta= 0.10
     Davidson diagonalization with overlap
     ethr =  1.03E-07,  avg # of iterations =  1.0

     negative rho (up, down):  5.922E-02 0.000E+00

     total cpu time spent up to now is    27166.5 secs

     total energy              =  -11682.10449681 Ry
     estimated scf accuracy    <       0.01681401 Ry

     iteration # 93     ecut=    80.00 Ry     beta= 0.10
     Davidson diagonalization with overlap
     ethr =  1.03E-07,  avg # of iterations =  1.0

     negative rho (up, down):  5.923E-02 0.000E+00

     total cpu time spent up to now is    27450.6 secs

     total energy              =  -11682.10453539 Ry
     estimated scf accuracy    <       0.01685158 Ry

     iteration # 94     ecut=    80.00 Ry     beta= 0.10
     Davidson diagonalization with overlap
     ethr =  1.03E-07,  avg # of iterations =  1.0

     negative rho (up, down):  5.925E-02 0.000E+00

     total cpu time spent up to now is    27734.8 secs

     total energy              =  -11682.10461275 Ry
     estimated scf accuracy    <       0.00691972 Ry

     iteration # 95     ecut=    80.00 Ry     beta= 0.10
     Davidson diagonalization with overlap
     ethr =  1.03E-07,  avg # of iterations =  1.0

     negative rho (up, down):  5.926E-02 0.000E+00

     total cpu time spent up to now is    28018.8 secs

     total energy              =  -11682.10465206 Ry
     estimated scf accuracy    <       0.00405904 Ry

     iteration # 96     ecut=    80.00 Ry     beta= 0.10
     Davidson diagonalization with overlap
     ethr =  1.03E-07,  avg # of iterations =  1.0

     negative rho (up, down):  5.927E-02 0.000E+00

     total cpu time spent up to now is    28303.2 secs

     total energy              =  -11682.10463873 Ry
     estimated scf accuracy    <       0.00645978 Ry

     iteration # 97     ecut=    80.00 Ry     beta= 0.10
     Davidson diagonalization with overlap
     ethr =  1.03E-07,  avg # of iterations =  1.0

     negative rho (up, down):  5.927E-02 0.000E+00

     total cpu time spent up to now is    28586.7 secs

     total energy              =  -11682.10460258 Ry
     estimated scf accuracy    <       0.01235925 Ry

     iteration # 98     ecut=    80.00 Ry     beta= 0.10
     Davidson diagonalization with overlap
     ethr =  1.03E-07,  avg # of iterations =  1.0

     negative rho (up, down):  5.926E-02 0.000E+00

     total cpu time spent up to now is    28870.7 secs

     total energy              =  -11682.10464411 Ry
     estimated scf accuracy    <       0.00462452 Ry

     iteration # 99     ecut=    80.00 Ry     beta= 0.10
     Davidson diagonalization with overlap
     ethr =  1.03E-07,  avg # of iterations =  1.0

     negative rho (up, down):  5.927E-02 0.000E+00

     total cpu time spent up to now is    29154.7 secs

     total energy              =  -11682.10466761 Ry
     estimated scf accuracy    <       0.00422802 Ry

     iteration #100     ecut=    80.00 Ry     beta= 0.10
     Davidson diagonalization with overlap
     ethr =  1.03E-07,  avg # of iterations =  1.0

     negative rho (up, down):  5.929E-02 0.000E+00

     total cpu time spent up to now is    29439.0 secs

     total energy              =  -11682.10471328 Ry
     estimated scf accuracy    <       0.00110919 Ry

     iteration #101     ecut=    80.00 Ry     beta= 0.10
     Davidson diagonalization with overlap
     ethr =  5.93E-08,  avg # of iterations =  1.0

     negative rho (up, down):  5.929E-02 0.000E+00

     total cpu time spent up to now is    29724.0 secs

     total energy              =  -11682.10471761 Ry
     estimated scf accuracy    <       0.00072320 Ry

     iteration #102     ecut=    80.00 Ry     beta= 0.10
     Davidson diagonalization with overlap
     ethr =  3.86E-08,  avg # of iterations =  1.0

     negative rho (up, down):  5.930E-02 0.000E+00

     total cpu time spent up to now is    30008.3 secs

     total energy              =  -11682.10470771 Ry
     estimated scf accuracy    <       0.00224582 Ry

     iteration #103     ecut=    80.00 Ry     beta= 0.10
     Davidson diagonalization with overlap
     ethr =  3.86E-08,  avg # of iterations =  1.0

     negative rho (up, down):  5.930E-02 0.000E+00

     total cpu time spent up to now is    30293.8 secs

     total energy              =  -11682.10470989 Ry
     estimated scf accuracy    <       0.00295885 Ry

     iteration #104     ecut=    80.00 Ry     beta= 0.10
     Davidson diagonalization with overlap
     ethr =  3.86E-08,  avg # of iterations =  1.0

     negative rho (up, down):  5.931E-02 0.000E+00

     total cpu time spent up to now is    30577.5 secs

     total energy              =  -11682.10472583 Ry
     estimated scf accuracy    <       0.00182834 Ry

     iteration #105     ecut=    80.00 Ry     beta= 0.10
     Davidson diagonalization with overlap
     ethr =  3.86E-08,  avg # of iterations =  1.0

     negative rho (up, down):  5.932E-02 0.000E+00

     total cpu time spent up to now is    30861.7 secs

     total energy              =  -11682.10473784 Ry
     estimated scf accuracy    <       0.00164776 Ry

     iteration #106     ecut=    80.00 Ry     beta= 0.10
     Davidson diagonalization with overlap
     ethr =  3.86E-08,  avg # of iterations =  1.0

     negative rho (up, down):  5.934E-02 0.000E+00

     total cpu time spent up to now is    31146.5 secs

     total energy              =  -11682.10474632 Ry
     estimated scf accuracy    <       0.00205404 Ry

     iteration #107     ecut=    80.00 Ry     beta= 0.10
     Davidson diagonalization with overlap
     ethr =  3.86E-08,  avg # of iterations =  1.0

     negative rho (up, down):  5.934E-02 0.000E+00

     total cpu time spent up to now is    31431.2 secs

     total energy              =  -11682.10472959 Ry
     estimated scf accuracy    <       0.00398705 Ry

     iteration #108     ecut=    80.00 Ry     beta= 0.10
     Davidson diagonalization with overlap
     ethr =  3.86E-08,  avg # of iterations =  1.0

     negative rho (up, down):  5.933E-02 0.000E+00

     total cpu time spent up to now is    31715.0 secs

     total energy              =  -11682.10471890 Ry
     estimated scf accuracy    <       0.00294276 Ry

     iteration #109     ecut=    80.00 Ry     beta= 0.10
     Davidson diagonalization with overlap
     ethr =  3.86E-08,  avg # of iterations =  2.0

     negative rho (up, down):  5.932E-02 0.000E+00

     total cpu time spent up to now is    32033.9 secs

     total energy              =  -11682.10471626 Ry
     estimated scf accuracy    <       0.00458318 Ry

     iteration #110     ecut=    80.00 Ry     beta= 0.10
     Davidson diagonalization with overlap
     ethr =  3.86E-08,  avg # of iterations =  1.0

     negative rho (up, down):  5.934E-02 0.000E+00

     total cpu time spent up to now is    32318.2 secs

     total energy              =  -11682.10475369 Ry
     estimated scf accuracy    <       0.00153147 Ry

     iteration #111     ecut=    80.00 Ry     beta= 0.10
     Davidson diagonalization with overlap
     ethr =  3.86E-08,  avg # of iterations =  1.0

     negative rho (up, down):  5.935E-02 0.000E+00

     total cpu time spent up to now is    32603.1 secs

     total energy              =  -11682.10476568 Ry
     estimated scf accuracy    <       0.00050085 Ry

     iteration #112     ecut=    80.00 Ry     beta= 0.10
     Davidson diagonalization with overlap
     ethr =  2.68E-08,  avg # of iterations =  1.0

     negative rho (up, down):  5.935E-02 0.000E+00

     total cpu time spent up to now is    32887.0 secs

     total energy              =  -11682.10476193 Ry
     estimated scf accuracy    <       0.00126446 Ry

     iteration #113     ecut=    80.00 Ry     beta= 0.10
     Davidson diagonalization with overlap
     ethr =  2.68E-08,  avg # of iterations =  1.0

     negative rho (up, down):  5.935E-02 0.000E+00

     total cpu time spent up to now is    33170.9 secs

     total energy              =  -11682.10476178 Ry
     estimated scf accuracy    <       0.00142880 Ry

     iteration #114     ecut=    80.00 Ry     beta= 0.10
     Davidson diagonalization with overlap
     ethr =  2.68E-08,  avg # of iterations =  1.0

     negative rho (up, down):  5.936E-02 0.000E+00

     total cpu time spent up to now is    33455.2 secs

     total energy              =  -11682.10477061 Ry
     estimated scf accuracy    <       0.00075003 Ry

     iteration #115     ecut=    80.00 Ry     beta= 0.10
     Davidson diagonalization with overlap
     ethr =  2.68E-08,  avg # of iterations =  1.0

     negative rho (up, down):  5.937E-02 0.000E+00

     total cpu time spent up to now is    33740.1 secs

     total energy              =  -11682.10477767 Ry
     estimated scf accuracy    <       0.00053914 Ry

     iteration #116     ecut=    80.00 Ry     beta= 0.10
     Davidson diagonalization with overlap
     ethr =  2.68E-08,  avg # of iterations =  1.0

     negative rho (up, down):  5.938E-02 0.000E+00

     total cpu time spent up to now is    34023.3 secs

     total energy              =  -11682.10478496 Ry
     estimated scf accuracy    <       0.00048165 Ry

     iteration #117     ecut=    80.00 Ry     beta= 0.10
     Davidson diagonalization with overlap
     ethr =  2.57E-08,  avg # of iterations =  1.0

     negative rho (up, down):  5.938E-02 0.000E+00

     total cpu time spent up to now is    34307.2 secs

     total energy              =  -11682.10478348 Ry
     estimated scf accuracy    <       0.00093527 Ry

     iteration #118     ecut=    80.00 Ry     beta= 0.10
     Davidson diagonalization with overlap
     ethr =  2.57E-08,  avg # of iterations =  1.0

     negative rho (up, down):  5.938E-02 0.000E+00

     total cpu time spent up to now is    34591.4 secs

     total energy              =  -11682.10477667 Ry
     estimated scf accuracy    <       0.00097096 Ry

     iteration #119     ecut=    80.00 Ry     beta= 0.10
     Davidson diagonalization with overlap
     ethr =  2.57E-08,  avg # of iterations =  1.0

     negative rho (up, down):  5.937E-02 0.000E+00

     total cpu time spent up to now is    34875.9 secs

     total energy              =  -11682.10476210 Ry
     estimated scf accuracy    <       0.00302690 Ry

     iteration #120     ecut=    80.00 Ry     beta= 0.10
     Davidson diagonalization with overlap
     ethr =  2.57E-08,  avg # of iterations =  1.0

     negative rho (up, down):  5.938E-02 0.000E+00

     total cpu time spent up to now is    35159.5 secs

     total energy              =  -11682.10477704 Ry
     estimated scf accuracy    <       0.00174621 Ry

     iteration #121     ecut=    80.00 Ry     beta= 0.10
     Davidson diagonalization with overlap
     ethr =  2.57E-08,  avg # of iterations =  1.0

     negative rho (up, down):  5.939E-02 0.000E+00

     total cpu time spent up to now is    35444.2 secs

     total energy              =  -11682.10479101 Ry
     estimated scf accuracy    <       0.00044452 Ry

     iteration #122     ecut=    80.00 Ry     beta= 0.10
     Davidson diagonalization with overlap
     ethr =  2.37E-08,  avg # of iterations =  1.0

     negative rho (up, down):  5.939E-02 0.000E+00

     total cpu time spent up to now is    35728.5 secs

     total energy              =  -11682.10479051 Ry
     estimated scf accuracy    <       0.00085713 Ry

     iteration #123     ecut=    80.00 Ry     beta= 0.10
     Davidson diagonalization with overlap
     ethr =  2.37E-08,  avg # of iterations =  1.0

     negative rho (up, down):  5.939E-02 0.000E+00

     total cpu time spent up to now is    36012.9 secs

     total energy              =  -11682.10478732 Ry
     estimated scf accuracy    <       0.00100200 Ry

     iteration #124     ecut=    80.00 Ry     beta= 0.10
     Davidson diagonalization with overlap
     ethr =  2.37E-08,  avg # of iterations =  1.0

     negative rho (up, down):  5.939E-02 0.000E+00

     total cpu time spent up to now is    36297.3 secs

     total energy              =  -11682.10479275 Ry
     estimated scf accuracy    <       0.00055712 Ry

     iteration #125     ecut=    80.00 Ry     beta= 0.10
     Davidson diagonalization with overlap
     ethr =  2.37E-08,  avg # of iterations =  1.0

     negative rho (up, down):  5.940E-02 0.000E+00

     total cpu time spent up to now is    36581.2 secs

     total energy              =  -11682.10479723 Ry
     estimated scf accuracy    <       0.00025996 Ry

     iteration #126     ecut=    80.00 Ry     beta= 0.10
     Davidson diagonalization with overlap
     ethr =  1.39E-08,  avg # of iterations =  1.0

     negative rho (up, down):  5.940E-02 0.000E+00

     total cpu time spent up to now is    36867.2 secs

     total energy              =  -11682.10480140 Ry
     estimated scf accuracy    <       0.00014336 Ry

     iteration #127     ecut=    80.00 Ry     beta= 0.10
     Davidson diagonalization with overlap
     ethr =  7.66E-09,  avg # of iterations =  1.0

     negative rho (up, down):  5.941E-02 0.000E+00

     total cpu time spent up to now is    37152.1 secs

     total energy              =  -11682.10480215 Ry
     estimated scf accuracy    <       0.00018775 Ry

     iteration #128     ecut=    80.00 Ry     beta= 0.10
     Davidson diagonalization with overlap
     ethr =  7.66E-09,  avg # of iterations =  1.0

     negative rho (up, down):  5.941E-02 0.000E+00

     total cpu time spent up to now is    37436.0 secs

     total energy              =  -11682.10480258 Ry
     estimated scf accuracy    <       0.00026628 Ry

     iteration #129     ecut=    80.00 Ry     beta= 0.10
     Davidson diagonalization with overlap
     ethr =  7.66E-09,  avg # of iterations =  1.0

     negative rho (up, down):  5.941E-02 0.000E+00

     total cpu time spent up to now is    37721.4 secs

     total energy              =  -11682.10479787 Ry
     estimated scf accuracy    <       0.00098542 Ry

     iteration #130     ecut=    80.00 Ry     beta= 0.10
     Davidson diagonalization with overlap
     ethr =  7.66E-09,  avg # of iterations =  1.0

     negative rho (up, down):  5.941E-02 0.000E+00

     total cpu time spent up to now is    38012.6 secs

     total energy              =  -11682.10479797 Ry
     estimated scf accuracy    <       0.00086908 Ry

     iteration #131     ecut=    80.00 Ry     beta= 0.10
     Davidson diagonalization with overlap
     ethr =  7.66E-09,  avg # of iterations =  1.0

     negative rho (up, down):  5.942E-02 0.000E+00

     total cpu time spent up to now is    38297.0 secs

     total energy              =  -11682.10480544 Ry
     estimated scf accuracy    <       0.00029230 Ry

     iteration #132     ecut=    80.00 Ry     beta= 0.10
     Davidson diagonalization with overlap
     ethr =  7.66E-09,  avg # of iterations =  1.0

     negative rho (up, down):  5.942E-02 0.000E+00

     total cpu time spent up to now is    38581.4 secs

     total energy              =  -11682.10480601 Ry
     estimated scf accuracy    <       0.00043885 Ry

     iteration #133     ecut=    80.00 Ry     beta= 0.10
     Davidson diagonalization with overlap
     ethr =  7.66E-09,  avg # of iterations =  1.0

     negative rho (up, down):  5.942E-02 0.000E+00

     total cpu time spent up to now is    38865.6 secs

     total energy              =  -11682.10480334 Ry
     estimated scf accuracy    <       0.00057567 Ry

     iteration #134     ecut=    80.00 Ry     beta= 0.10
     Davidson diagonalization with overlap
     ethr =  7.66E-09,  avg # of iterations =  1.0

     negative rho (up, down):  5.942E-02 0.000E+00

     total cpu time spent up to now is    39149.0 secs

     total energy              =  -11682.10480391 Ry
     estimated scf accuracy    <       0.00055029 Ry

     iteration #135     ecut=    80.00 Ry     beta= 0.10
     Davidson diagonalization with overlap
     ethr =  7.66E-09,  avg # of iterations =  1.0

     negative rho (up, down):  5.942E-02 0.000E+00

     total cpu time spent up to now is    39433.0 secs

     total energy              =  -11682.10480685 Ry
     estimated scf accuracy    <       0.00030014 Ry

     iteration #136     ecut=    80.00 Ry     beta= 0.10
     Davidson diagonalization with overlap
     ethr =  7.66E-09,  avg # of iterations =  1.0

     negative rho (up, down):  5.943E-02 0.000E+00

     total cpu time spent up to now is    39718.1 secs

     total energy              =  -11682.10481002 Ry
     estimated scf accuracy    <       0.00011651 Ry

     iteration #137     ecut=    80.00 Ry     beta= 0.10
     Davidson diagonalization with overlap
     ethr =  6.22E-09,  avg # of iterations =  1.0

     negative rho (up, down):  5.943E-02 0.000E+00

     total cpu time spent up to now is    40002.5 secs

     total energy              =  -11682.10481102 Ry
     estimated scf accuracy    <       0.00007967 Ry

     iteration #138     ecut=    80.00 Ry     beta= 0.10
     Davidson diagonalization with overlap
     ethr =  4.26E-09,  avg # of iterations =  1.0

     negative rho (up, down):  5.943E-02 0.000E+00

     total cpu time spent up to now is    40289.7 secs

     total energy              =  -11682.10481238 Ry
     estimated scf accuracy    <       0.00006765 Ry

     iteration #139     ecut=    80.00 Ry     beta= 0.10
     Davidson diagonalization with overlap
     ethr =  3.61E-09,  avg # of iterations =  1.0

     negative rho (up, down):  5.944E-02 0.000E+00

     total cpu time spent up to now is    40573.5 secs

     total energy              =  -11682.10481212 Ry
     estimated scf accuracy    <       0.00021297 Ry

     iteration #140     ecut=    80.00 Ry     beta= 0.10
     Davidson diagonalization with overlap
     ethr =  3.61E-09,  avg # of iterations =  1.0

     negative rho (up, down):  5.944E-02 0.000E+00

     total cpu time spent up to now is    40857.3 secs

     total energy              =  -11682.10481058 Ry
     estimated scf accuracy    <       0.00027214 Ry

     iteration #141     ecut=    80.00 Ry     beta= 0.10
     Davidson diagonalization with overlap
     ethr =  3.61E-09,  avg # of iterations =  1.0

     negative rho (up, down):  5.944E-02 0.000E+00

     total cpu time spent up to now is    41141.4 secs

     total energy              =  -11682.10481330 Ry
     estimated scf accuracy    <       0.00014457 Ry

     iteration #142     ecut=    80.00 Ry     beta= 0.10
     Davidson diagonalization with overlap
     ethr =  3.61E-09,  avg # of iterations =  1.0

     negative rho (up, down):  5.944E-02 0.000E+00

     total cpu time spent up to now is    41425.3 secs

     total energy              =  -11682.10481421 Ry
     estimated scf accuracy    <       0.00014810 Ry

     iteration #143     ecut=    80.00 Ry     beta= 0.10
     Davidson diagonalization with overlap
     ethr =  3.61E-09,  avg # of iterations =  1.0

     negative rho (up, down):  5.944E-02 0.000E+00

     total cpu time spent up to now is    41710.5 secs

     total energy              =  -11682.10481341 Ry
     estimated scf accuracy    <       0.00026920 Ry

     iteration #144     ecut=    80.00 Ry     beta= 0.10
     Davidson diagonalization with overlap
     ethr =  3.61E-09,  avg # of iterations =  1.0

     negative rho (up, down):  5.944E-02 0.000E+00

     total cpu time spent up to now is    41994.6 secs

     total energy              =  -11682.10481203 Ry
     estimated scf accuracy    <       0.00038280 Ry

     iteration #145     ecut=    80.00 Ry     beta= 0.10
     Davidson diagonalization with overlap
     ethr =  3.61E-09,  avg # of iterations =  1.0

     negative rho (up, down):  5.944E-02 0.000E+00

     total cpu time spent up to now is    42278.5 secs

     total energy              =  -11682.10481235 Ry
     estimated scf accuracy    <       0.00032698 Ry

     iteration #146     ecut=    80.00 Ry     beta= 0.10
     Davidson diagonalization with overlap
     ethr =  3.61E-09,  avg # of iterations =  1.0

     negative rho (up, down):  5.945E-02 0.000E+00

     total cpu time spent up to now is    42563.3 secs

     total energy              =  -11682.10481474 Ry
     estimated scf accuracy    <       0.00015134 Ry

     iteration #147     ecut=    80.00 Ry     beta= 0.10
     Davidson diagonalization with overlap
     ethr =  3.61E-09,  avg # of iterations =  1.0

     negative rho (up, down):  5.945E-02 0.000E+00

     total cpu time spent up to now is    42850.7 secs

     total energy              =  -11682.10481577 Ry
     estimated scf accuracy    <       0.00007666 Ry

     iteration #148     ecut=    80.00 Ry     beta= 0.10
     Davidson diagonalization with overlap
     ethr =  3.61E-09,  avg # of iterations =  1.0

     negative rho (up, down):  5.945E-02 0.000E+00

     total cpu time spent up to now is    43135.4 secs

     total energy              =  -11682.10481681 Ry
     estimated scf accuracy    <       0.00003448 Ry

     iteration #149     ecut=    80.00 Ry     beta= 0.10
     Davidson diagonalization with overlap
     ethr =  1.84E-09,  avg # of iterations =  1.0

     negative rho (up, down):  5.945E-02 0.000E+00

     total cpu time spent up to now is    43419.6 secs

     total energy              =  -11682.10481719 Ry
     estimated scf accuracy    <       0.00005270 Ry

     iteration #150     ecut=    80.00 Ry     beta= 0.10
     Davidson diagonalization with overlap
     ethr =  1.84E-09,  avg # of iterations =  1.0

     negative rho (up, down):  5.945E-02 0.000E+00

     total cpu time spent up to now is    43704.7 secs

     total energy              =  -11682.10481643 Ry
     estimated scf accuracy    <       0.00007973 Ry

     iteration #151     ecut=    80.00 Ry     beta= 0.10
     Davidson diagonalization with overlap
     ethr =  1.84E-09,  avg # of iterations =  1.0

     negative rho (up, down):  5.945E-02 0.000E+00

     total cpu time spent up to now is    43997.6 secs

     total energy              =  -11682.10481736 Ry
     estimated scf accuracy    <       0.00006486 Ry

     iteration #152     ecut=    80.00 Ry     beta= 0.10
     Davidson diagonalization with overlap
     ethr =  1.84E-09,  avg # of iterations =  1.0

     negative rho (up, down):  5.946E-02 0.000E+00

     total cpu time spent up to now is    44281.7 secs

     total energy              =  -11682.10481808 Ry
     estimated scf accuracy    <       0.00003667 Ry

     iteration #153     ecut=    80.00 Ry     beta= 0.10
     Davidson diagonalization with overlap
     ethr =  1.84E-09,  avg # of iterations =  1.0

     negative rho (up, down):  5.946E-02 0.000E+00

     total cpu time spent up to now is    44566.7 secs

     total energy              =  -11682.10481837 Ry
     estimated scf accuracy    <       0.00009780 Ry

     iteration #154     ecut=    80.00 Ry     beta= 0.10
     Davidson diagonalization with overlap
     ethr =  1.84E-09,  avg # of iterations =  1.0

     negative rho (up, down):  5.946E-02 0.000E+00

     total cpu time spent up to now is    44850.6 secs

     total energy              =  -11682.10481782 Ry
     estimated scf accuracy    <       0.00014723 Ry

     iteration #155     ecut=    80.00 Ry     beta= 0.10
     Davidson diagonalization with overlap
     ethr =  1.84E-09,  avg # of iterations =  1.0

     negative rho (up, down):  5.946E-02 0.000E+00

     total cpu time spent up to now is    45135.3 secs

     total energy              =  -11682.10481716 Ry
     estimated scf accuracy    <       0.00018946 Ry

     iteration #156     ecut=    80.00 Ry     beta= 0.10
     Davidson diagonalization with overlap
     ethr =  1.84E-09,  avg # of iterations =  1.0

     negative rho (up, down):  5.946E-02 0.000E+00

     total cpu time spent up to now is    45419.1 secs

     total energy              =  -11682.10481761 Ry
     estimated scf accuracy    <       0.00012986 Ry

     iteration #157     ecut=    80.00 Ry     beta= 0.10
     Davidson diagonalization with overlap
     ethr =  1.84E-09,  avg # of iterations =  1.0

     negative rho (up, down):  5.946E-02 0.000E+00

     total cpu time spent up to now is    45703.3 secs

     total energy              =  -11682.10481834 Ry
     estimated scf accuracy    <       0.00009296 Ry

     iteration #158     ecut=    80.00 Ry     beta= 0.10
     Davidson diagonalization with overlap
     ethr =  1.84E-09,  avg # of iterations =  1.0

     negative rho (up, down):  5.946E-02 0.000E+00

     total cpu time spent up to now is    45988.5 secs

     total energy              =  -11682.10481919 Ry
     estimated scf accuracy    <       0.00003121 Ry

     iteration #159     ecut=    80.00 Ry     beta= 0.10
     Davidson diagonalization with overlap
     ethr =  1.67E-09,  avg # of iterations =  1.0

     negative rho (up, down):  5.946E-02 0.000E+00

     total cpu time spent up to now is    46272.4 secs

     total energy              =  -11682.10481951 Ry
     estimated scf accuracy    <       0.00003460 Ry

     iteration #160     ecut=    80.00 Ry     beta= 0.10
     Davidson diagonalization with overlap
     ethr =  1.67E-09,  avg # of iterations =  1.0

     negative rho (up, down):  5.946E-02 0.000E+00

     total cpu time spent up to now is    46556.9 secs

     total energy              =  -11682.10481921 Ry
     estimated scf accuracy    <       0.00003531 Ry

     iteration #161     ecut=    80.00 Ry     beta= 0.10
     Davidson diagonalization with overlap
     ethr =  1.67E-09,  avg # of iterations =  1.0

     negative rho (up, down):  5.946E-02 0.000E+00

     total cpu time spent up to now is    46841.1 secs

     total energy              =  -11682.10481956 Ry
     estimated scf accuracy    <       0.00003458 Ry

     iteration #162     ecut=    80.00 Ry     beta= 0.10
     Davidson diagonalization with overlap
     ethr =  1.67E-09,  avg # of iterations =  1.0

     negative rho (up, down):  5.947E-02 0.000E+00

     total cpu time spent up to now is    47125.4 secs

     total energy              =  -11682.10481997 Ry
     estimated scf accuracy    <       0.00001411 Ry

     iteration #163     ecut=    80.00 Ry     beta= 0.10
     Davidson diagonalization with overlap
     ethr =  7.53E-10,  avg # of iterations =  1.0

     negative rho (up, down):  5.947E-02 0.000E+00

     total cpu time spent up to now is    47409.7 secs

     total energy              =  -11682.10482030 Ry
     estimated scf accuracy    <       0.00002831 Ry

     iteration #164     ecut=    80.00 Ry     beta= 0.10
     Davidson diagonalization with overlap
     ethr =  7.53E-10,  avg # of iterations =  1.0

     negative rho (up, down):  5.947E-02 0.000E+00

     total cpu time spent up to now is    47694.4 secs

     total energy              =  -11682.10482036 Ry
     estimated scf accuracy    <       0.00003682 Ry

     iteration #165     ecut=    80.00 Ry     beta= 0.10
     Davidson diagonalization with overlap
     ethr =  7.53E-10,  avg # of iterations =  1.0

     negative rho (up, down):  5.947E-02 0.000E+00

     total cpu time spent up to now is    47978.9 secs

     total energy              =  -11682.10482012 Ry
     estimated scf accuracy    <       0.00006387 Ry

     iteration #166     ecut=    80.00 Ry     beta= 0.10
     Davidson diagonalization with overlap
     ethr =  7.53E-10,  avg # of iterations =  1.0

     negative rho (up, down):  5.947E-02 0.000E+00

     total cpu time spent up to now is    48263.6 secs

     total energy              =  -11682.10481981 Ry
     estimated scf accuracy    <       0.00006029 Ry

     iteration #167     ecut=    80.00 Ry     beta= 0.10
     Davidson diagonalization with overlap
     ethr =  7.53E-10,  avg # of iterations =  1.0

     negative rho (up, down):  5.947E-02 0.000E+00

     total cpu time spent up to now is    48548.1 secs

     total energy              =  -11682.10481990 Ry
     estimated scf accuracy    <       0.00008936 Ry

     iteration #168     ecut=    80.00 Ry     beta= 0.10
     Davidson diagonalization with overlap
     ethr =  7.53E-10,  avg # of iterations =  1.0

     negative rho (up, down):  5.947E-02 0.000E+00

     total cpu time spent up to now is    48833.1 secs

     total energy              =  -11682.10482049 Ry
     estimated scf accuracy    <       0.00003055 Ry

     iteration #169     ecut=    80.00 Ry     beta= 0.10
     Davidson diagonalization with overlap
     ethr =  7.53E-10,  avg # of iterations =  1.0

     negative rho (up, down):  5.947E-02 0.000E+00

     total cpu time spent up to now is    49117.4 secs

     total energy              =  -11682.10482077 Ry
     estimated scf accuracy    <       0.00002535 Ry

     iteration #170     ecut=    80.00 Ry     beta= 0.10
     Davidson diagonalization with overlap
     ethr =  7.53E-10,  avg # of iterations =  1.0

     negative rho (up, down):  5.947E-02 0.000E+00

     total cpu time spent up to now is    49402.6 secs

     total energy              =  -11682.10482065 Ry
     estimated scf accuracy    <       0.00002754 Ry

     iteration #171     ecut=    80.00 Ry     beta= 0.10
     Davidson diagonalization with overlap
     ethr =  7.53E-10,  avg # of iterations =  1.0

     negative rho (up, down):  5.947E-02 0.000E+00

     total cpu time spent up to now is    49687.4 secs

     total energy              =  -11682.10482068 Ry
     estimated scf accuracy    <       0.00003114 Ry

     iteration #172     ecut=    80.00 Ry     beta= 0.10
     Davidson diagonalization with overlap
     ethr =  7.53E-10,  avg # of iterations =  1.0

     negative rho (up, down):  5.947E-02 0.000E+00

     total cpu time spent up to now is    49972.6 secs

     total energy              =  -11682.10482096 Ry
     estimated scf accuracy    <       0.00000920 Ry

     iteration #173     ecut=    80.00 Ry     beta= 0.10
     Davidson diagonalization with overlap
     ethr =  4.91E-10,  avg # of iterations =  1.0

     negative rho (up, down):  5.948E-02 0.000E+00

     total cpu time spent up to now is    50256.8 secs

     total energy              =  -11682.10482117 Ry
     estimated scf accuracy    <       0.00001018 Ry

     iteration #174     ecut=    80.00 Ry     beta= 0.10
     Davidson diagonalization with overlap
     ethr =  4.91E-10,  avg # of iterations =  1.0

     negative rho (up, down):  5.948E-02 0.000E+00

     total cpu time spent up to now is    50541.3 secs

     total energy              =  -11682.10482127 Ry
     estimated scf accuracy    <       0.00000835 Ry

     iteration #175     ecut=    80.00 Ry     beta= 0.10
     Davidson diagonalization with overlap
     ethr =  4.46E-10,  avg # of iterations =  1.0

     negative rho (up, down):  5.948E-02 0.000E+00

     total cpu time spent up to now is    50833.5 secs

     total energy              =  -11682.10482129 Ry
     estimated scf accuracy    <       0.00001474 Ry

     iteration #176     ecut=    80.00 Ry     beta= 0.10
     Davidson diagonalization with overlap
     ethr =  4.46E-10,  avg # of iterations =  1.0

     negative rho (up, down):  5.948E-02 0.000E+00

     total cpu time spent up to now is    51117.5 secs

     total energy              =  -11682.10482111 Ry
     estimated scf accuracy    <       0.00001913 Ry

     iteration #177     ecut=    80.00 Ry     beta= 0.10
     Davidson diagonalization with overlap
     ethr =  4.46E-10,  avg # of iterations =  1.0

     negative rho (up, down):  5.948E-02 0.000E+00

     total cpu time spent up to now is    51402.1 secs

     total energy              =  -11682.10482103 Ry
     estimated scf accuracy    <       0.00005250 Ry

     iteration #178     ecut=    80.00 Ry     beta= 0.10
     Davidson diagonalization with overlap
     ethr =  4.46E-10,  avg # of iterations =  1.0

     negative rho (up, down):  5.948E-02 0.000E+00

     total cpu time spent up to now is    51686.7 secs

     total energy              =  -11682.10482130 Ry
     estimated scf accuracy    <       0.00001953 Ry

     iteration #179     ecut=    80.00 Ry     beta= 0.10
     Davidson diagonalization with overlap
     ethr =  4.46E-10,  avg # of iterations =  1.0

     negative rho (up, down):  5.948E-02 0.000E+00

     total cpu time spent up to now is    51970.5 secs

     total energy              =  -11682.10482144 Ry
     estimated scf accuracy    <       0.00001547 Ry

     iteration #180     ecut=    80.00 Ry     beta= 0.10
     Davidson diagonalization with overlap
     ethr =  4.46E-10,  avg # of iterations =  1.0

     negative rho (up, down):  5.948E-02 0.000E+00

     total cpu time spent up to now is    52254.9 secs

     total energy              =  -11682.10482148 Ry
     estimated scf accuracy    <       0.00001735 Ry

     iteration #181     ecut=    80.00 Ry     beta= 0.10
     Davidson diagonalization with overlap
     ethr =  4.46E-10,  avg # of iterations =  1.0

     negative rho (up, down):  5.948E-02 0.000E+00

     total cpu time spent up to now is    52539.3 secs

     total energy              =  -11682.10482131 Ry
     estimated scf accuracy    <       0.00002449 Ry

     iteration #182     ecut=    80.00 Ry     beta= 0.10
     Davidson diagonalization with overlap
     ethr =  4.46E-10,  avg # of iterations =  1.0

     negative rho (up, down):  5.948E-02 0.000E+00

     total cpu time spent up to now is    52823.6 secs

     total energy              =  -11682.10482147 Ry
     estimated scf accuracy    <       0.00000973 Ry

     iteration #183     ecut=    80.00 Ry     beta= 0.10
     Davidson diagonalization with overlap
     ethr =  4.46E-10,  avg # of iterations =  1.0

     negative rho (up, down):  5.948E-02 0.000E+00

     total cpu time spent up to now is    53107.9 secs

     total energy              =  -11682.10482161 Ry
     estimated scf accuracy    <       0.00000898 Ry

     iteration #184     ecut=    80.00 Ry     beta= 0.10
     Davidson diagonalization with overlap
     ethr =  4.46E-10,  avg # of iterations =  1.0

     negative rho (up, down):  5.948E-02 0.000E+00

     total cpu time spent up to now is    53391.7 secs

     total energy              =  -11682.10482169 Ry
     estimated scf accuracy    <       0.00000337 Ry

     iteration #185     ecut=    80.00 Ry     beta= 0.10
     Davidson diagonalization with overlap
     ethr =  1.80E-10,  avg # of iterations =  1.0

     negative rho (up, down):  5.948E-02 0.000E+00

     total cpu time spent up to now is    53676.1 secs

     total energy              =  -11682.10482173 Ry
     estimated scf accuracy    <       0.00000377 Ry

     iteration #186     ecut=    80.00 Ry     beta= 0.10
     Davidson diagonalization with overlap
     ethr =  1.80E-10,  avg # of iterations =  1.0

     negative rho (up, down):  5.948E-02 0.000E+00

     total cpu time spent up to now is    53960.8 secs

     total energy              =  -11682.10482170 Ry
     estimated scf accuracy    <       0.00000535 Ry

     iteration #187     ecut=    80.00 Ry     beta= 0.10
     Davidson diagonalization with overlap
     ethr =  1.80E-10,  avg # of iterations =  1.0

     negative rho (up, down):  5.948E-02 0.000E+00

     total cpu time spent up to now is    54244.7 secs

     total energy              =  -11682.10482167 Ry
     estimated scf accuracy    <       0.00001859 Ry

     iteration #188     ecut=    80.00 Ry     beta= 0.10
     Davidson diagonalization with overlap
     ethr =  1.80E-10,  avg # of iterations =  1.0

     negative rho (up, down):  5.948E-02 0.000E+00

     total cpu time spent up to now is    54529.6 secs

     total energy              =  -11682.10482175 Ry
     estimated scf accuracy    <       0.00000764 Ry

     iteration #189     ecut=    80.00 Ry     beta= 0.10
     Davidson diagonalization with overlap
     ethr =  1.80E-10,  avg # of iterations =  1.0

     negative rho (up, down):  5.948E-02 0.000E+00

     total cpu time spent up to now is    54814.5 secs

     total energy              =  -11682.10482180 Ry
     estimated scf accuracy    <       0.00000612 Ry

     iteration #190     ecut=    80.00 Ry     beta= 0.10
     Davidson diagonalization with overlap
     ethr =  1.80E-10,  avg # of iterations =  1.0

     negative rho (up, down):  5.949E-02 0.000E+00

     total cpu time spent up to now is    55099.0 secs

     total energy              =  -11682.10482187 Ry
     estimated scf accuracy    <       0.00000853 Ry

     iteration #191     ecut=    80.00 Ry     beta= 0.10
     Davidson diagonalization with overlap
     ethr =  1.80E-10,  avg # of iterations =  1.0

     negative rho (up, down):  5.948E-02 0.000E+00

     total cpu time spent up to now is    55383.8 secs

     total energy              =  -11682.10482176 Ry
     estimated scf accuracy    <       0.00001070 Ry

     iteration #192     ecut=    80.00 Ry     beta= 0.10
     Davidson diagonalization with overlap
     ethr =  1.80E-10,  avg # of iterations =  1.0

     negative rho (up, down):  5.948E-02 0.000E+00

     total cpu time spent up to now is    55667.8 secs

     total energy              =  -11682.10482175 Ry
     estimated scf accuracy    <       0.00000898 Ry

     iteration #193     ecut=    80.00 Ry     beta= 0.10
     Davidson diagonalization with overlap
     ethr =  1.80E-10,  avg # of iterations =  1.0

     negative rho (up, down):  5.948E-02 0.000E+00

     total cpu time spent up to now is    55951.2 secs

     total energy              =  -11682.10482183 Ry
     estimated scf accuracy    <       0.00001265 Ry

     iteration #194     ecut=    80.00 Ry     beta= 0.10
     Davidson diagonalization with overlap
     ethr =  1.80E-10,  avg # of iterations =  1.0

     negative rho (up, down):  5.949E-02 0.000E+00

     total cpu time spent up to now is    56235.7 secs

     total energy              =  -11682.10482190 Ry
     estimated scf accuracy    <       0.00000335 Ry

     iteration #195     ecut=    80.00 Ry     beta= 0.10
     Davidson diagonalization with overlap
     ethr =  1.79E-10,  avg # of iterations =  1.0

     negative rho (up, down):  5.949E-02 0.000E+00

     total cpu time spent up to now is    56530.7 secs

     total energy              =  -11682.10482193 Ry
     estimated scf accuracy    <       0.00000225 Ry

     iteration #196     ecut=    80.00 Ry     beta= 0.10
     Davidson diagonalization with overlap
     ethr =  1.20E-10,  avg # of iterations =  1.0

     negative rho (up, down):  5.949E-02 0.000E+00

     total cpu time spent up to now is    56814.3 secs

     total energy              =  -11682.10482194 Ry
     estimated scf accuracy    <       0.00000180 Ry

     iteration #197     ecut=    80.00 Ry     beta= 0.10
     Davidson diagonalization with overlap
     ethr =  9.61E-11,  avg # of iterations =  1.0

     negative rho (up, down):  5.949E-02 0.000E+00

     total cpu time spent up to now is    57099.1 secs

     total energy              =  -11682.10482194 Ry
     estimated scf accuracy    <       0.00000549 Ry

     iteration #198     ecut=    80.00 Ry     beta= 0.10
     Davidson diagonalization with overlap
     ethr =  9.61E-11,  avg # of iterations =  1.0

     negative rho (up, down):  5.949E-02 0.000E+00

     total cpu time spent up to now is    57383.6 secs

     total energy              =  -11682.10482196 Ry
     estimated scf accuracy    <       0.00000245 Ry

     iteration #199     ecut=    80.00 Ry     beta= 0.10
     Davidson diagonalization with overlap
     ethr =  9.61E-11,  avg # of iterations =  1.0

     negative rho (up, down):  5.949E-02 0.000E+00

     total cpu time spent up to now is    57667.4 secs

     total energy              =  -11682.10482198 Ry
     estimated scf accuracy    <       0.00000218 Ry

     iteration #200     ecut=    80.00 Ry     beta= 0.10
     Davidson diagonalization with overlap
     ethr =  9.61E-11,  avg # of iterations =  1.0

     negative rho (up, down):  5.949E-02 0.000E+00

     total cpu time spent up to now is    57962.9 secs

     total energy              =  -11682.10482202 Ry
     estimated scf accuracy    <       0.00000309 Ry

     iteration #201     ecut=    80.00 Ry     beta= 0.10
     Davidson diagonalization with overlap
     ethr =  9.61E-11,  avg # of iterations =  1.0

     negative rho (up, down):  5.949E-02 0.000E+00

     total cpu time spent up to now is    58247.1 secs

     total energy              =  -11682.10482200 Ry
     estimated scf accuracy    <       0.00000298 Ry

     iteration #202     ecut=    80.00 Ry     beta= 0.10
     Davidson diagonalization with overlap
     ethr =  9.61E-11,  avg # of iterations =  1.0

     negative rho (up, down):  5.949E-02 0.000E+00

     total cpu time spent up to now is    58531.4 secs

     total energy              =  -11682.10482195 Ry
     estimated scf accuracy    <       0.00000527 Ry

     iteration #203     ecut=    80.00 Ry     beta= 0.10
     Davidson diagonalization with overlap
     ethr =  9.61E-11,  avg # of iterations =  1.0

     negative rho (up, down):  5.949E-02 0.000E+00

     total cpu time spent up to now is    58815.9 secs

     total energy              =  -11682.10482194 Ry
     estimated scf accuracy    <       0.00001425 Ry

     iteration #204     ecut=    80.00 Ry     beta= 0.10
     Davidson diagonalization with overlap
     ethr =  9.61E-11,  avg # of iterations =  1.0

     negative rho (up, down):  5.949E-02 0.000E+00

     total cpu time spent up to now is    59100.5 secs

     total energy              =  -11682.10482201 Ry
     estimated scf accuracy    <       0.00000379 Ry

     iteration #205     ecut=    80.00 Ry     beta= 0.10
     Davidson diagonalization with overlap
     ethr =  9.61E-11,  avg # of iterations =  1.0

     negative rho (up, down):  5.949E-02 0.000E+00

     total cpu time spent up to now is    59384.8 secs

     total energy              =  -11682.10482203 Ry
     estimated scf accuracy    <       0.00000203 Ry

     iteration #206     ecut=    80.00 Ry     beta= 0.10
     Davidson diagonalization with overlap
     ethr =  9.61E-11,  avg # of iterations =  1.0

     negative rho (up, down):  5.949E-02 0.000E+00

     total cpu time spent up to now is    59668.6 secs

     total energy              =  -11682.10482205 Ry
     estimated scf accuracy    <       0.00000118 Ry

     iteration #207     ecut=    80.00 Ry     beta= 0.10
     Davidson diagonalization with overlap
     ethr =  6.31E-11,  avg # of iterations =  1.0

     negative rho (up, down):  5.949E-02 0.000E+00

     total cpu time spent up to now is    59952.4 secs

     total energy              =  -11682.10482204 Ry
     estimated scf accuracy    <       0.00000276 Ry

     iteration #208     ecut=    80.00 Ry     beta= 0.10
     Davidson diagonalization with overlap
     ethr =  6.31E-11,  avg # of iterations =  1.0

     negative rho (up, down):  5.949E-02 0.000E+00

     total cpu time spent up to now is    60236.6 secs

     total energy              =  -11682.10482205 Ry
     estimated scf accuracy    <       0.00000112 Ry

     iteration #209     ecut=    80.00 Ry     beta= 0.10
     Davidson diagonalization with overlap
     ethr =  5.98E-11,  avg # of iterations =  1.0

     negative rho (up, down):  5.949E-02 0.000E+00

     total cpu time spent up to now is    60521.5 secs

     total energy              =  -11682.10482206 Ry
     estimated scf accuracy    <       0.00000093 Ry

     iteration #210     ecut=    80.00 Ry     beta= 0.10
     Davidson diagonalization with overlap
     ethr =  4.97E-11,  avg # of iterations =  1.0

     negative rho (up, down):  5.949E-02 0.000E+00

     total cpu time spent up to now is    60805.9 secs

     total energy              =  -11682.10482208 Ry
     estimated scf accuracy    <       0.00000095 Ry

     iteration #211     ecut=    80.00 Ry     beta= 0.10
     Davidson diagonalization with overlap
     ethr =  4.97E-11,  avg # of iterations =  1.0

     negative rho (up, down):  5.949E-02 0.000E+00

     total cpu time spent up to now is    61091.1 secs

     total energy              =  -11682.10482209 Ry
     estimated scf accuracy    <       0.00000067 Ry

     iteration #212     ecut=    80.00 Ry     beta= 0.10
     Davidson diagonalization with overlap
     ethr =  3.59E-11,  avg # of iterations =  1.0

     negative rho (up, down):  5.949E-02 0.000E+00

     total cpu time spent up to now is    61375.3 secs

     total energy              =  -11682.10482207 Ry
     estimated scf accuracy    <       0.00000193 Ry

     iteration #213     ecut=    80.00 Ry     beta= 0.10
     Davidson diagonalization with overlap
     ethr =  3.59E-11,  avg # of iterations =  1.0

     negative rho (up, down):  5.949E-02 0.000E+00

     total cpu time spent up to now is    61659.8 secs

     total energy              =  -11682.10482204 Ry
     estimated scf accuracy    <       0.00000717 Ry

     iteration #214     ecut=    80.00 Ry     beta= 0.10
     Davidson diagonalization with overlap
     ethr =  3.59E-11,  avg # of iterations =  1.0

     negative rho (up, down):  5.949E-02 0.000E+00

     total cpu time spent up to now is    61943.3 secs

     total energy              =  -11682.10482207 Ry
     estimated scf accuracy    <       0.00000300 Ry

     iteration #215     ecut=    80.00 Ry     beta= 0.10
     Davidson diagonalization with overlap
     ethr =  3.59E-11,  avg # of iterations =  1.0

     negative rho (up, down):  5.949E-02 0.000E+00

     total cpu time spent up to now is    62227.7 secs

     total energy              =  -11682.10482208 Ry
     estimated scf accuracy    <       0.00000177 Ry

     iteration #216     ecut=    80.00 Ry     beta= 0.10
     Davidson diagonalization with overlap
     ethr =  3.59E-11,  avg # of iterations =  1.0

     negative rho (up, down):  5.949E-02 0.000E+00

     total cpu time spent up to now is    62511.8 secs

     total energy              =  -11682.10482209 Ry
     estimated scf accuracy    <       0.00000099 Ry

     iteration #217     ecut=    80.00 Ry     beta= 0.10
     Davidson diagonalization with overlap
     ethr =  3.59E-11,  avg # of iterations =  1.0

     negative rho (up, down):  5.949E-02 0.000E+00

     total cpu time spent up to now is    62796.8 secs

     total energy              =  -11682.10482209 Ry
     estimated scf accuracy    <       0.00000222 Ry

     iteration #218     ecut=    80.00 Ry     beta= 0.10
     Davidson diagonalization with overlap
     ethr =  3.59E-11,  avg # of iterations =  1.0

     negative rho (up, down):  5.949E-02 0.000E+00

     total cpu time spent up to now is    63081.4 secs

     total energy              =  -11682.10482209 Ry
     estimated scf accuracy    <       0.00000092 Ry

     iteration #219     ecut=    80.00 Ry     beta= 0.10
     Davidson diagonalization with overlap
     ethr =  3.59E-11,  avg # of iterations =  1.0

     negative rho (up, down):  5.949E-02 0.000E+00

     total cpu time spent up to now is    63365.8 secs

     total energy              =  -11682.10482210 Ry
     estimated scf accuracy    <       0.00000071 Ry

     iteration #220     ecut=    80.00 Ry     beta= 0.10
     Davidson diagonalization with overlap
     ethr =  3.59E-11,  avg # of iterations =  1.0

     negative rho (up, down):  5.949E-02 0.000E+00

     total cpu time spent up to now is    63650.4 secs

     total energy              =  -11682.10482211 Ry
     estimated scf accuracy    <       0.00000045 Ry

     iteration #221     ecut=    80.00 Ry     beta= 0.10
     Davidson diagonalization with overlap
     ethr =  2.42E-11,  avg # of iterations =  1.0

     negative rho (up, down):  5.949E-02 0.000E+00

     total cpu time spent up to now is    63935.0 secs

     total energy              =  -11682.10482211 Ry
     estimated scf accuracy    <       0.00000021 Ry

     iteration #222     ecut=    80.00 Ry     beta= 0.10
     Davidson diagonalization with overlap
     ethr =  1.11E-11,  avg # of iterations =  1.0

     negative rho (up, down):  5.949E-02 0.000E+00

     total cpu time spent up to now is    64219.7 secs

     total energy              =  -11682.10482211 Ry
     estimated scf accuracy    <       0.00000043 Ry

     iteration #223     ecut=    80.00 Ry     beta= 0.10
     Davidson diagonalization with overlap
     ethr =  1.11E-11,  avg # of iterations =  1.0

     negative rho (up, down):  5.949E-02 0.000E+00

     total cpu time spent up to now is    64503.4 secs

     total energy              =  -11682.10482210 Ry
     estimated scf accuracy    <       0.00000187 Ry

     iteration #224     ecut=    80.00 Ry     beta= 0.10
     Davidson diagonalization with overlap
     ethr =  1.11E-11,  avg # of iterations =  1.0

     negative rho (up, down):  5.949E-02 0.000E+00

     total cpu time spent up to now is    64787.6 secs

     total energy              =  -11682.10482210 Ry
     estimated scf accuracy    <       0.00000151 Ry

     iteration #225     ecut=    80.00 Ry     beta= 0.10
     Davidson diagonalization with overlap
     ethr =  1.11E-11,  avg # of iterations =  1.0

     negative rho (up, down):  5.949E-02 0.000E+00

     total cpu time spent up to now is    65071.9 secs

     total energy              =  -11682.10482211 Ry
     estimated scf accuracy    <       0.00000113 Ry

     iteration #226     ecut=    80.00 Ry     beta= 0.10
     Davidson diagonalization with overlap
     ethr =  1.11E-11,  avg # of iterations =  1.0

     negative rho (up, down):  5.949E-02 0.000E+00

     total cpu time spent up to now is    65356.1 secs

     total energy              =  -11682.10482211 Ry
     estimated scf accuracy    <       0.00000074 Ry

     iteration #227     ecut=    80.00 Ry     beta= 0.10
     Davidson diagonalization with overlap
     ethr =  1.11E-11,  avg # of iterations =  1.0

     negative rho (up, down):  5.949E-02 0.000E+00

     total cpu time spent up to now is    65640.4 secs

     total energy              =  -11682.10482211 Ry
     estimated scf accuracy    <       0.00000139 Ry

     iteration #228     ecut=    80.00 Ry     beta= 0.10
     Davidson diagonalization with overlap
     ethr =  1.11E-11,  avg # of iterations =  1.0

     negative rho (up, down):  5.949E-02 0.000E+00

     total cpu time spent up to now is    65924.7 secs

     total energy              =  -11682.10482211 Ry
     estimated scf accuracy    <       0.00000069 Ry

     iteration #229     ecut=    80.00 Ry     beta= 0.10
     Davidson diagonalization with overlap
     ethr =  1.11E-11,  avg # of iterations =  1.0

     negative rho (up, down):  5.949E-02 0.000E+00

     total cpu time spent up to now is    66209.4 secs

     total energy              =  -11682.10482211 Ry
     estimated scf accuracy    <       0.00000070 Ry

     iteration #230     ecut=    80.00 Ry     beta= 0.10
     Davidson diagonalization with overlap
     ethr =  1.11E-11,  avg # of iterations =  1.0

     negative rho (up, down):  5.949E-02 0.000E+00

     total cpu time spent up to now is    66493.6 secs

     total energy              =  -11682.10482212 Ry
     estimated scf accuracy    <       0.00000058 Ry

     iteration #231     ecut=    80.00 Ry     beta= 0.10
     Davidson diagonalization with overlap
     ethr =  1.11E-11,  avg # of iterations =  1.0

     negative rho (up, down):  5.949E-02 0.000E+00

     total cpu time spent up to now is    66778.8 secs

     total energy              =  -11682.10482212 Ry
     estimated scf accuracy    <       0.00000011 Ry

     iteration #232     ecut=    80.00 Ry     beta= 0.10
     Davidson diagonalization with overlap
     ethr =  6.00E-12,  avg # of iterations =  1.0

     negative rho (up, down):  5.949E-02 0.000E+00

     total cpu time spent up to now is    67062.6 secs

     total energy              =  -11682.10482212 Ry
     estimated scf accuracy    <       0.00000013 Ry

     iteration #233     ecut=    80.00 Ry     beta= 0.10
     Davidson diagonalization with overlap
     ethr =  6.00E-12,  avg # of iterations =  1.0

     negative rho (up, down):  5.949E-02 0.000E+00

     total cpu time spent up to now is    67347.3 secs

     total energy              =  -11682.10482212 Ry
     estimated scf accuracy    <       0.00000034 Ry

     iteration #234     ecut=    80.00 Ry     beta= 0.10
     Davidson diagonalization with overlap
     ethr =  6.00E-12,  avg # of iterations =  1.0

     negative rho (up, down):  5.949E-02 0.000E+00

     total cpu time spent up to now is    67631.5 secs

     total energy              =  -11682.10482212 Ry
     estimated scf accuracy    <       0.00000061 Ry

     iteration #235     ecut=    80.00 Ry     beta= 0.10
     Davidson diagonalization with overlap
     ethr =  6.00E-12,  avg # of iterations =  1.0

     negative rho (up, down):  5.949E-02 0.000E+00

     total cpu time spent up to now is    67914.8 secs

     total energy              =  -11682.10482212 Ry
     estimated scf accuracy    <       0.00000050 Ry

     iteration #236     ecut=    80.00 Ry     beta= 0.10
     Davidson diagonalization with overlap
     ethr =  6.00E-12,  avg # of iterations =  1.0

     negative rho (up, down):  5.949E-02 0.000E+00

     total cpu time spent up to now is    68198.1 secs

     total energy              =  -11682.10482212 Ry
     estimated scf accuracy    <       0.00000035 Ry

     iteration #237     ecut=    80.00 Ry     beta= 0.10
     Davidson diagonalization with overlap
     ethr =  6.00E-12,  avg # of iterations =  1.0

     negative rho (up, down):  5.949E-02 0.000E+00

     total cpu time spent up to now is    68482.7 secs

     total energy              =  -11682.10482212 Ry
     estimated scf accuracy    <       0.00000051 Ry

     iteration #238     ecut=    80.00 Ry     beta= 0.10
     Davidson diagonalization with overlap
     ethr =  6.00E-12,  avg # of iterations =  1.0

     negative rho (up, down):  5.949E-02 0.000E+00

     total cpu time spent up to now is    68767.1 secs

     total energy              =  -11682.10482212 Ry
     estimated scf accuracy    <       0.00000036 Ry

     iteration #239     ecut=    80.00 Ry     beta= 0.10
     Davidson diagonalization with overlap
     ethr =  6.00E-12,  avg # of iterations =  1.0

     negative rho (up, down):  5.949E-02 0.000E+00

     total cpu time spent up to now is    69051.2 secs

     total energy              =  -11682.10482212 Ry
     estimated scf accuracy    <       0.00000054 Ry

     iteration #240     ecut=    80.00 Ry     beta= 0.10
     Davidson diagonalization with overlap
     ethr =  6.00E-12,  avg # of iterations =  1.0

     negative rho (up, down):  5.949E-02 0.000E+00

     total cpu time spent up to now is    69334.8 secs

     total energy              =  -11682.10482212 Ry
     estimated scf accuracy    <       0.00000088 Ry

     iteration #241     ecut=    80.00 Ry     beta= 0.10
     Davidson diagonalization with overlap
     ethr =  6.00E-12,  avg # of iterations =  1.0

     negative rho (up, down):  5.949E-02 0.000E+00

     total cpu time spent up to now is    69619.1 secs

     total energy              =  -11682.10482212 Ry
     estimated scf accuracy    <       0.00000012 Ry

     iteration #242     ecut=    80.00 Ry     beta= 0.10
     Davidson diagonalization with overlap
     ethr =  6.00E-12,  avg # of iterations =  1.0

     negative rho (up, down):  5.949E-02 0.000E+00

     total cpu time spent up to now is    69904.1 secs

     total energy              =  -11682.10482212 Ry
     estimated scf accuracy    <       0.00000007 Ry

     iteration #243     ecut=    80.00 Ry     beta= 0.10
     Davidson diagonalization with overlap
     ethr =  3.93E-12,  avg # of iterations =  1.0

     negative rho (up, down):  5.949E-02 0.000E+00

     total cpu time spent up to now is    70188.9 secs

     total energy              =  -11682.10482212 Ry
     estimated scf accuracy    <       0.00000009 Ry

     iteration #244     ecut=    80.00 Ry     beta= 0.10
     Davidson diagonalization with overlap
     ethr =  3.93E-12,  avg # of iterations =  1.0

     negative rho (up, down):  5.949E-02 0.000E+00

     total cpu time spent up to now is    70473.5 secs

     total energy              =  -11682.10482212 Ry
     estimated scf accuracy    <       0.00000024 Ry

     iteration #245     ecut=    80.00 Ry     beta= 0.10
     Davidson diagonalization with overlap
     ethr =  3.93E-12,  avg # of iterations =  1.0

     negative rho (up, down):  5.949E-02 0.000E+00

     total cpu time spent up to now is    70757.6 secs

     total energy              =  -11682.10482212 Ry
     estimated scf accuracy    <       0.00000015 Ry

     iteration #246     ecut=    80.00 Ry     beta= 0.10
     Davidson diagonalization with overlap
     ethr =  3.93E-12,  avg # of iterations =  1.0

     negative rho (up, down):  5.949E-02 0.000E+00

     total cpu time spent up to now is    71042.9 secs

     total energy              =  -11682.10482212 Ry
     estimated scf accuracy    <       0.00000011 Ry

     iteration #247     ecut=    80.00 Ry     beta= 0.10
     Davidson diagonalization with overlap
     ethr =  3.93E-12,  avg # of iterations =  1.0

     negative rho (up, down):  5.949E-02 0.000E+00

     total cpu time spent up to now is    71328.0 secs

     total energy              =  -11682.10482212 Ry
     estimated scf accuracy    <       0.00000014 Ry

     iteration #248     ecut=    80.00 Ry     beta= 0.10
     Davidson diagonalization with overlap
     ethr =  3.93E-12,  avg # of iterations =  1.0

     negative rho (up, down):  5.949E-02 0.000E+00

     total cpu time spent up to now is    71612.3 secs

     total energy              =  -11682.10482212 Ry
     estimated scf accuracy    <       0.00000015 Ry

     iteration #249     ecut=    80.00 Ry     beta= 0.10
     Davidson diagonalization with overlap
     ethr =  3.93E-12,  avg # of iterations =  1.0

     negative rho (up, down):  5.949E-02 0.000E+00

     total cpu time spent up to now is    71896.2 secs

     total energy              =  -11682.10482212 Ry
     estimated scf accuracy    <       0.00000022 Ry

     iteration #250     ecut=    80.00 Ry     beta= 0.10
     Davidson diagonalization with overlap
     ethr =  3.93E-12,  avg # of iterations =  1.0

     negative rho (up, down):  5.949E-02 0.000E+00

     total cpu time spent up to now is    72181.0 secs

     total energy              =  -11682.10482212 Ry
     estimated scf accuracy    <       0.00000061 Ry

     iteration #251     ecut=    80.00 Ry     beta= 0.10
     Davidson diagonalization with overlap
     ethr =  3.93E-12,  avg # of iterations =  1.0

     negative rho (up, down):  5.949E-02 0.000E+00

     total cpu time spent up to now is    72466.5 secs

     total energy              =  -11682.10482212 Ry
     estimated scf accuracy    <       0.00000014 Ry

     iteration #252     ecut=    80.00 Ry     beta= 0.10
     Davidson diagonalization with overlap
     ethr =  3.93E-12,  avg # of iterations =  1.0

     negative rho (up, down):  5.949E-02 0.000E+00

     total cpu time spent up to now is    72751.5 secs

     total energy              =  -11682.10482212 Ry
     estimated scf accuracy    <       0.00000007 Ry

     iteration #253     ecut=    80.00 Ry     beta= 0.10
     Davidson diagonalization with overlap
     ethr =  3.86E-12,  avg # of iterations =  1.0

     negative rho (up, down):  5.949E-02 0.000E+00

     total cpu time spent up to now is    73036.4 secs

     total energy              =  -11682.10482212 Ry
     estimated scf accuracy    <       0.00000007 Ry

     iteration #254     ecut=    80.00 Ry     beta= 0.10
     Davidson diagonalization with overlap
     ethr =  3.85E-12,  avg # of iterations =  1.0

     negative rho (up, down):  5.949E-02 0.000E+00

     total cpu time spent up to now is    73321.0 secs

     total energy              =  -11682.10482212 Ry
     estimated scf accuracy    <       0.00000013 Ry

     iteration #255     ecut=    80.00 Ry     beta= 0.10
     Davidson diagonalization with overlap
     ethr =  3.85E-12,  avg # of iterations =  1.0

     negative rho (up, down):  5.949E-02 0.000E+00

     total cpu time spent up to now is    73605.3 secs

     total energy              =  -11682.10482212 Ry
     estimated scf accuracy    <       0.00000006 Ry

     iteration #256     ecut=    80.00 Ry     beta= 0.10
     Davidson diagonalization with overlap
     ethr =  3.28E-12,  avg # of iterations =  1.0

     negative rho (up, down):  5.949E-02 0.000E+00

     total cpu time spent up to now is    73891.0 secs

     total energy              =  -11682.10482212 Ry
     estimated scf accuracy    <       0.00000004 Ry

     iteration #257     ecut=    80.00 Ry     beta= 0.10
     Davidson diagonalization with overlap
     ethr =  2.31E-12,  avg # of iterations =  1.0

     negative rho (up, down):  5.949E-02 0.000E+00

     total cpu time spent up to now is    74176.1 secs

     total energy              =  -11682.10482212 Ry
     estimated scf accuracy    <       0.00000004 Ry

     iteration #258     ecut=    80.00 Ry     beta= 0.10
     Davidson diagonalization with overlap
     ethr =  2.01E-12,  avg # of iterations =  1.0

     negative rho (up, down):  5.949E-02 0.000E+00

     total cpu time spent up to now is    74460.3 secs

     total energy              =  -11682.10482212 Ry
     estimated scf accuracy    <       0.00000004 Ry

     iteration #259     ecut=    80.00 Ry     beta= 0.10
     Davidson diagonalization with overlap
     ethr =  2.01E-12,  avg # of iterations =  1.0

     negative rho (up, down):  5.949E-02 0.000E+00

     total cpu time spent up to now is    74745.6 secs

     total energy              =  -11682.10482212 Ry
     estimated scf accuracy    <       0.00000006 Ry

     iteration #260     ecut=    80.00 Ry     beta= 0.10
     Davidson diagonalization with overlap
     ethr =  2.01E-12,  avg # of iterations =  1.0

     negative rho (up, down):  5.949E-02 0.000E+00

     total cpu time spent up to now is    75030.0 secs

     total energy              =  -11682.10482212 Ry
     estimated scf accuracy    <       0.00000020 Ry

     iteration #261     ecut=    80.00 Ry     beta= 0.10
     Davidson diagonalization with overlap
     ethr =  2.01E-12,  avg # of iterations =  1.0

     negative rho (up, down):  5.949E-02 0.000E+00

     total cpu time spent up to now is    75314.6 secs

     total energy              =  -11682.10482212 Ry
     estimated scf accuracy    <       0.00000011 Ry

     iteration #262     ecut=    80.00 Ry     beta= 0.10
     Davidson diagonalization with overlap
     ethr =  2.01E-12,  avg # of iterations =  1.0

     negative rho (up, down):  5.949E-02 0.000E+00

     total cpu time spent up to now is    75599.4 secs

     total energy              =  -11682.10482212 Ry
     estimated scf accuracy    <       0.00000007 Ry

     iteration #263     ecut=    80.00 Ry     beta= 0.10
     Davidson diagonalization with overlap
     ethr =  2.01E-12,  avg # of iterations =  1.0

     negative rho (up, down):  5.949E-02 0.000E+00

     total cpu time spent up to now is    75884.5 secs

     total energy              =  -11682.10482212 Ry
     estimated scf accuracy    <       0.00000005 Ry

     iteration #264     ecut=    80.00 Ry     beta= 0.10
     Davidson diagonalization with overlap
     ethr =  2.01E-12,  avg # of iterations =  1.0

     negative rho (up, down):  5.949E-02 0.000E+00

     total cpu time spent up to now is    76168.3 secs

     total energy              =  -11682.10482212 Ry
     estimated scf accuracy    <       0.00000011 Ry

     iteration #265     ecut=    80.00 Ry     beta= 0.10
     Davidson diagonalization with overlap
     ethr =  2.01E-12,  avg # of iterations =  1.0

     negative rho (up, down):  5.949E-02 0.000E+00

     total cpu time spent up to now is    76453.3 secs

     total energy              =  -11682.10482212 Ry
     estimated scf accuracy    <       0.00000006 Ry

     iteration #266     ecut=    80.00 Ry     beta= 0.10
     Davidson diagonalization with overlap
     ethr =  2.01E-12,  avg # of iterations =  1.0

     negative rho (up, down):  5.949E-02 0.000E+00

     total cpu time spent up to now is    76737.3 secs

     total energy              =  -11682.10482212 Ry
     estimated scf accuracy    <       0.00000004 Ry

     iteration #267     ecut=    80.00 Ry     beta= 0.10
     Davidson diagonalization with overlap
     ethr =  1.90E-12,  avg # of iterations =  1.0

     negative rho (up, down):  5.949E-02 0.000E+00

     total cpu time spent up to now is    77021.8 secs

     total energy              =  -11682.10482212 Ry
     estimated scf accuracy    <       0.00000002 Ry

     iteration #268     ecut=    80.00 Ry     beta= 0.10
     Davidson diagonalization with overlap
     ethr =  1.12E-12,  avg # of iterations =  1.0

     negative rho (up, down):  5.949E-02 0.000E+00

     total cpu time spent up to now is    77306.1 secs

     total energy              =  -11682.10482212 Ry
     estimated scf accuracy    <       0.00000001 Ry

     iteration #269     ecut=    80.00 Ry     beta= 0.10
     Davidson diagonalization with overlap
     ethr =  7.43E-13,  avg # of iterations =  1.0

     negative rho (up, down):  5.949E-02 0.000E+00

     total cpu time spent up to now is    77591.3 secs

     total energy              =  -11682.10482212 Ry
     estimated scf accuracy    <       0.00000001 Ry

     iteration #270     ecut=    80.00 Ry     beta= 0.10
     Davidson diagonalization with overlap
     ethr =  6.31E-13,  avg # of iterations =  1.0

     negative rho (up, down):  5.949E-02 0.000E+00

     total cpu time spent up to now is    77874.9 secs

     total energy              =  -11682.10482211 Ry
     estimated scf accuracy    <       0.00000005 Ry

     iteration #271     ecut=    80.00 Ry     beta= 0.10
     Davidson diagonalization with overlap
     ethr =  6.31E-13,  avg # of iterations =  1.0

     negative rho (up, down):  5.949E-02 0.000E+00

     total cpu time spent up to now is    78158.7 secs

     total energy              =  -11682.10482211 Ry
     estimated scf accuracy    <       0.00000005 Ry

     iteration #272     ecut=    80.00 Ry     beta= 0.10
     Davidson diagonalization with overlap
     ethr =  6.31E-13,  avg # of iterations =  1.0

     negative rho (up, down):  5.949E-02 0.000E+00

     total cpu time spent up to now is    78443.2 secs

     total energy              =  -11682.10482211 Ry
     estimated scf accuracy    <       0.00000004 Ry

     iteration #273     ecut=    80.00 Ry     beta= 0.10
     Davidson diagonalization with overlap
     ethr =  6.31E-13,  avg # of iterations =  1.0

     negative rho (up, down):  5.949E-02 0.000E+00

     total cpu time spent up to now is    78727.5 secs

     total energy              =  -11682.10482211 Ry
     estimated scf accuracy    <       0.00000003 Ry

     iteration #274     ecut=    80.00 Ry     beta= 0.10
     Davidson diagonalization with overlap
     ethr =  6.31E-13,  avg # of iterations =  1.0

     negative rho (up, down):  5.949E-02 0.000E+00

     total cpu time spent up to now is    79011.9 secs

     total energy              =  -11682.10482211 Ry
     estimated scf accuracy    <       0.00000007 Ry

     iteration #275     ecut=    80.00 Ry     beta= 0.10
     Davidson diagonalization with overlap
     ethr =  6.31E-13,  avg # of iterations =  1.0

     negative rho (up, down):  5.949E-02 0.000E+00

     total cpu time spent up to now is    79295.9 secs

     total energy              =  -11682.10482211 Ry
     estimated scf accuracy    <       0.00000005 Ry

     iteration #276     ecut=    80.00 Ry     beta= 0.10
     Davidson diagonalization with overlap
     ethr =  6.31E-13,  avg # of iterations =  1.0

     negative rho (up, down):  5.949E-02 0.000E+00

     total cpu time spent up to now is    79580.6 secs

     total energy              =  -11682.10482211 Ry
     estimated scf accuracy    <       0.00000004 Ry

     iteration #277     ecut=    80.00 Ry     beta= 0.10
     Davidson diagonalization with overlap
     ethr =  6.31E-13,  avg # of iterations =  1.0

     negative rho (up, down):  5.949E-02 0.000E+00

     total cpu time spent up to now is    79865.3 secs

     total energy              =  -11682.10482211 Ry
     estimated scf accuracy    <       0.00000002 Ry

     iteration #278     ecut=    80.00 Ry     beta= 0.10
     Davidson diagonalization with overlap
     ethr =  6.31E-13,  avg # of iterations =  1.0

     negative rho (up, down):  5.950E-02 0.000E+00

     total cpu time spent up to now is    80149.6 secs

     End of self-consistent calculation

          k = 0.0000 0.0000 0.0000 (****** PWs)   bands (ev):

   -58.1231 -56.3419 -56.0004 -55.9724 -55.7477 -55.7311 -55.1693 -55.1230
   -54.8986 -54.6434 -54.0051 -30.0497 -30.0325 -29.9945 -28.2927 -28.2500
   -28.2087 -27.9337 -27.9260 -27.9091 -27.8906 -27.8861 -27.8676 -27.6989
   -27.6808 -27.6533 -27.6331 -27.6159 -27.6045 -27.2708 -27.1401 -27.0800
   -27.0756 -27.0453 -27.0151 -26.9946 -26.8911 -26.8395 -26.7989 -26.6198
   -26.5811 -26.5259 -26.3943 -26.2669 -26.0118 -25.9558 -25.9278 -25.9099
   -25.9077 -25.8969 -25.7602 -25.7179 -25.6986 -25.6915 -25.5929 -25.5063
   -25.4372 -25.3765 -25.3276 -25.2705 -25.2495 -25.1955 -25.1713 -25.1540
   -25.1415 -25.1344 -25.0858 -25.0460 -25.0372 -25.0254 -24.9905 -24.9895
   -24.9393 -24.9255 -24.8971 -24.8737 -24.8475 -24.8084 -24.7843 -24.7663
   -24.7485 -24.7449 -24.7112 -24.6900 -24.6750 -24.6507 -24.6274 -24.5939
   -24.5804 -24.5454 -24.5416 -24.5172 -24.5033 -24.4766 -24.4657 -24.4440
   -24.4311 -24.4047 -24.3977 -24.3841 -24.3563 -24.3503 -24.3238 -24.3129
   -24.2909 -24.2648 -24.2447 -24.2367 -24.2204 -24.2010 -24.1870 -24.1603
   -24.1291 -24.1149 -24.1021 -24.0805 -24.0644 -24.0380 -24.0090 -24.0056
   -23.9521 -23.9311 -23.9278 -23.9118 -23.8952 -23.8796 -23.8704 -23.8579
   -23.8433 -23.8377 -23.8308 -23.8230 -23.8148 -23.8046 -23.7750 -23.7611
   -23.7470 -23.7405 -23.7275 -23.7009 -23.6955 -23.6820 -23.6632 -23.6536
   -23.6422 -23.6298 -23.6128 -23.5812 -23.5550 -23.5449 -23.5280 -23.5257
   -23.4982 -23.4840 -23.4801 -23.4470 -23.4403 -23.4300 -23.4180 -23.3994
   -23.3889 -23.3591 -23.3513 -23.3336 -23.3239 -23.2947 -23.2857 -23.2641
   -23.2634 -23.2393 -23.2276 -23.2196 -23.2007 -23.1911 -23.1900 -23.1747
   -23.1573 -23.1489 -23.1341 -23.0967 -23.0689 -23.0490 -23.0443 -23.0284
   -23.0205 -22.9979 -22.9845 -22.9718 -22.9664 -22.9391 -22.9315 -22.9135
   -22.9059 -22.8879 -22.8517 -22.8451 -22.8416 -22.8356 -22.8046 -22.7993
   -22.7784 -22.7013 -22.6680 -22.6574 -22.6142 -22.5911 -22.5421 -22.5334
   -22.5277 -22.5235 -22.5195 -22.4646 -22.4033 -22.3829 -22.3769 -22.3572
   -22.3464 -22.3113 -22.2508 -22.1680 -22.1234 -22.1148 -22.0725 -21.9759
   -21.7885 -21.7190 -21.7147 -21.6934 -21.6447 -21.5916 -21.5692 -21.5320
   -21.4689 -21.4453 -20.7804 -20.7347 -20.7015 -20.6924 -20.6907 -20.6639
   -20.6616 -20.6094 -20.6059 -20.5004 -20.5001 -20.3024 -20.2191 -20.2115
   -20.1519 -19.9669 -19.8733 -19.8710 -19.8689 -19.8564 -19.8517 -19.8508
   -19.8474 -19.8210 -19.8130 -19.8053 -19.7411 -19.0372 -18.6616 -17.8128
   -17.0618 -16.2609 -15.4875 -15.3484 -15.2865 -15.2151 -15.1067 -15.0268
   -14.9917 -14.9229 -14.8878 -14.8442 -14.7947 -14.7271 -14.7186 -14.6683
   -14.6431 -14.5569 -14.4788 -14.4224 -14.3483 -14.3193 -14.2664 -14.2360
   -14.1674 -14.1516 -14.1439 -14.0948 -14.0574 -14.0411 -14.0156 -13.9521
   -13.9325 -13.8875 -13.8814 -13.8252 -13.7967 -13.7421 -13.6737 -13.6598
   -13.6330 -13.5825 -13.5776 -13.5592 -13.5106 -13.4593 -13.4349 -13.4239
   -13.3793 -13.3550 -13.3486 -13.2896 -13.2667 -13.2257 -13.2181 -13.1892
   -13.1456 -13.1284 -13.0995 -13.0642 -13.0427 -13.0212 -12.9866 -12.9635
   -12.9387 -12.9105 -12.8717 -12.8610 -12.8049 -12.7858 -12.7641 -12.6867
   -12.6758 -12.6558 -12.6193 -12.5782 -12.5511 -12.5116 -12.4971 -12.4638
   -12.4541 -12.4360 -12.4269 -12.3657 -12.3477 -12.3029 -12.2830 -12.2626
   -12.2216 -12.1781 -12.1586 -12.1361 -12.1145 -12.0848 -12.0529 -12.0242
   -12.0028 -11.9895 -11.9636 -11.9449 -11.9212 -11.8858 -11.8779 -11.8424
   -11.8384 -11.8293 -11.7828 -11.7713 -11.7386 -11.7343 -11.7189 -11.7035
   -11.6813 -11.6724 -11.6541 -11.6314 -11.6181 -11.6006 -11.5965 -11.5802
   -11.5607 -11.5495 -11.5217 -11.5112 -11.5074 -11.4688 -11.4475 -11.4316
   -11.4104 -11.4017 -11.3851 -11.3517 -11.3330 -11.3124 -11.3089 -11.3021
   -11.2798 -11.2753 -11.2563 -11.2350 -11.2205 -11.2059 -11.2022 -11.1769
   -11.1274 -11.1234 -11.0983 -11.0867 -11.0637 -11.0373 -11.0304 -11.0186
   -11.0170 -11.0126 -10.9921 -10.9881 -10.9661 -10.9592 -10.9478 -10.9165
   -10.9141 -10.8765 -10.8556 -10.8457 -10.8293 -10.8262 -10.7979 -10.7895
   -10.7510 -10.7306 -10.7191 -10.7000 -10.6839 -10.6756 -10.6549 -10.6262
   -10.6112 -10.5979 -10.5669 -10.5267 -10.5153 -10.4695 -10.4472 -10.4325
   -10.4186 -10.3699 -10.3481 -10.3429 -10.3181 -10.3004 -10.2473 -10.2119
   -10.2088 -10.1840 -10.1669 -10.1268 -10.1055 -10.0482 -10.0343 -10.0115
    -9.9968  -9.9718  -9.9504  -9.9353  -9.9216  -9.9000  -9.8753  -9.8578
    -9.8037  -9.7846  -9.7278  -9.7233  -9.7056  -9.6751  -9.6657  -9.6492
    -9.6322  -9.6206  -9.6022  -9.5927  -9.5563  -9.5348  -9.5094  -9.5006
    -9.4961  -9.4749  -9.4718  -9.4632  -9.4612  -9.4483  -9.4399  -9.4269
    -9.3837  -9.3677  -9.3601  -9.3264  -9.3151  -9.3068  -9.2839  -9.2779
    -9.2585  -9.2447  -9.2148  -9.1956  -9.1794  -9.1554  -9.1525  -9.1129
    -9.1051  -9.0792  -9.0491  -9.0465  -9.0182  -9.0019  -8.9934  -8.9848
    -8.9752  -8.9601  -8.9419  -8.9202  -8.9084  -8.8996  -8.8747  -8.8719
    -8.8596  -8.8458  -8.8368  -8.8218  -8.8019  -8.7972  -8.7924  -8.7793
    -8.7757  -8.7588  -8.7301  -8.7235  -8.7136  -8.7080  -8.7072  -8.7049
    -8.6885  -8.6768  -8.6699  -8.6508  -8.6474  -8.6370  -8.6266  -8.6103
    -8.6002  -8.5938  -8.5802  -8.5691  -8.5542  -8.5321  -8.5278  -8.5223
    -8.5102  -8.5034  -8.4976  -8.4834  -8.4700  -8.4642  -8.4486  -8.4407
    -8.4340  -8.4220  -8.4059  -8.4039  -8.3999  -8.3854  -8.3733  -8.3590
    -8.3526  -8.3403  -8.3302  -8.3138  -8.3085  -8.3003  -8.2828  -8.2781
    -8.2771  -8.2653  -8.2455  -8.2270  -8.2198  -8.2082  -8.2007  -8.1858
    -8.1745  -8.1721  -8.1651  -8.1570  -8.1565  -8.1421  -8.1332  -8.1250
    -8.1174  -8.0958  -8.0865  -8.0804  -8.0765  -8.0537  -8.0490  -8.0452
    -8.0222  -8.0184  -8.0057  -7.9950  -7.9878  -7.9759  -7.9716  -7.9596
    -7.9586  -7.9431  -7.9373  -7.9284  -7.9144  -7.9103  -7.9000  -7.8864
    -7.8829  -7.8764  -7.8702  -7.8547  -7.8528  -7.8391  -7.8307  -7.8167
    -7.8099  -7.8092  -7.7900  -7.7830  -7.7777  -7.7632  -7.7586  -7.7504
    -7.7354  -7.7331  -7.7213  -7.7105  -7.7086  -7.6903  -7.6878  -7.6747
    -7.6725  -7.6493  -7.6420  -7.6376  -7.6301  -7.6188  -7.6046  -7.6031
    -7.5873  -7.5827  -7.5775  -7.5621  -7.5553  -7.5511  -7.5439  -7.5374
    -7.5218  -7.5147  -7.5088  -7.5003  -7.4946  -7.4648  -7.4509  -7.4362
    -7.4295  -7.4271  -7.4225  -7.4113  -7.3989  -7.3922  -7.3837  -7.3684
    -7.3609  -7.3477  -7.3402  -7.3243  -7.3212  -7.3192  -7.3105  -7.2998
    -7.2894  -7.2767  -7.2667  -7.2562  -7.2495  -7.2309  -7.2210  -7.2130
    -7.2005  -7.1968  -7.1850  -7.1755  -7.1645  -7.1572  -7.1449  -7.1412
    -7.1306  -7.1260  -7.1180  -7.1021  -7.0944  -7.0892  -7.0737  -7.0601
    -7.0430  -7.0349  -7.0242  -7.0117  -7.0009  -6.9906  -6.9814  -6.9778
    -6.9659  -6.9627  -6.9452  -6.9275  -6.9204  -6.9134  -6.9023  -6.8918
    -6.8803  -6.8713  -6.8600  -6.8533  -6.8423  -6.8328  -6.8231  -6.8178
    -6.8106  -6.7964  -6.7888  -6.7740  -6.7633  -6.7583  -6.7555  -6.7441
    -6.7343  -6.7268  -6.7263  -6.7200  -6.6917  -6.6900  -6.6694  -6.6510
    -6.6430  -6.6311  -6.6291  -6.6227  -6.6174  -6.6062  -6.6050  -6.5899
    -6.5855  -6.5724  -6.5687  -6.5571  -6.5432  -6.5385  -6.5250  -6.5162
    -6.5105  -6.4933  -6.4872  -6.4836  -6.4656  -6.4568  -6.4426  -6.4344
    -6.4193  -6.4165  -6.4029  -6.3904  -6.3835  -6.3756  -6.3610  -6.3564
    -6.3487  -6.3303  -6.3175  -6.3137  -6.3027  -6.2813  -6.2787  -6.2445
    -6.2339  -6.2200  -6.2132  -6.1992  -6.1938  -6.1729  -6.1695  -6.1479
    -6.1300  -6.1243  -6.1098  -6.0932  -6.0874  -6.0767  -6.0737  -6.0617
    -6.0542  -6.0443  -6.0227  -6.0157  -6.0042  -5.9841  -5.9811  -5.9754
    -5.9651  -5.9476  -5.9341  -5.9186  -5.9127  -5.9043  -5.8836  -5.8674
    -5.8616  -5.8573  -5.8534  -5.8383  -5.8234  -5.8199  -5.8132  -5.7895
    -5.7855  -5.7662  -5.7588  -5.7449  -5.7373  -5.7230  -5.7106  -5.7035
    -5.6824  -5.6547  -5.6338  -5.6169  -5.6027  -5.5922  -5.5837  -5.5743
    -5.5496  -5.5373  -5.5256  -5.5138  -5.4802  -5.4768  -5.4722  -5.4702
    -5.4616  -5.4513  -5.4117  -5.4038  -5.3872  -5.3639  -5.3615  -5.3531
    -5.3085  -5.2914  -5.2747  -5.2482  -5.2015  -5.1970  -5.1905  -5.1670
    -5.1414  -5.1073  -5.0047  -4.9899  -4.9763  -4.9703  -4.9642  -4.9518
    -4.9066  -4.8987  -4.8600  -4.8510  -4.8216  -4.8012  -4.7469  -4.7421
    -4.7237  -4.6453  -4.6169  -4.5958  -4.5924  -4.5832  -4.5774  -4.5648
    -4.4822  -4.3892  -4.3432  -4.3423  -4.2845  -4.2482  -4.1817  -4.1767
    -4.1691  -4.1593  -4.1466  -4.1128  -4.0929  -4.0731  -4.0575  -4.0486
    -4.0392  -4.0345  -4.0221  -3.9887  -3.9855  -3.9796  -3.9756  -3.9706
    -3.9641  -3.9552  -3.9499  -3.9415  -3.9376  -3.9343  -3.9265  -3.9236
    -3.9197  -3.9150  -3.8999  -3.8852  -3.8803  -3.8722  -3.8625  -3.8585
    -3.8493  -3.8491  -3.8151  -3.8058  -3.7872  -3.7692  -3.7684  -3.7555
    -3.6729  -3.5897  -3.5253  -3.4776  -3.4573  -3.4190  -3.3183  -3.2471
    -2.8653  -2.7659  -2.3656  -2.1351  -1.7118  -0.7813  -0.7580  -0.6157
    -0.5611  -0.5430  -0.4105  -0.3817  -0.3042  -0.2490  -0.1676  -0.1453
    -0.0957   0.0116   0.1123   0.1759   0.2538   0.3283   0.3931   0.4876
     0.5416   0.5748   0.6004   0.6325   0.6859   0.7419   0.7955   0.8020
     0.8418   0.8844   0.9207   0.9533   0.9975   1.0038   1.0113   1.0700
     1.0771   1.1060   1.1462   1.1624   1.2046   1.2271   1.2359   1.2536
     1.2847   1.3017   1.3138   1.3507   1.3583   1.3693   1.3811   1.4022
     1.4241   1.4813   1.4837   1.5116   1.5415   1.5599   1.5878   1.6014
     1.6133   1.6344   1.6502   1.6633   1.6790   1.6958   1.7229   1.7351
     1.7652   1.7698   1.7867   1.8134   1.8277   1.8445   1.8754   1.8849
     1.8973   1.9134   1.9221   1.9489   1.9717   1.9818   1.9915   2.0224
     2.0253   2.0374   2.0413   2.0600   2.0669   2.0717   2.0743   2.0866
     2.0966   2.1241   2.1333   2.1577   2.1612   2.1712   2.1867   2.1961
     2.2050   2.2227   2.2232   2.2390   2.2590   2.2803   2.2890   2.3230
     2.3262   2.3431   2.3523   2.3684   2.3823   2.3930   2.3984   2.4168
     2.4212   2.4319   2.4418   2.4507   2.4698   2.4800   2.4875   2.4951
     2.5026   2.5158   2.5175   2.5270   2.5410   2.5635   2.5695   2.5745
     2.5836   2.5899   2.6033   2.6106   2.6263   2.6273   2.6329   2.6426
     2.6524   2.6591   2.6649   2.6732   2.6830   2.6966   2.7039   2.7096
     2.7190   2.7329   2.7378   2.7522   2.7555   2.7595   2.7671   2.7768
     2.7841   2.8077   2.8150   2.8253   2.8329   2.8412   2.8481   2.8577
     2.8688   2.8693   2.8806

     the Fermi energy is    -3.8237 ev

!    total energy              =  -11682.10482210 Ry
     estimated scf accuracy    <          9.4E-09 Ry
     smearing contrib. (-TS)   =      -0.11093896 Ry
     internal energy E=F+TS    =  -11681.99388313 Ry

     The total energy is F=E-TS. E is the sum of the following terms:
     one-electron contribution = -361556.83499981 Ry
     hartree contribution      =  181231.99695514 Ry
     xc contribution           =   -2470.89629376 Ry
     ewald contribution        =  173473.44537592 Ry
     one-center paw contrib.   =   -2359.70492063 Ry

     convergence has been achieved in 278 iterations

     negative rho (up, down):  5.950E-02 0.000E+00

     Forces acting on atoms (cartesian axes, Ry/au):

     atom    1 type  1   force =     0.01199325    0.01351169    0.05505364
     atom    2 type  1   force =     0.02830278    0.02473348   -0.00014139
     atom    3 type  1   force =     0.00760140    0.00108241   -0.00348299
     atom    4 type  1   force =    -0.01245898   -0.01522832   -0.01031041
     atom    5 type  1   force =     0.01479089   -0.02243945   -0.02705740
     atom    6 type  1   force =     0.00350281   -0.00148463    0.00471282
     atom    7 type  1   force =    -0.00851529    0.01189672    0.01209516
     atom    8 type  1   force =    -0.01215169   -0.03110149    0.00342626
     atom    9 type  1   force =    -0.00149528    0.00641292    0.01348556
     atom   10 type  1   force =     0.01823051   -0.00180149    0.01768058
     atom   11 type  1   force =    -0.01120991   -0.00522915   -0.01230616
     atom   12 type  2   force =     0.00697064    0.12282557   -0.04037275
     atom   13 type  2   force =     0.13682574    0.10059792   -0.00112666
     atom   14 type  2   force =     0.08062208    0.03195181   -0.06290140
     atom   15 type  2   force =     0.14697613   -0.03951345   -0.15272523
     atom   16 type  2   force =     0.02148960    0.03840667    0.04013357
     atom   17 type  2   force =     0.15428155    0.01504445    0.25443181
     atom   18 type  2   force =    -0.01247358   -0.04664832   -0.04946278
     atom   19 type  2   force =    -0.01071048    0.03864912   -0.10068998
     atom   20 type  2   force =    -0.02586065   -0.01329621   -0.04179532
     atom   21 type  2   force =    -0.05465446    0.13496503   -0.03938869
     atom   22 type  2   force =     0.03564992   -0.13300936    0.09247727
     atom   23 type  2   force =    -0.03934005   -0.06824706   -0.05871269
     atom   24 type  2   force =     0.03247510    0.02647349    0.01012632
     atom   25 type  2   force =     0.06549658    0.00677906    0.07207861
     atom   26 type  2   force =    -0.01644384   -0.00956128   -0.01106109
     atom   27 type  2   force =     0.04181015    0.11797752   -0.07346567
     atom   28 type  2   force =    -0.00194024   -0.05840042   -0.01137838
     atom   29 type  2   force =    -0.03140639   -0.05047540    0.08153138
     atom   30 type  2   force =     0.03233103   -0.03167476   -0.03952610
     atom   31 type  2   force =     0.03575489    0.02201105    0.00224578
     atom   32 type  2   force =    -0.00990953   -0.06580158    0.08801400
     atom   33 type  2   force =    -0.05573288    0.01800932   -0.05539885
     atom   34 type  2   force =     0.06105083   -0.02693364   -0.02229764
     atom   35 type  3   force =    -0.01331443   -0.07802397    0.00316562
     atom   36 type  3   force =    -0.16439111    0.08796687   -0.04857477
     atom   37 type  3   force =    -0.06763683    0.03586630   -0.01400854
     atom   38 type  3   force =    -0.05433077   -0.00011278   -0.00933231
     atom   39 type  3   force =     0.07405147    0.00716327    0.01036848
     atom   40 type  3   force =     0.08667162    0.02283444   -0.04332568
     atom   41 type  3   force =    -0.10898020   -0.09031028   -0.13255026
     atom   42 type  3   force =     0.01195376   -0.06047292    0.06466369
     atom   43 type  3   force =     0.01844523   -0.02229038   -0.04845604
     atom   44 type  3   force =     0.06109212    0.10574741    0.04121890
     atom   45 type  3   force =    -0.03237751   -0.00091387   -0.03153947
     atom   46 type  3   force =    -0.03632719    0.12446654    0.05981963
     atom   47 type  3   force =    -0.05594981    0.00756992   -0.14729851
     atom   48 type  3   force =    -0.02875622   -0.12204394   -0.13758141
     atom   49 type  3   force =     0.06189175    0.18236005    0.05228030
     atom   50 type  3   force =     0.04375883   -0.02208072   -0.09769118
     atom   51 type  3   force =    -0.01916777    0.04788258    0.07061466
     atom   52 type  3   force =    -0.12115129   -0.10575697    0.11945518
     atom   53 type  3   force =    -0.12316909   -0.10992287   -0.05466785
     atom   54 type  3   force =    -0.03653580   -0.02308054    0.10035238
     atom   55 type  3   force =    -0.14990344    0.03090643    0.03097609
     atom   56 type  3   force =    -0.02262460    0.01123040    0.12158654
     atom   57 type  3   force =     0.00706268   -0.09506361   -0.04893841
     atom   58 type  3   force =     0.06099436   -0.00843343    0.04778120
     atom   59 type  3   force =    -0.03557341   -0.01076612    0.03897284
     atom   60 type  3   force =     0.07904229   -0.07455161   -0.00355563
     atom   61 type  3   force =     0.01542489    0.19123169    0.03557662
     atom   62 type  3   force =    -0.01925572   -0.01655981   -0.00615386
     atom   63 type  3   force =     0.01625890    0.01190244   -0.00637791
     atom   64 type  3   force =     0.00300752    0.05905604    0.08278500
     atom   65 type  3   force =    -0.00800771    0.02318582    0.02025721
     atom   66 type  3   force =    -0.01589646    0.00338925   -0.01872900
     atom   67 type  3   force =     0.03140928    0.00054933    0.10205483
     atom   68 type  3   force =    -0.06484156   -0.03465887    0.07981900
     atom   69 type  3   force =     0.04496538    0.03724025    0.03187072
     atom   70 type  3   force =    -0.05034024   -0.06710294   -0.05576619
     atom   71 type  3   force =     0.04847377   -0.03741825    0.05249854
     atom   72 type  3   force =     0.01423630    0.11139549    0.19923443
     atom   73 type  3   force =    -0.07869039    0.05105396   -0.07639671
     atom   74 type  3   force =     0.00532791   -0.06456143   -0.04794773
     atom   75 type  3   force =    -0.06312025    0.00863667   -0.00229591
     atom   76 type  3   force =     0.04452864   -0.10614186   -0.06057192
     atom   77 type  3   force =    -0.03078618    0.07739238    0.03346555
     atom   78 type  3   force =    -0.09862862   -0.02063568   -0.06888708
     atom   79 type  3   force =    -0.00397718   -0.04280820    0.03498406
     atom   80 type  3   force =    -0.03159401    0.03983921   -0.00617516
     atom   81 type  3   force =     0.03051019    0.01865401   -0.03973102
     atom   82 type  3   force =    -0.04202540    0.01740856   -0.05426345
     atom   83 type  3   force =    -0.05123938    0.09451856    0.02437424
     atom   84 type  3   force =    -0.02490473    0.04023010   -0.04043021
     atom   85 type  3   force =    -0.01127252   -0.09864670    0.07704028
     atom   86 type  3   force =    -0.02852503   -0.07921130   -0.10455762
     atom   87 type  3   force =     0.02215839   -0.00717030   -0.06808909
     atom   88 type  3   force =    -0.00062909    0.05375508   -0.11882530
     atom   89 type  3   force =    -0.04864173   -0.02054760    0.06482240
     atom   90 type  3   force =     0.05368144   -0.04774581   -0.04651439
     atom   91 type  3   force =     0.06646433    0.04065690   -0.01538673
     atom   92 type  3   force =    -0.00909082   -0.00581809   -0.02088953
     atom   93 type  3   force =    -0.08709298   -0.10490799   -0.00534443
     atom   94 type  3   force =     0.07176353    0.08987240    0.05022041
     atom   95 type  3   force =    -0.01086196   -0.01076734   -0.06893804
     atom   96 type  3   force =    -0.09370294   -0.01180505    0.15325922
     atom   97 type  3   force =    -0.02818232   -0.04657557   -0.00174971
     atom   98 type  3   force =     0.10435011    0.01082961    0.09549812
     atom   99 type  3   force =    -0.05541317   -0.00677536    0.03651011
     atom  100 type  3   force =     0.02259009   -0.07808146    0.07966352
     atom  101 type  3   force =    -0.06015664    0.02731358   -0.01091033
     atom  102 type  3   force =     0.03021943    0.01709908    0.03128193
     atom  103 type  3   force =     0.04697539    0.03112969    0.09744582
     atom  104 type  3   force =    -0.08244670   -0.07741217   -0.00516997
     atom  105 type  3   force =     0.02909218    0.05417486   -0.00658932
     atom  106 type  3   force =     0.03825486    0.11427345   -0.01548754
     atom  107 type  3   force =    -0.02835537   -0.00301858    0.02821184
     atom  108 type  3   force =     0.04677012   -0.01012336    0.04575782
     atom  109 type  3   force =     0.10909708    0.02058554   -0.03994845
     atom  110 type  3   force =     0.13934546    0.00801609   -0.06093345
     atom  111 type  3   force =    -0.02034920   -0.01790341    0.01774635
     atom  112 type  3   force =    -0.06696682    0.09518860   -0.01068602
     atom  113 type  3   force =     0.02128527   -0.01983224   -0.05617002
     atom  114 type  3   force =    -0.03897116    0.02175191    0.08107537
     atom  115 type  3   force =     0.01334412   -0.02841167    0.07657083
     atom  116 type  3   force =     0.08473779    0.00791373   -0.04835396
     atom  117 type  3   force =    -0.06881626    0.00331099    0.03776871
     atom  118 type  3   force =    -0.11819941    0.11165292    0.02568057
     atom  119 type  3   force =     0.07046414   -0.00673068    0.03244482
     atom  120 type  3   force =     0.00918361    0.02808168    0.10530941
     atom  121 type  3   force =     0.12991760    0.07611125    0.01645052
     atom  122 type  4   force =     0.03931288    0.01292130    0.02858982
     atom  123 type  4   force =    -0.06150214   -0.04008181   -0.00949437
     atom  124 type  4   force =     0.00360934    0.02432277   -0.04630782
     atom  125 type  4   force =     0.01813532   -0.00578251   -0.00429771
     atom  126 type  4   force =    -0.13135346   -0.14924217   -0.01139733
     atom  127 type  4   force =    -0.09950640   -0.12885855   -0.07373806
     atom  128 type  4   force =     0.01054751   -0.04946099    0.05951983
     atom  129 type  4   force =     0.00882058   -0.06148326   -0.01153050
     atom  130 type  4   force =     0.00889890   -0.02172428    0.00934841
     atom  131 type  4   force =     0.00672552   -0.01824289   -0.01304909
     atom  132 type  4   force =     0.04931906   -0.03836504   -0.01677352
     atom  133 type  4   force =    -0.03659043   -0.05918457    0.03629846
     atom  134 type  4   force =    -0.09349394    0.00757482   -0.04010405
     atom  135 type  4   force =     0.02241171   -0.02688182    0.12453414
     atom  136 type  4   force =     0.01794172   -0.01015249   -0.01839208
     atom  137 type  4   force =     0.05384229    0.04126839   -0.03420575
     atom  138 type  4   force =     0.01577180    0.00198414   -0.01531854
     atom  139 type  4   force =    -0.00674845    0.02803103   -0.02077624
     atom  140 type  4   force =     0.02154327   -0.06866700    0.02200634
     atom  141 type  4   force =     0.05844301   -0.01198570    0.00212654
     atom  142 type  4   force =    -0.10496947   -0.05310519    0.04674967
     atom  143 type  4   force =    -0.15042313   -0.03713944   -0.09754705
     atom  144 type  4   force =    -0.00562880   -0.01755266    0.02992611
     atom  145 type  4   force =    -0.04010185    0.03667581    0.01600357
     atom  146 type  4   force =    -0.02192978    0.01688619   -0.02251613
     atom  147 type  4   force =    -0.13171952   -0.04974924    0.03207256
     atom  148 type  4   force =     0.01368620   -0.02071945   -0.01296565
     atom  149 type  4   force =     0.06869575    0.03542933    0.01729060
     atom  150 type  4   force =    -0.06351208   -0.05299232   -0.02002575
     atom  151 type  4   force =     0.05092497    0.03694707    0.02447365
     atom  152 type  4   force =    -0.05808062    0.02464192    0.01510202
     atom  153 type  4   force =     0.07628025    0.01869370    0.07641427
     atom  154 type  4   force =    -0.09646031    0.00591164    0.00664803
     atom  155 type  4   force =    -0.01247055   -0.01449806   -0.00923335
     atom  156 type  4   force =    -0.05024218    0.04124225   -0.02248822
     atom  157 type  4   force =     0.04244907   -0.01056279   -0.00374036
     atom  158 type  4   force =     0.01335084    0.01209366   -0.02431283
     atom  159 type  4   force =     0.06700944    0.00747865   -0.05884989
     atom  160 type  4   force =     0.03930440   -0.08922816    0.01383024
     atom  161 type  4   force =     0.00299795   -0.02877662    0.07141095
     atom  162 type  4   force =     0.05271540    0.09511103    0.01492896
     atom  163 type  4   force =    -0.01543382    0.05817322   -0.01561356
     atom  164 type  4   force =     0.02451972    0.02904026    0.06696692
     atom  165 type  4   force =    -0.07481852    0.00939312    0.04935668
     atom  166 type  4   force =    -0.00155757   -0.10197100    0.00500616
     atom  167 type  4   force =    -0.03915948   -0.04006362   -0.01521112
     atom  168 type  4   force =     0.01690748   -0.18432493    0.05841029
     atom  169 type  4   force =     0.05232414    0.04495704   -0.09520279
     atom  170 type  4   force =     0.02789202   -0.04777545   -0.03583953
     atom  171 type  4   force =     0.01258307   -0.01692167    0.00344337
     atom  172 type  4   force =    -0.07004680    0.01230250   -0.04394970
     atom  173 type  4   force =    -0.03892000    0.00703303   -0.02547256
     atom  174 type  4   force =     0.05690027    0.08616455    0.01851148
     atom  175 type  4   force =     0.01311041    0.04180080    0.00303921
     atom  176 type  4   force =     0.03803091   -0.00538179    0.02572573
     atom  177 type  4   force =     0.06430626   -0.00469080   -0.00855097
     atom  178 type  4   force =    -0.00357743    0.03677105    0.04534480
     atom  179 type  4   force =    -0.01188412    0.02841811    0.00297759
     atom  180 type  4   force =    -0.05734793    0.00564391   -0.00722411
     atom  181 type  4   force =    -0.00000015   -0.00052751    0.09592560
     atom  182 type  4   force =    -0.02452768   -0.06135636    0.05014466
     atom  183 type  4   force =    -0.03310226    0.10672419   -0.05861648
     atom  184 type  4   force =     0.01826943   -0.01126902    0.05175865
     atom  185 type  4   force =     0.04934091   -0.03493411   -0.01727156
     atom  186 type  4   force =    -0.01141087   -0.01733000    0.00165824
     atom  187 type  4   force =    -0.02756636   -0.01186279    0.05026124
     atom  188 type  4   force =    -0.02038193   -0.01787185   -0.04715789
     atom  189 type  4   force =    -0.01986486    0.03534541   -0.00036295
     atom  190 type  4   force =     0.05860868   -0.03610767    0.00663875
     atom  191 type  4   force =    -0.01851771   -0.00335104   -0.00669787
     atom  192 type  4   force =    -0.03514402    0.02414516   -0.03100092
     atom  193 type  4   force =     0.03626737   -0.06462285    0.02163696
     atom  194 type  4   force =    -0.04962848    0.00127216   -0.00628872
     atom  195 type  4   force =    -0.01022829   -0.00650144    0.01841708
     atom  196 type  4   force =     0.00242457   -0.02551639   -0.06109425
     atom  197 type  4   force =     0.00926961    0.01571778   -0.00013449
     atom  198 type  4   force =    -0.03842897    0.04138707   -0.01355557
     atom  199 type  4   force =     0.00813307   -0.02589330    0.00624314
     atom  200 type  4   force =    -0.00958905   -0.03603684    0.05783438
     atom  201 type  4   force =    -0.01078301   -0.04758689   -0.02854554
     atom  202 type  4   force =     0.01619324    0.01501728    0.04154184
     atom  203 type  4   force =    -0.05688563   -0.05915166   -0.10309053
     atom  204 type  4   force =    -0.00238838    0.01816010    0.06244067
     atom  205 type  4   force =     0.01019249    0.07388303   -0.01371282
     atom  206 type  4   force =    -0.04069726   -0.03140087   -0.04467678
     atom  207 type  4   force =    -0.00467176   -0.03032896    0.03532194
     atom  208 type  4   force =    -0.00081303    0.01181241   -0.01006888
     atom  209 type  4   force =    -0.04447062    0.03169024   -0.05088249
     atom  210 type  4   force =    -0.01135922    0.01308027   -0.05118634
     atom  211 type  4   force =    -0.00048694   -0.03480778   -0.05647216
     atom  212 type  4   force =     0.04250878   -0.03953794   -0.03321323
     atom  213 type  4   force =     0.04284451   -0.14884272   -0.08362028
     atom  214 type  4   force =     0.05168632    0.06497604   -0.05763591
     atom  215 type  4   force =    -0.02677910   -0.02906292    0.00518772
     atom  216 type  4   force =    -0.02211652    0.07576034    0.04091236
     atom  217 type  4   force =    -0.02413924    0.03766235   -0.04189389
     atom  218 type  4   force =     0.01495569    0.02513773   -0.00789029
     atom  219 type  4   force =    -0.04401743   -0.04014406   -0.00919559
     atom  220 type  4   force =     0.01252790   -0.04159607    0.02306883
     atom  221 type  4   force =    -0.00426587    0.03038350    0.06497679
     atom  222 type  4   force =     0.10391646   -0.01656358    0.00584923
     atom  223 type  4   force =     0.02181670    0.08581599   -0.05093442
     atom  224 type  4   force =     0.03971294    0.02492713   -0.01339015
     atom  225 type  4   force =     0.06108067    0.04951449   -0.00338827
     atom  226 type  4   force =     0.02006316   -0.02508659    0.02081293
     atom  227 type  4   force =    -0.02257479    0.05200598    0.04177475
     atom  228 type  4   force =     0.00322041   -0.01708785   -0.02723051
     atom  229 type  4   force =     0.01369471    0.00003950    0.05415672
     atom  230 type  4   force =     0.05287195    0.04913869   -0.00147971
     atom  231 type  4   force =     0.04245902   -0.02097401    0.07124859
     atom  232 type  4   force =     0.04274670   -0.06426284   -0.00879648
     atom  233 type  4   force =     0.03888277    0.05820169    0.02902083
     atom  234 type  4   force =    -0.03304298   -0.05983565   -0.11439401
     atom  235 type  4   force =    -0.01906972    0.15896967   -0.01450632
     atom  236 type  4   force =     0.08808690   -0.01639111   -0.04575604
     atom  237 type  4   force =     0.00620320    0.00678476    0.01214167
     atom  238 type  4   force =    -0.01093499   -0.01289801    0.04262297
     atom  239 type  4   force =     0.01911477   -0.03604698    0.00734634
     atom  240 type  4   force =     0.07764943    0.03085604    0.02820894
     atom  241 type  4   force =     0.03138203   -0.01973362   -0.00498154
     atom  242 type  4   force =    -0.20429973   -0.02977808    0.07891345
     atom  243 type  4   force =     0.02975351    0.00104429    0.02043559
     atom  244 type  4   force =    -0.05117616   -0.00158997   -0.04531673
     atom  245 type  4   force =    -0.01912330   -0.02914665   -0.09481073
     atom  246 type  4   force =     0.02448202   -0.00895737   -0.03125915
     atom  247 type  4   force =    -0.00636070   -0.01714982   -0.06720037
     atom  248 type  4   force =    -0.01645856    0.03018881    0.05873787
     atom  249 type  4   force =     0.03809300    0.02613674   -0.06222235
     atom  250 type  4   force =    -0.08195421   -0.01671046    0.00421595
     atom  251 type  4   force =    -0.00777666   -0.00391801   -0.01948709
     atom  252 type  4   force =    -0.07095729    0.01903968   -0.05224005
     atom  253 type  4   force =     0.00126111   -0.04522553   -0.11036881
     atom  254 type  4   force =    -0.09101931    0.01338367   -0.01476291
     atom  255 type  4   force =     0.01623658   -0.01882393    0.02038833
     atom  256 type  4   force =     0.03194611   -0.00800811    0.03525024
     atom  257 type  4   force =     0.02693261   -0.02500819    0.03378991
     atom  258 type  4   force =     0.00067441    0.01269806   -0.02909461
     atom  259 type  4   force =     0.04801951    0.01503239   -0.00891323
     atom  260 type  4   force =    -0.04570114   -0.01159108   -0.06093435
     atom  261 type  4   force =     0.04154390    0.02786262   -0.03933987
     atom  262 type  4   force =    -0.05482563   -0.01077150    0.04593130
     atom  263 type  4   force =     0.09635073   -0.02624454    0.01765561
     atom  264 type  4   force =    -0.04573623    0.04262642   -0.02251578
     atom  265 type  4   force =     0.02497841    0.01544534   -0.03978167
     atom  266 type  4   force =     0.02701072    0.02036632   -0.04800262
     atom  267 type  4   force =     0.07742314   -0.00409859   -0.04263231
     atom  268 type  4   force =     0.02718967   -0.04396450   -0.03136789
     atom  269 type  4   force =    -0.01663267   -0.06671365    0.00510995
     atom  270 type  4   force =    -0.07175208   -0.01326646   -0.02964058
     atom  271 type  4   force =     0.06961698    0.01181071    0.00867802
     atom  272 type  4   force =     0.02761078    0.05490437   -0.01276762
     atom  273 type  4   force =     0.00244294   -0.00628493    0.04766988
     atom  274 type  4   force =    -0.02440335    0.00276028    0.02711311
     atom  275 type  4   force =    -0.01179998   -0.02054727    0.01817657
     atom  276 type  4   force =     0.04365413    0.07911692    0.06965623
     atom  277 type  4   force =     0.02661303   -0.01173359   -0.07657538
     atom  278 type  4   force =    -0.02163485    0.06302021    0.04434065
     atom  279 type  4   force =    -0.01201426   -0.02156350    0.00405738
     atom  280 type  4   force =    -0.02690078    0.05669580    0.00944088
     atom  281 type  4   force =     0.04153616    0.03159295    0.04327991
     atom  282 type  4   force =     0.03677869   -0.05139981    0.01536877
     atom  283 type  4   force =     0.00388579   -0.06519040   -0.03213952
     atom  284 type  4   force =     0.07177649   -0.05365355   -0.03052274
     atom  285 type  4   force =     0.01850545   -0.01659190    0.01459573
     atom  286 type  4   force =    -0.11832341   -0.02981643   -0.06917009
     atom  287 type  4   force =    -0.01601414   -0.00145931    0.04441622
     atom  288 type  4   force =     0.06712378   -0.00394864   -0.05574131
     atom  289 type  4   force =     0.02102730    0.09116790   -0.02694628
     atom  290 type  4   force =     0.10198175   -0.05834992   -0.11031721
     atom  291 type  4   force =    -0.03027533    0.01406802   -0.01561130
     atom  292 type  4   force =    -0.01959551   -0.01139370    0.01441626
     atom  293 type  4   force =    -0.00649295   -0.02628542   -0.04963097
     atom  294 type  4   force =     0.08007315   -0.02996282    0.16774766
     atom  295 type  4   force =    -0.05388124    0.06402014    0.06797206
     atom  296 type  4   force =    -0.05990345    0.01920869    0.03731581
     atom  297 type  4   force =    -0.01789358    0.01396344   -0.02435759
     atom  298 type  4   force =     0.01300637    0.01342346    0.01804432
     atom  299 type  4   force =    -0.06669773   -0.14468692   -0.02717320
     atom  300 type  4   force =    -0.01170280   -0.05289083   -0.03411907
     atom  301 type  4   force =    -0.07375634    0.03965716    0.02584795
     atom  302 type  4   force =     0.00578986    0.12646003    0.11048820
     atom  303 type  4   force =    -0.01421343   -0.02295189   -0.03986890
     atom  304 type  4   force =    -0.03900471   -0.00163752    0.01125025
     atom  305 type  4   force =    -0.03630305   -0.01653069    0.00697209
     atom  306 type  4   force =     0.00812148    0.01577090   -0.05869781
     atom  307 type  4   force =     0.02342465    0.02015897    0.04235646
     atom  308 type  4   force =     0.00975262    0.00088627   -0.05118773
     atom  309 type  4   force =     0.00197392   -0.02057068    0.01389735
     atom  310 type  4   force =     0.09237288   -0.00427284    0.11082644
     atom  311 type  4   force =    -0.03278749   -0.01343301    0.01144056
     atom  312 type  4   force =    -0.02337812    0.02160327    0.01458097
     atom  313 type  4   force =     0.01445902   -0.08750506    0.01936111
     atom  314 type  4   force =    -0.04557896    0.01303163   -0.02396736
     atom  315 type  4   force =    -0.01721140   -0.00381556   -0.02791110
     atom  316 type  4   force =    -0.00560129   -0.00390326    0.01814533
     atom  317 type  4   force =    -0.00163289    0.06902609    0.04011491
     atom  318 type  4   force =     0.04039324    0.00254288   -0.01761911
     atom  319 type  4   force =    -0.02971006   -0.01473222   -0.06109892
     atom  320 type  4   force =     0.04268374   -0.01855669   -0.02678891
     atom  321 type  4   force =    -0.02611797    0.12888062    0.03817480
     atom  322 type  4   force =     0.02390916    0.01095686   -0.06530433
     atom  323 type  4   force =     0.03522925   -0.03551306    0.04975336
     atom  324 type  4   force =     0.05185531    0.00480967   -0.02337600
     atom  325 type  4   force =     0.03439828   -0.02324530   -0.02835105
     atom  326 type  4   force =    -0.00823855    0.11665737    0.05597912
     atom  327 type  4   force =     0.04740970    0.04959781   -0.03981804
     atom  328 type  4   force =     0.02045128    0.00100932   -0.01989297
     atom  329 type  4   force =     0.10558058    0.01069130    0.01854967
     atom  330 type  4   force =     0.02364513   -0.03643333   -0.05437082
     atom  331 type  4   force =     0.03238824    0.04217635   -0.00806841
     atom  332 type  4   force =     0.02199196    0.05077587   -0.01243054
     atom  333 type  4   force =    -0.05390337   -0.05586383    0.02738664
     atom  334 type  4   force =     0.02373358    0.04554773   -0.02800614
     atom  335 type  4   force =     0.06795406    0.02174873   -0.02188535
     atom  336 type  4   force =    -0.03957366   -0.03105567   -0.04411107
     atom  337 type  4   force =    -0.00496064   -0.00466411   -0.02309318
     atom  338 type  4   force =    -0.05723525    0.04313921   -0.01901763
     atom  339 type  5   force =    -0.02047611    0.02372460    0.03467674
     atom  340 type  5   force =     0.00636855   -0.02889272    0.02840241
     atom  341 type  6   force =     0.02475937    0.00363733    0.00436701
     atom  342 type  6   force =    -0.02467300   -0.00362237   -0.00438995
     atom  343 type  6   force =     0.00304624   -0.04249115    0.00362577
     atom  344 type  6   force =     0.00759726   -0.04198614    0.00435243
     atom  345 type  6   force =    -0.00728747    0.04203045   -0.00420086
     atom  346 type  6   force =    -0.00363748    0.04243176   -0.00362874
     atom  347 type  6   force =     0.02930541    0.02308060    0.00391565
     atom  348 type  6   force =    -0.03416794    0.01404886   -0.00708622
     atom  349 type  6   force =     0.03415566   -0.01400304    0.00714085
     atom  350 type  6   force =    -0.02948199   -0.02315859   -0.00377663
     atom  351 type  7   force =     0.00296916    0.00579714    0.00009699
     atom  352 type  7   force =    -0.00417607    0.00474421   -0.00121994
     atom  353 type  7   force =     0.00416641   -0.00471003    0.00107700
     atom  354 type  7   force =    -0.00272458   -0.00574277   -0.00020877
     atom  355 type  7   force =     0.00388959   -0.00335021    0.00089990
     atom  356 type  7   force =    -0.00284985   -0.00422500   -0.00030706
     atom  357 type  7   force =     0.00294777    0.00425455    0.00025721
     atom  358 type  7   force =    -0.00381587    0.00322279   -0.00099938

     Total force =     1.686630     Total SCF correction =     0.000152


     Computing stress (Cartesian axis) and pressure


     negative rho (up, down):  5.950E-02 0.000E+00
          total   stress  (Ry/bohr**3)                   (kbar)     P=        7.98
   0.00005256   0.00000157  -0.00000259            7.73        0.23       -0.38
   0.00000157   0.00006095   0.00000342            0.23        8.97        0.50
  -0.00000259   0.00000342   0.00004925           -0.38        0.50        7.24


     Writing all to output data dir ./outputs/pwscf.save/ :
     XML data file, charge density, pseudopotentials, collected wavefunctions
 
     init_run     :    145.68s CPU    148.82s WALL (       1 calls)
     electrons    :  78700.87s CPU  80002.77s WALL (       1 calls)
     forces       :     92.34s CPU     95.24s WALL (       1 calls)
     stress       :    350.60s CPU    355.70s WALL (       1 calls)

     Called by init_run:
     wfcinit      :    129.76s CPU    131.66s WALL (       1 calls)
     potinit      :      1.20s CPU      1.29s WALL (       1 calls)
     hinit0       :      1.41s CPU      1.46s WALL (       1 calls)

     Called by electrons:
     c_bands      :  65849.04s CPU  66565.18s WALL (     278 calls)
     sum_band     :  11541.61s CPU  11869.26s WALL (     278 calls)
     v_of_rho     :    126.09s CPU    131.70s WALL (     279 calls)
     newd         :    940.03s CPU   1186.27s WALL (     279 calls)
     PAW_pot      :    158.75s CPU    159.93s WALL (     279 calls)
     mix_rho      :     69.14s CPU     72.54s WALL (     278 calls)

     Called by c_bands:
     init_us_2    :    611.31s CPU    621.04s WALL (     558 calls)
     cegterg      :  65021.82s CPU  65723.12s WALL (     278 calls)

     Called by *egterg:
     cdiaghg      :    937.72s CPU    946.09s WALL (     603 calls)
     h_psi        :  36270.29s CPU  36622.87s WALL (     604 calls)
     s_psi        :  10727.87s CPU  10810.49s WALL (     604 calls)
     g_psi        :     42.36s CPU     42.95s WALL (     325 calls)

     Called by h_psi:
     h_psi:calbec :  10798.35s CPU  10865.63s WALL (     604 calls)
     vloc_psi     :  14674.54s CPU  14816.82s WALL (     604 calls)
                                        0.00s GPU  (     604 calls)
     add_vuspsi   :  10729.29s CPU  10807.15s WALL (     604 calls)

     General routines
     calbec       :  16479.24s CPU  16581.99s WALL (     899 calls)
     fft          :    146.62s CPU    153.62s WALL (    3650 calls)
     ffts         :     11.09s CPU     11.69s WALL (     557 calls)
     fftw         :  14278.32s CPU  14406.05s WALL ( 1568894 calls)
     interpolate  :     15.32s CPU     16.13s WALL (     279 calls)
 
     Parallel routines
 
     PWSCF        :     22h 1m CPU     22h24m WALL

 
   This run was terminated on:   7: 5: 1   7Mar2026            

=------------------------------------------------------------------------------=
   JOB DONE.
=------------------------------------------------------------------------------=
