
     Program PWSCF v.7.5 starts on  6Mar2026 at  7:21:55 

     This program is part of the open-source Quantum ESPRESSO suite
     for quantum simulation of materials; please cite
         "P. Giannozzi et al., J. Phys.:Condens. Matter 21 395502 (2009);
         "P. Giannozzi et al., J. Phys.:Condens. Matter 29 465901 (2017);
         "P. Giannozzi et al., J. Chem. Phys. 152 154105 (2020);
          URL http://www.quantum-espresso.org", 
     in publications or presentations arising from this work. More details at
     http://www.quantum-espresso.org/quote

     Parallel version (MPI), running on    80 processors

     MPI processes distributed on     4 nodes
     79557 MiB available memory on the printing compute node when the environment starts
 
     Reading input from NaphthaleneOnGlassSite2Snapshot15.in
Warning: card &CELL ignored
Warning: card &FCP ignored
Warning: card &RISM ignored

     Current dimensions of program PWSCF are:
     Max number of different atomic species (ntypx) = 10
     Max number of k-points (npk) =  40000
     Max angular momentum in pseudopotentials (lmaxx) =  4
     file Na.paw.z_9.ld1.psl.v1.0.0-low.upf: wavefunction(s)  2P renormalized
     file O.pbe-n-kjpaw_psl.0.1.UPF: wavefunction(s)  2P renormalized
     file Al.pbe-n-kjpaw_psl.1.0.0.UPF: wavefunction(s)  3S 3P renormalized
     file C.pbe-n-kjpaw_psl.1.0.0.UPF: wavefunction(s)  2S 2P renormalized
 
     R & G space division:  proc/nbgrp/npool/nimage =      80
     Subspace diagonalization in iterative solution of the eigenvalue problem:
     one sub-group per band group will be used
     custom distributed-memory algorithm (size of sub-group:  8*  8 procs)

 
     Parallelization info
     --------------------
     sticks:   dense  smooth     PW     G-vecs:    dense   smooth      PW
     Min         450     400    100               199276   167008   20874
     Max         451     401    101               199303   167021   20885
     Sum       36073   32057   8021             15943719 13361281 1670237
 
     Using Slab Decomposition
 


     bravais-lattice index     =            0
     lattice parameter (alat)  =      35.4885  a.u.
     unit-cell volume          =  138228.4306 (a.u.)^3
     number of atoms/cell      =          358
     number of atomic types    =            7
     number of electrons       =      1872.00
     number of Kohn-Sham states=         1123
     kinetic-energy cutoff     =      80.0000  Ry
     charge density cutoff     =     360.0000  Ry
     scf convergence threshold =      1.0E-08
     mixing beta               =       0.1000
     number of iterations used =            8  plain     mixing
     Exchange-correlation= PBE
                           (   1   4   3   4   0   0   0)

     celldm(1)=  35.488539  celldm(2)=   0.000000  celldm(3)=   0.000000
     celldm(4)=   0.000000  celldm(5)=   0.000000  celldm(6)=   0.000000

     crystal axes: (cart. coord. in units of alat)
               a(1) = (   1.000000   0.000000   0.000000 )  
               a(2) = (   0.000000   1.000000   0.000000 )  
               a(3) = (   0.000000   0.000000   3.092666 )  

     reciprocal axes: (cart. coord. in units 2 pi/alat)
               b(1) = (  1.000000  0.000000  0.000000 )  
               b(2) = (  0.000000  1.000000  0.000000 )  
               b(3) = (  0.000000  0.000000  0.323346 )  


     PseudoPot. # 1 for Na read from file:
     /home/sabeel/VOCC_Simulation/pseudopotentials/SSSP_Precision/Na.paw.z_9.ld1.psl.v1.0.0-low.upf
     MD5 check sum: 32bccecb13d7399e6c7dae6fe6685ff0
     Pseudo is Projector augmented-wave + core cor, Zval =  9.0
     Generated using &quot;atomic&quot; code by A. Dal Corso  v.6.3MaX
     Shape of augmentation charge: PSQ
     Using radial grid of 1121 points,  4 beta functions with: 
                l(1) =   0
                l(2) =   0
                l(3) =   1
                l(4) =   1
     Q(r) pseudized with 0 coefficients 


     PseudoPot. # 2 for B  read from file:
     /home/sabeel/VOCC_Simulation/pseudopotentials/SSSP_Precision/B_pbe_v1.01.uspp.F.UPF
     MD5 check sum: d081ebb89d0c768e112975f650467a00
     Pseudo is Ultrasoft + core correction, Zval =  3.0
     Generated by new atomic code, or converted to UPF format
     Using radial grid of  781 points,  4 beta functions with: 
                l(1) =   0
                l(2) =   0
                l(3) =   1
                l(4) =   1
     Q(r) pseudized with  8 coefficients,  rinner =    1.100   1.100   1.100


     PseudoPot. # 3 for Si read from file:
     /home/sabeel/VOCC_Simulation/pseudopotentials/SSSP_Precision/Si.pbe-n-rrkjus_psl.1.0.0.UPF
     MD5 check sum: 0b0bb1205258b0d07b9f9672cf965d36
     Pseudo is Ultrasoft + core correction, Zval =  4.0
     Generated using "atomic" code by A. Dal Corso  v.5.1
     Using radial grid of 1141 points,  6 beta functions with: 
                l(1) =   0
                l(2) =   0
                l(3) =   1
                l(4) =   1
                l(5) =   2
                l(6) =   2
     Q(r) pseudized with 0 coefficients 


     PseudoPot. # 4 for O  read from file:
     /home/sabeel/VOCC_Simulation/pseudopotentials/SSSP_Precision/O.pbe-n-kjpaw_psl.0.1.UPF
     MD5 check sum: 0234752ac141de4415c5fc33072bef88
     Pseudo is Projector augmented-wave + core cor, Zval =  6.0
     Generated using "atomic" code by A. Dal Corso  v.5.0.99 svn rev. 10869
     Shape of augmentation charge: BESSEL
     Using radial grid of 1095 points,  4 beta functions with: 
                l(1) =   0
                l(2) =   0
                l(3) =   1
                l(4) =   1
     Q(r) pseudized with 0 coefficients 


     PseudoPot. # 5 for Al read from file:
     /home/sabeel/VOCC_Simulation/pseudopotentials/SSSP_Precision/Al.pbe-n-kjpaw_psl.1.0.0.UPF
     MD5 check sum: cfc449ca30b5f3223ec38ddd88ac046d
     Pseudo is Projector augmented-wave + core cor, Zval =  3.0
     Generated using "atomic" code by A. Dal Corso  v.5.1
     Shape of augmentation charge: PSQ
     Using radial grid of 1135 points,  6 beta functions with: 
                l(1) =   0
                l(2) =   0
                l(3) =   1
                l(4) =   1
                l(5) =   2
                l(6) =   2
     Q(r) pseudized with 0 coefficients 


     PseudoPot. # 6 for C  read from file:
     /home/sabeel/VOCC_Simulation/pseudopotentials/SSSP_Precision/C.pbe-n-kjpaw_psl.1.0.0.UPF
     MD5 check sum: 5d2aebdfa2cae82b50a7e79e9516da0f
     Pseudo is Projector augmented-wave + core cor, Zval =  4.0
     Generated using "atomic" code by A. Dal Corso  v.5.1
     Shape of augmentation charge: PSQ
     Using radial grid of 1073 points,  4 beta functions with: 
                l(1) =   0
                l(2) =   0
                l(3) =   1
                l(4) =   1
     Q(r) pseudized with 0 coefficients 


     PseudoPot. # 7 for H  read from file:
     /home/sabeel/VOCC_Simulation/pseudopotentials/SSSP_Precision/H_ONCV_PBE-1.0.oncvpsp.upf
     MD5 check sum: 1790becc920ee074925cf490c71280fe
     Pseudo is Norm-conserving, Zval =  1.0
     Generated using ONCVPSP code by D. R. Hamann
     Using radial grid of 1166 points,  2 beta functions with: 
                l(1) =   0
                l(2) =   0

     atomic species   valence    mass     pseudopotential
     Na                9.00    22.98977     Na( 1.00)
     B                 3.00    10.81000     B ( 1.00)
     Si                4.00    28.08500     Si( 1.00)
     O                 6.00    15.99900     O ( 1.00)
     Al                3.00    26.98154     Al( 1.00)
     C                 4.00    12.01100     C ( 1.00)
     H                 1.00     1.00800     H ( 1.00)

     No symmetry found



   Cartesian axes

     site n.     atom                  positions (alat units)
         1        Na     tau(   1) = (   0.2476327   0.1287261   1.4401902  )
         2        Na     tau(   2) = (   0.2347070   0.3964799   1.8357059  )
         3        Na     tau(   3) = (   0.2580766   0.4457236   1.6551511  )
         4        Na     tau(   4) = (   0.0484944   0.0277893   1.6277847  )
         5        Na     tau(   5) = (   0.2352313   0.0813062   1.2863150  )
         6        Na     tau(   6) = (   0.0747243   0.2371463   1.1982473  )
         7        Na     tau(   7) = (   0.1133306   0.7698962   1.8611434  )
         8        Na     tau(   8) = (   0.9037110   0.1954209   1.2700780  )
         9        Na     tau(   9) = (   0.5181841   0.1014052   1.4940734  )
        10        Na     tau(  10) = (   0.3803624   0.0140251   1.8302637  )
        11        Na     tau(  11) = (   0.3545179   0.4989222   1.3772145  )
        12        B      tau(  12) = (   0.9565860   0.6559989   1.4661680  )
        13        B      tau(  13) = (   0.3779039   0.3190213   1.8506233  )
        14        B      tau(  14) = (   0.6357433   0.7757670   1.3375748  )
        15        B      tau(  15) = (   0.9958362   0.0827877   1.8476266  )
        16        B      tau(  16) = (   0.6987179   0.5586979   1.3943070  )
        17        B      tau(  17) = (   0.0903279   0.5997535   1.2200041  )
        18        B      tau(  18) = (   0.9460845   0.5017876   1.4754679  )
        19        B      tau(  19) = (   0.0032347   0.0527127   1.2839437  )
        20        B      tau(  20) = (   0.1241012   0.5940167   1.6016841  )
        21        B      tau(  21) = (   0.4174729   0.9198072   1.5541475  )
        22        B      tau(  22) = (   0.4638227   0.9107282   1.2322731  )
        23        B      tau(  23) = (   0.5096053   0.7092947   1.5000083  )
        24        B      tau(  24) = (   0.4035376   0.9367665   1.6900270  )
        25        B      tau(  25) = (   0.7132674   0.8560217   1.2558196  )
        26        B      tau(  26) = (   0.2579773   0.4217781   1.2874388  )
        27        B      tau(  27) = (   0.1862793   0.2338812   1.3576537  )
        28        B      tau(  28) = (   0.2134919   0.3664862   1.5073156  )
        29        B      tau(  29) = (   0.3546252   0.0462610   1.5293894  )
        30        B      tau(  30) = (   0.8082206   0.9504483   1.6218439  )
        31        B      tau(  31) = (   0.4915043   0.5408159   1.2913026  )
        32        B      tau(  32) = (   0.2471486   0.9450605   1.4099193  )
        33        B      tau(  33) = (   0.7089246   0.1566090   1.6669558  )
        34        B      tau(  34) = (   0.4858908   0.1745693   1.3498737  )
        35        Si     tau(  35) = (   0.5740761   0.3686341   1.4981594  )
        36        Si     tau(  36) = (   0.9600416   0.6521543   1.2713743  )
        37        Si     tau(  37) = (   0.8029666   0.9237355   1.4090604  )
        38        Si     tau(  38) = (   0.6589027   0.0111466   1.4303706  )
        39        Si     tau(  39) = (   0.7148031   0.8518694   1.6658713  )
        40        Si     tau(  40) = (   0.4062844   0.4370669   1.7000479  )
        41        Si     tau(  41) = (   0.8652299   0.0194200   1.2866760  )
        42        Si     tau(  42) = (   0.8792462   0.4724358   1.3313926  )
        43        Si     tau(  43) = (   0.9761010   0.8191325   1.3004490  )
        44        Si     tau(  44) = (   0.0927580   0.6000365   1.4532062  )
        45        Si     tau(  45) = (   0.8492038   0.6801733   1.8429896  )
        46        Si     tau(  46) = (   0.7648638   0.9759642   1.8781504  )
        47        Si     tau(  47) = (   0.8282769   0.9005504   1.7531841  )
        48        Si     tau(  48) = (   0.2400871   0.2615564   1.6009290  )
        49        Si     tau(  49) = (   0.0782160   0.8578516   1.7113893  )
        50        Si     tau(  50) = (   0.1793983   0.5421597   1.3229395  )
        51        Si     tau(  51) = (   0.3045589   0.3154693   1.3856788  )
        52        Si     tau(  52) = (   0.1868342   0.9496617   1.8144358  )
        53        Si     tau(  53) = (   0.5597482   0.9942014   1.8563540  )
        54        Si     tau(  54) = (   0.3283405   0.8654915   1.7979255  )
        55        Si     tau(  55) = (   0.3944303   0.1342286   1.2558232  )
        56        Si     tau(  56) = (   0.5556116   0.4029995   1.7688172  )
        57        Si     tau(  57) = (   0.8886951   0.0519111   1.5515978  )
        58        Si     tau(  58) = (   0.9177874   0.8266438   1.8602018  )
        59        Si     tau(  59) = (   0.5141592   0.7513592   1.7304853  )
        60        Si     tau(  60) = (   0.6200680   0.7296116   1.5975635  )
        61        Si     tau(  61) = (   0.4531771   0.2653855   1.4551164  )
        62        Si     tau(  62) = (   0.9530092   0.1910999   1.6203079  )
        63        Si     tau(  63) = (   0.9806318   0.2594417   1.4695044  )
        64        Si     tau(  64) = (   0.1810221   0.5658568   1.7318917  )
        65        Si     tau(  65) = (   0.2276537   0.6624309   1.2309086  )
        66        Si     tau(  66) = (   0.7086066   0.3068958   1.4624957  )
        67        Si     tau(  67) = (   0.7573617   0.5008676   1.2102682  )
        68        Si     tau(  68) = (   0.0630774   0.5052222   1.8068999  )
        69        Si     tau(  69) = (   0.9531780   0.4208941   1.7332624  )
        70        Si     tau(  70) = (   0.8429520   0.6341042   1.3864806  )
        71        Si     tau(  71) = (   0.8255070   0.2513717   1.7092992  )
        72        Si     tau(  72) = (   0.4660404   0.3166643   1.5999861  )
        73        Si     tau(  73) = (   0.3218087   0.1696541   1.7095271  )
        74        Si     tau(  74) = (   0.6054871   0.0864265   1.2929813  )
        75        Si     tau(  75) = (   0.4402609   0.0821865   1.6559030  )
        76        Si     tau(  76) = (   0.3770531   0.0317907   1.3941734  )
        77        Si     tau(  77) = (   0.5059912   0.8072476   1.3243503  )
        78        Si     tau(  78) = (   0.6069382   0.5044701   1.6609957  )
        79        Si     tau(  79) = (   0.6370349   0.4244534   1.3741369  )
        80        Si     tau(  80) = (   0.6855674   0.7078304   1.8645318  )
        81        Si     tau(  81) = (   0.0765130   0.9298841   1.2314627  )
        82        Si     tau(  82) = (   0.9863684   0.4054382   1.2235204  )
        83        Si     tau(  83) = (   0.4950631   0.2585395   1.7548401  )
        84        Si     tau(  84) = (   0.5719431   0.1160579   1.7357262  )
        85        Si     tau(  85) = (   0.3566442   0.7389475   1.7027041  )
        86        Si     tau(  86) = (   0.5887626   0.6478135   1.7482870  )
        87        Si     tau(  87) = (   0.3778403   0.4701707   1.1981005  )
        88        Si     tau(  88) = (   0.7705746   0.7745811   1.3546535  )
        89        Si     tau(  89) = (   0.6353056   0.3899359   1.2194797  )
        90        Si     tau(  90) = (   0.3199297   0.6027545   1.8036004  )
        91        Si     tau(  91) = (   0.6901246   0.5787282   1.5496775  )
        92        Si     tau(  92) = (   0.1108815   0.9857043   1.4484254  )
        93        Si     tau(  93) = (   0.0087222   0.8101075   1.4596435  )
        94        Si     tau(  94) = (   0.4662737   0.5842118   1.4387730  )
        95        Si     tau(  95) = (   0.1497603   0.1150345   1.8191784  )
        96        Si     tau(  96) = (   0.9119816   0.9073773   1.5284091  )
        97        Si     tau(  97) = (   0.5081777   0.9347421   1.4393654  )
        98        Si     tau(  98) = (   0.9733658   0.9480751   1.7929925  )
        99        Si     tau(  99) = (   0.2449909   0.7736475   1.5958723  )
       100        Si     tau( 100) = (   0.2568298   0.7840856   1.3334763  )
       101        Si     tau( 101) = (   0.1600543   0.7576293   1.4557816  )
       102        Si     tau( 102) = (   0.9190690   0.2974838   1.8287833  )
       103        Si     tau( 103) = (   0.8499270   0.3745654   1.6104514  )
       104        Si     tau( 104) = (   0.8444491   0.5369054   1.7673517  )
       105        Si     tau( 105) = (   0.1203187   0.1732756   1.6597012  )
       106        Si     tau( 106) = (   0.6321686   0.6005607   1.2681838  )
       107        Si     tau( 107) = (   0.6235724   0.8470731   1.8048529  )
       108        Si     tau( 108) = (   0.7501132   0.1202716   1.2309056  )
       109        Si     tau( 109) = (   0.2746484   0.2046900   1.8670863  )
       110        Si     tau( 110) = (   0.2273259   0.0646953   1.6216725  )
       111        Si     tau( 111) = (   0.0729274   0.4042159   1.4579120  )
       112        Si     tau( 112) = (   0.6640697   0.1601480   1.5162335  )
       113        Si     tau( 113) = (   0.1226817   0.7031938   1.6887692  )
       114        Si     tau( 114) = (   0.8406300   0.5276586   1.5875131  )
       115        Si     tau( 115) = (   0.8389500   0.3149315   1.3901795  )
       116        Si     tau( 116) = (   0.1722727   0.9211130   1.5953570  )
       117        Si     tau( 117) = (   0.0763504   0.1375521   1.3930086  )
       118        Si     tau( 118) = (   0.3256209   0.9115638   1.2548481  )
       119        Si     tau( 119) = (   0.3955849   0.7224945   1.4035300  )
       120        Si     tau( 120) = (   0.4652418   0.5499611   1.5942954  )
       121        Si     tau( 121) = (   0.1212618   0.3651412   1.3045003  )
       122        O      tau( 122) = (   0.0295168   0.4481121   1.8630498  )
       123        O      tau( 123) = (   0.8632305   0.7660730   1.8351295  )
       124        O      tau( 124) = (   0.7865379   0.5198677   1.8292109  )
       125        O      tau( 125) = (   0.7687039   0.8065522   1.2712216  )
       126        O      tau( 126) = (   0.2613316   0.2462125   1.3627201  )
       127        O      tau( 127) = (   0.4383841   0.2721051   1.5384261  )
       128        O      tau( 128) = (   0.4075804   0.9041606   1.6244717  )
       129        O      tau( 129) = (   0.2891632   0.9821156   1.2266374  )
       130        O      tau( 130) = (   0.3003666   0.1796727   1.7902854  )
       131        O      tau( 131) = (   0.5973279   0.4225163   1.2949590  )
       132        O      tau( 132) = (   0.5334428   0.5020140   1.6146071  )
       133        O      tau( 133) = (   0.2755656   0.1058719   1.6786020  )
       134        O      tau( 134) = (   0.1545595   0.1075181   1.6150265  )
       135        O      tau( 135) = (   0.1198242   0.5723265   1.5291309  )
       136        O      tau( 136) = (   0.5826608   0.7211316   1.6806210  )
       137        O      tau( 137) = (   0.4384820   0.7620469   1.6969890  )
       138        O      tau( 138) = (   0.3813441   0.2977472   1.4178316  )
       139        O      tau( 139) = (   0.9518571   0.2429557   1.5505285  )
       140        O      tau( 140) = (   0.6668767   0.5177678   1.6031137  )
       141        O      tau( 141) = (   0.1520770   0.1695411   1.3620472  )
       142        O      tau( 142) = (   0.6925009   0.7509516   1.3753791  )
       143        O      tau( 143) = (   0.1434568   0.6580895   1.2139172  )
       144        O      tau( 144) = (   0.4761486   0.9028411   1.5138988  )
       145        O      tau( 145) = (   0.0631356   0.5782061   1.8492954  )
       146        O      tau( 146) = (   0.5876332   0.4146284   1.8503125  )
       147        O      tau( 147) = (   0.1071621   0.8902567   1.6361869  )
       148        O      tau( 148) = (   0.0331486   0.1967754   1.4407710  )
       149        O      tau( 149) = (   0.9443941   0.9810288   1.5588672  )
       150        O      tau( 150) = (   0.5485694   0.5774714   1.2625723  )
       151        O      tau( 151) = (   0.6090489   0.9225244   1.8421140  )
       152        O      tau( 152) = (   0.3184350   0.7927686   1.7545505  )
       153        O      tau( 153) = (   0.2965868   0.2359092   1.6579206  )
       154        O      tau( 154) = (   0.3399948   0.4149078   1.7451441  )
       155        O      tau( 155) = (   0.6583099   0.3076783   1.2358723  )
       156        O      tau( 156) = (   0.5620926   0.7442927   1.5385442  )
       157        O      tau( 157) = (   0.5556976   0.3175372   1.7688381  )
       158        O      tau( 158) = (   0.3525972   0.6632019   1.7471104  )
       159        O      tau( 159) = (   0.9620412   0.3446718   1.7697440  )
       160        O      tau( 160) = (   0.5313272   0.1848172   1.7709556  )
       161        O      tau( 161) = (   0.9429693   0.0183272   1.3239474  )
       162        O      tau( 162) = (   0.4858005   0.9533180   1.8755890  )
       163        O      tau( 163) = (   0.3657073   0.5328581   1.8345358  )
       164        O      tau( 164) = (   0.4406081   0.5066782   1.2484323  )
       165        O      tau( 165) = (   0.3135028   0.2834622   1.8690668  )
       166        O      tau( 166) = (   0.7907911   0.8360261   1.7119523  )
       167        O      tau( 167) = (   0.7289290   0.9234833   1.2340123  )
       168        O      tau( 168) = (   0.1454692   0.2885690   1.3267456  )
       169        O      tau( 169) = (   0.3914991   0.9066251   1.7575926  )
       170        O      tau( 170) = (   0.7079875   0.2222935   1.4707635  )
       171        O      tau( 171) = (   0.9743698   0.8515159   1.5269402  )
       172        O      tau( 172) = (   0.1330105   0.5361140   1.2470617  )
       173        O      tau( 173) = (   0.5827735   0.0420994   1.2254729  )
       174        O      tau( 174) = (   0.8602910   0.6220068   1.7811976  )
       175        O      tau( 175) = (   0.5252483   0.6418342   1.4684534  )
       176        O      tau( 176) = (   0.6556139   0.6691234   1.7930720  )
       177        O      tau( 177) = (   0.9478947   0.4555202   1.2814895  )
       178        O      tau( 178) = (   0.9699578   0.0766966   1.2188133  )
       179        O      tau( 179) = (   0.5480526   0.8088247   1.7836236  )
       180        O      tau( 180) = (   0.3152477   0.7447790   1.3880620  )
       181        O      tau( 181) = (   0.1477991   0.6460434   1.7450578  )
       182        O      tau( 182) = (   0.4226375   0.0083615   1.6949577  )
       183        O      tau( 183) = (   0.5004654   0.8461638   1.2447985  )
       184        O      tau( 184) = (   0.7864920   0.8423242   1.4036977  )
       185        O      tau( 185) = (   0.9046070   0.6136339   1.3286598  )
       186        O      tau( 186) = (   0.1308852   0.5564651   1.3912596  )
       187        O      tau( 187) = (   0.0181193   0.9388870   1.8632981  )
       188        O      tau( 188) = (   0.5236768   0.3172741   1.4469420  )
       189        O      tau( 189) = (   0.6771903   0.1363695   1.2729556  )
       190        O      tau( 190) = (   0.5668565   0.7520726   1.3411952  )
       191        O      tau( 191) = (   0.4390184   0.1054952   1.8920128  )
       192        O      tau( 192) = (   0.2801127   0.0556319   1.5537880  )
       193        O      tau( 193) = (   0.9517833   0.2240015   1.8530263  )
       194        O      tau( 194) = (   0.4078786   0.5134087   1.6517908  )
       195        O      tau( 195) = (   0.6735166   0.7941076   1.8547702  )
       196        O      tau( 196) = (   0.7896414   0.2674110   1.3392843  )
       197        O      tau( 197) = (   0.9136500   0.5214282   1.5392122  )
       198        O      tau( 198) = (   0.5881526   0.4350093   1.4460280  )
       199        O      tau( 199) = (   0.7745755   0.5842257   1.3844862  )
       200        O      tau( 200) = (   0.2034896   0.9862494   1.6415920  )
       201        O      tau( 201) = (   0.1233221   0.6813655   1.4530684  )
       202        O      tau( 202) = (   0.7937827   0.3272627   1.4639956  )
       203        O      tau( 203) = (   0.4473563   0.5396589   1.5104804  )
       204        O      tau( 204) = (   0.6542799   0.3403998   1.5182787  )
       205        O      tau( 205) = (   0.8234572   0.7113307   1.3622509  )
       206        O      tau( 206) = (   0.8127487   0.4431771   1.5824090  )
       207        O      tau( 207) = (   0.5134106   0.6764784   1.7758121  )
       208        O      tau( 208) = (   0.1836556   0.7783442   1.3761575  )
       209        O      tau( 209) = (   0.8104766   0.3105590   1.6473803  )
       210        O      tau( 210) = (   0.3044033   0.9850075   1.3843284  )
       211        O      tau( 211) = (   0.1301504   0.8965179   1.7717389  )
       212        O      tau( 212) = (   0.3197141   0.1653364   1.2298596  )
       213        O      tau( 213) = (   0.4699233   0.1934200   1.4196372  )
       214        O      tau( 214) = (   0.2809558   0.8612246   1.3097159  )
       215        O      tau( 215) = (   0.4264163   0.2824703   1.8051299  )
       216        O      tau( 216) = (   0.6599679   0.6539216   1.5790006  )
       217        O      tau( 217) = (   0.7349642   0.9291111   1.6364595  )
       218        O      tau( 218) = (   0.0099961   0.4612132   1.4800917  )
       219        O      tau( 219) = (   0.5892025   0.1978638   1.5290320  )
       220        O      tau( 220) = (   0.0485841   0.8646896   1.2765110  )
       221        O      tau( 221) = (   0.9732948   0.8322736   1.3845405  )
       222        O      tau( 222) = (   0.4005127   0.1467648   1.7001924  )
       223        O      tau( 223) = (   0.8561165   0.3880932   1.3551362  )
       224        O      tau( 224) = (   0.1908703   0.7320545   1.6493092  )
       225        O      tau( 225) = (   0.5316561   0.3624401   1.5720686  )
       226        O      tau( 226) = (   0.6407674   0.0341441   1.3503554  )
       227        O      tau( 227) = (   0.2507360   0.3493753   1.4464087  )
       228        O      tau( 228) = (   0.5138994   0.8709061   1.3834646  )
       229        O      tau( 229) = (   0.9079300   0.5013233   1.4088368  )
       230        O      tau( 230) = (   0.4395504   0.1937154   1.2966161  )
       231        O      tau( 231) = (   0.2308999   0.6103161   1.2990312  )
       232        O      tau( 232) = (   0.3685013   0.9700313   1.5258447  )
       233        O      tau( 233) = (   0.8514985   0.9494698   1.6877232  )
       234        O      tau( 234) = (   0.0187499   0.4824011   1.7364241  )
       235        O      tau( 235) = (   0.2414021   0.3421124   1.5740169  )
       236        O      tau( 236) = (   0.6097970   0.4413714   1.7163163  )
       237        O      tau( 237) = (   0.4788214   0.4352721   1.7472383  )
       238        O      tau( 238) = (   0.1395403   0.9630524   1.5257738  )
       239        O      tau( 239) = (   0.3787358   0.0784353   1.3203646  )
       240        O      tau( 240) = (   0.5839692   0.9685892   1.4551464  )
       241        O      tau( 241) = (   0.9110607   0.6557788   1.2003494  )
       242        O      tau( 242) = (   0.0686474   0.1043740   1.8437037  )
       243        O      tau( 243) = (   0.1460976   0.3999842   1.5060950  )
       244        O      tau( 244) = (   0.4166165   0.3782170   1.6358330  )
       245        O      tau( 245) = (   0.0075933   0.9084354   1.7265037  )
       246        O      tau( 246) = (   0.8482460   0.9888286   1.2074661  )
       247        O      tau( 247) = (   0.6787187   0.3475581   1.3906861  )
       248        O      tau( 248) = (   0.2793975   0.6318760   1.8700688  )
       249        O      tau( 249) = (   0.1753735   0.9662414   1.3957977  )
       250        O      tau( 250) = (   0.0079684   0.6039592   1.4520956  )
       251        O      tau( 251) = (   0.6799702   0.7916690   1.6137563  )
       252        O      tau( 252) = (   0.8228944   0.4963375   1.2716413  )
       253        O      tau( 253) = (   0.1652982   0.5553089   1.6491463  )
       254        O      tau( 254) = (   0.6527640   0.8346788   1.2935381  )
       255        O      tau( 255) = (   0.0358116   0.1810737   1.6422342  )
       256        O      tau( 256) = (   0.5638762   0.0484964   1.7892635  )
       257        O      tau( 257) = (   0.7314789   0.9670683   1.4359075  )
       258        O      tau( 258) = (   0.2559548   0.8899428   1.4535926  )
       259        O      tau( 259) = (   0.7774448   0.5773609   1.5598674  )
       260        O      tau( 260) = (   0.0868638   0.6515873   1.6288983  )
       261        O      tau( 261) = (   0.2614827   0.9212168   1.7891965  )
       262        O      tau( 262) = (   0.1954831   0.1735609   1.8664394  )
       263        O      tau( 263) = (   0.9906684   0.7948073   1.8435173  )
       264        O      tau( 264) = (   0.4575167   0.9955248   1.4051103  )
       265        O      tau( 265) = (   0.7735858   0.2011661   1.2118609  )
       266        O      tau( 266) = (   0.8814090   0.9281431   1.4499689  )
       267        O      tau( 267) = (   0.4072071   0.9256292   1.2771435  )
       268        O      tau( 268) = (   0.8399764   0.8937974   1.5751596  )
       269        O      tau( 269) = (   0.9802476   0.7272430   1.4739436  )
       270        O      tau( 270) = (   0.4029974   0.6353892   1.4077172  )
       271        O      tau( 271) = (   0.5236271   0.0940762   1.6637713  )
       272        O      tau( 272) = (   0.2291142   0.8566340   1.6031926  )
       273        O      tau( 273) = (   0.1369597   0.1529802   1.7410824  )
       274        O      tau( 274) = (   0.8956842   0.4684356   1.7728116  )
       275        O      tau( 275) = (   0.0304714   0.3296381   1.4668483  )
       276        O      tau( 276) = (   0.9261533   0.1126670   1.5937994  )
       277        O      tau( 277) = (   0.3196110   0.7473434   1.6269653  )
       278        O      tau( 278) = (   0.2346612   0.4755155   1.3381933  )
       279        O      tau( 279) = (   0.0309321   0.9618656   1.4299785  )
       280        O      tau( 280) = (   0.1026240   0.4047238   1.3770124  )
       281        O      tau( 281) = (   0.0996948   0.0720356   1.4419196  )
       282        O      tau( 282) = (   0.9796419   0.7336502   1.2951357  )
       283        O      tau( 283) = (   0.4798587   0.2721799   1.6719849  )
       284        O      tau( 284) = (   0.1447462   0.5042309   1.7791641  )
       285        O      tau( 285) = (   0.6584207   0.0850578   1.4744274  )
       286        O      tau( 286) = (   0.8447302   0.2856675   1.7867899  )
       287        O      tau( 287) = (   0.9236456   0.3532967   1.8933803  )
       288        O      tau( 288) = (   0.7131244   0.4260542   1.2089447  )
       289        O      tau( 289) = (   0.1815374   0.0351118   1.8104616  )
       290        O      tau( 290) = (   0.0329975   0.6097415   1.2681351  )
       291        O      tau( 291) = (   0.8998275   0.8951096   1.8045433  )
       292        O      tau( 292) = (   0.3016404   0.4593341   1.2337882  )
       293        O      tau( 293) = (   0.2631331   0.5633327   1.7490475  )
       294        O      tau( 294) = (   0.7023044   0.1539457   1.5910141  )
       295        O      tau( 295) = (   0.5450848   0.1349270   1.3303906  )
       296        O      tau( 296) = (   0.1632620   0.2443342   1.6379519  )
       297        O      tau( 297) = (   0.1916640   0.3894955   1.2601897  )
       298        O      tau( 298) = (   0.0615898   0.0043928   1.2718305  )
       299        O      tau( 299) = (   0.3967139   0.3875856   1.8762703  )
       300        O      tau( 300) = (   0.4846187   0.5410669   1.3666698  )
       301        O      tau( 301) = (   0.8186424   0.0168112   1.5820830  )
       302        O      tau( 302) = (   0.5974300   0.5762403   1.7036424  )
       303        O      tau( 303) = (   0.4323575   0.7667648   1.3386386  )
       304        O      tau( 304) = (   0.7719883   0.9374236   1.8028857  )
       305        O      tau( 305) = (   0.7672182   0.1900179   1.6976508  )
       306        O      tau( 306) = (   0.8994379   0.0650389   1.4672678  )
       307        O      tau( 307) = (   0.4462121   0.7426137   1.4731770  )
       308        O      tau( 308) = (   0.9211726   0.3961581   1.6533343  )
       309        O      tau( 309) = (   0.2420202   0.2200105   1.5251544  )
       310        O      tau( 310) = (   0.8842963   0.6436934   1.4589679  )
       311        O      tau( 311) = (   0.6482991   0.6785877   1.2330670  )
       312        O      tau( 312) = (   0.4832983   0.6325017   1.6039613  )
       313        O      tau( 313) = (   0.7361349   0.0571749   1.8732737  )
       314        O      tau( 314) = (   0.6649925   0.8590630   1.7336776  )
       315        O      tau( 315) = (   0.9130296   0.2721061   1.4159943  )
       316        O      tau( 316) = (   0.6511009   0.5989696   1.3506902  )
       317        O      tau( 317) = (   0.8131240   0.0898692   1.2825970  )
       318        O      tau( 318) = (   0.6524595   0.1336951   1.7108949  )
       319        O      tau( 319) = (   0.6784211   0.5695802   1.4690337  )
       320        O      tau( 320) = (   0.9018920   0.2183548   1.6834522  )
       321        O      tau( 321) = (   0.9678130   0.0358255   1.7940055  )
       322        O      tau( 322) = (   0.8368182   0.5391156   1.6776043  )
       323        O      tau( 323) = (   0.7668768   0.6856661   1.8697035  )
       324        O      tau( 324) = (   0.1531671   0.9301796   1.8945654  )
       325        O      tau( 325) = (   0.2178402   0.7542098   1.5177838  )
       326        O      tau( 326) = (   0.3614324   0.0782581   1.4600024  )
       327        O      tau( 327) = (   0.4053368   0.0766386   1.5793453  )
       328        O      tau( 328) = (   0.3320739   0.8564650   1.8828345  )
       329        O      tau( 329) = (   0.0914304   0.8126101   1.4681485  )
       330        O      tau( 330) = (   0.2416337   0.7445048   1.2588964  )
       331        O      tau( 331) = (   0.8232583   0.9617889   1.3373563  )
       332        O      tau( 332) = (   0.0224173   0.1103921   1.3331986  )
       333        O      tau( 333) = (   0.0827261   0.7743688   1.7158336  )
       334        O      tau( 334) = (   0.3058372   0.3697607   1.3216954  )
       335        O      tau( 335) = (   0.6940744   0.4843818   1.3763524  )
       336        O      tau( 336) = (   0.0505520   0.3569640   1.2588409  )
       337        O      tau( 337) = (   0.6956442   0.5556100   1.2255199  )
       338        O      tau( 338) = (   0.9205918   0.8444316   1.2442634  )
       339        Al     tau( 339) = (   0.9474166   0.9984982   1.4171699  )
       340        Al     tau( 340) = (   0.7317137   0.2651324   1.2660316  )
       341        C      tau( 341) = (   0.5214378   0.4015461   0.7149156  )
       342        C      tau( 342) = (   0.4479569   0.3909766   0.7019677  )
       343        C      tau( 343) = (   0.5653175   0.3422400   0.7271532  )
       344        C      tau( 344) = (   0.4205128   0.3214128   0.7016536  )
       345        C      tau( 345) = (   0.5488767   0.4711092   0.7152289  )
       346        C      tau( 346) = (   0.4040833   0.4502831   0.6897258  )
       347        C      tau( 347) = (   0.5371518   0.2734980   0.7266374  )
       348        C      tau( 348) = (   0.4648892   0.2631047   0.7139149  )
       349        C      tau( 349) = (   0.5045065   0.5294176   0.7029632  )
       350        C      tau( 350) = (   0.4322510   0.5190244   0.6902312  )
       351        H      tau( 351) = (   0.6219558   0.3491057   0.7372118  )
       352        H      tau( 352) = (   0.3641909   0.3120316   0.6918215  )
       353        H      tau( 353) = (   0.6051969   0.4804959   0.7250657  )
       354        H      tau( 354) = (   0.3474366   0.4434151   0.6796550  )
       355        H      tau( 355) = (   0.5716658   0.2280845   0.7361823  )
       356        H      tau( 356) = (   0.4429953   0.2095720   0.7135195  )
       357        H      tau( 357) = (   0.5264020   0.5829447   0.7033539  )
       358        H      tau( 358) = (   0.3977363   0.5644431   0.6806858  )

     number of k points=     1  Gaussian smearing, width (Ry)=  0.0100
                       cart. coord. in units 2pi/alat
        k(    1) = (   0.0000000   0.0000000   0.0000000), wk =   2.0000000

     Dense  grid: 15943719 G-vectors     FFT dimensions: ( 216, 216, 675)

     Smooth grid: 13361281 G-vectors     FFT dimensions: ( 216, 216, 625)

     Estimated max dynamical RAM per process >       4.14 GB

     Estimated total dynamical RAM >     331.13 GB

     Check: negative core charge=   -0.000001

     Initial potential from superposition of free atoms

     starting charge    1871.8703, renormalised to    1872.0000

     negative rho (up, down):  4.094E-02 0.000E+00
     Starting wfcs are 1419 randomized atomic wfcs
     Checking if some PAW data can be deallocated... 

     total cpu time spent up to now is      149.1 secs

     per-process dynamical memory:  1754.0 Mb

     Self-consistent Calculation

     iteration #  1     ecut=    80.00 Ry     beta= 0.10
     Davidson diagonalization with overlap
     ethr =  1.00E-02,  avg # of iterations =  3.0

     negative rho (up, down):  4.298E-02 0.000E+00

     total cpu time spent up to now is      641.9 secs

     total energy              =  -11693.37465975 Ry
     estimated scf accuracy    <     115.60357791 Ry

     iteration #  2     ecut=    80.00 Ry     beta= 0.10
     Davidson diagonalization with overlap
     ethr =  6.18E-03,  avg # of iterations =  1.0

     negative rho (up, down):  4.466E-02 0.000E+00

     total cpu time spent up to now is      930.3 secs

     total energy              =  -11688.10899591 Ry
     estimated scf accuracy    <      84.83503457 Ry

     iteration #  3     ecut=    80.00 Ry     beta= 0.10
     Davidson diagonalization with overlap
     ethr =  4.53E-03,  avg # of iterations =  1.0

     negative rho (up, down):  4.650E-02 0.000E+00

     total cpu time spent up to now is     1218.4 secs

     total energy              =  -11681.49883414 Ry
     estimated scf accuracy    <      59.17505860 Ry

     iteration #  4     ecut=    80.00 Ry     beta= 0.10
     Davidson diagonalization with overlap
     ethr =  3.16E-03,  avg # of iterations =  2.0

     negative rho (up, down):  4.758E-02 0.000E+00

     total cpu time spent up to now is     1542.5 secs

     total energy              =  -11682.82251481 Ry
     estimated scf accuracy    <      60.36370429 Ry

     iteration #  5     ecut=    80.00 Ry     beta= 0.10
     Davidson diagonalization with overlap
     ethr =  3.16E-03,  avg # of iterations =  1.0

     negative rho (up, down):  4.870E-02 0.000E+00

     total cpu time spent up to now is     1831.5 secs

     total energy              =  -11682.19663175 Ry
     estimated scf accuracy    <      39.47625609 Ry

     iteration #  6     ecut=    80.00 Ry     beta= 0.10
     Davidson diagonalization with overlap
     ethr =  2.11E-03,  avg # of iterations =  1.0

     negative rho (up, down):  4.955E-02 0.000E+00

     total cpu time spent up to now is     2119.1 secs

     total energy              =  -11682.42747811 Ry
     estimated scf accuracy    <      26.80105228 Ry

     iteration #  7     ecut=    80.00 Ry     beta= 0.10
     Davidson diagonalization with overlap
     ethr =  1.43E-03,  avg # of iterations =  2.0

     negative rho (up, down):  5.037E-02 0.000E+00

     total cpu time spent up to now is     2442.7 secs

     total energy              =  -11682.17303385 Ry
     estimated scf accuracy    <      34.83132152 Ry

     iteration #  8     ecut=    80.00 Ry     beta= 0.10
     Davidson diagonalization with overlap
     ethr =  1.43E-03,  avg # of iterations =  2.0

     negative rho (up, down):  5.095E-02 0.000E+00

     total cpu time spent up to now is     2764.2 secs

     total energy              =  -11682.31261461 Ry
     estimated scf accuracy    <      18.90870667 Ry

     iteration #  9     ecut=    80.00 Ry     beta= 0.10
     Davidson diagonalization with overlap
     ethr =  1.01E-03,  avg # of iterations =  2.0

     negative rho (up, down):  5.154E-02 0.000E+00

     total cpu time spent up to now is     3086.6 secs

     total energy              =  -11682.13439516 Ry
     estimated scf accuracy    <      18.43226988 Ry

     iteration # 10     ecut=    80.00 Ry     beta= 0.10
     Davidson diagonalization with overlap
     ethr =  9.85E-04,  avg # of iterations =  1.0

     negative rho (up, down):  5.206E-02 0.000E+00

     total cpu time spent up to now is     3373.8 secs

     total energy              =  -11682.15354598 Ry
     estimated scf accuracy    <      12.38815112 Ry

     iteration # 11     ecut=    80.00 Ry     beta= 0.10
     Davidson diagonalization with overlap
     ethr =  6.62E-04,  avg # of iterations =  2.0

     negative rho (up, down):  5.240E-02 0.000E+00

     total cpu time spent up to now is     3698.0 secs

     total energy              =  -11682.04878516 Ry
     estimated scf accuracy    <      21.61124407 Ry

     iteration # 12     ecut=    80.00 Ry     beta= 0.10
     Davidson diagonalization with overlap
     ethr =  6.62E-04,  avg # of iterations =  1.0

     negative rho (up, down):  5.268E-02 0.000E+00

     total cpu time spent up to now is     3986.3 secs

     total energy              =  -11682.31580627 Ry
     estimated scf accuracy    <       4.98757751 Ry

     iteration # 13     ecut=    80.00 Ry     beta= 0.10
     Davidson diagonalization with overlap
     ethr =  2.66E-04,  avg # of iterations = 16.0

     negative rho (up, down):  5.309E-02 0.000E+00

     total cpu time spent up to now is     4426.0 secs

     total energy              =  -11682.21423692 Ry
     estimated scf accuracy    <       5.79175279 Ry

     iteration # 14     ecut=    80.00 Ry     beta= 0.10
     Davidson diagonalization with overlap
     ethr =  2.66E-04,  avg # of iterations =  1.0

     negative rho (up, down):  5.367E-02 0.000E+00

     total cpu time spent up to now is     4713.8 secs

     total energy              =  -11682.09125780 Ry
     estimated scf accuracy    <       4.75699178 Ry

     iteration # 15     ecut=    80.00 Ry     beta= 0.10
     Davidson diagonalization with overlap
     ethr =  2.54E-04,  avg # of iterations =  1.0

     negative rho (up, down):  5.363E-02 0.000E+00

     total cpu time spent up to now is     5001.1 secs

     total energy              =  -11681.89230035 Ry
     estimated scf accuracy    <      19.10413589 Ry

     iteration # 16     ecut=    80.00 Ry     beta= 0.10
     Davidson diagonalization with overlap
     ethr =  2.54E-04,  avg # of iterations =  2.0

     negative rho (up, down):  5.399E-02 0.000E+00

     total cpu time spent up to now is     5324.4 secs

     total energy              =  -11682.13593067 Ry
     estimated scf accuracy    <       3.82165026 Ry

     iteration # 17     ecut=    80.00 Ry     beta= 0.10
     Davidson diagonalization with overlap
     ethr =  2.04E-04,  avg # of iterations =  1.0

     negative rho (up, down):  5.451E-02 0.000E+00

     total cpu time spent up to now is     5611.7 secs

     total energy              =  -11682.07358529 Ry
     estimated scf accuracy    <       3.31754326 Ry

     iteration # 18     ecut=    80.00 Ry     beta= 0.10
     Davidson diagonalization with overlap
     ethr =  1.77E-04,  avg # of iterations =  1.0

     negative rho (up, down):  5.451E-02 0.000E+00

     total cpu time spent up to now is     5899.1 secs

     total energy              =  -11681.97068604 Ry
     estimated scf accuracy    <       8.09143147 Ry

     iteration # 19     ecut=    80.00 Ry     beta= 0.10
     Davidson diagonalization with overlap
     ethr =  1.77E-04,  avg # of iterations =  2.0

     negative rho (up, down):  5.476E-02 0.000E+00

     total cpu time spent up to now is     6221.1 secs

     total energy              =  -11682.11715622 Ry
     estimated scf accuracy    <       3.25740230 Ry

     iteration # 20     ecut=    80.00 Ry     beta= 0.10
     Davidson diagonalization with overlap
     ethr =  1.74E-04,  avg # of iterations =  1.0

     negative rho (up, down):  5.521E-02 0.000E+00

     total cpu time spent up to now is     6508.7 secs

     total energy              =  -11682.06865330 Ry
     estimated scf accuracy    <       2.89831927 Ry

     iteration # 21     ecut=    80.00 Ry     beta= 0.10
     Davidson diagonalization with overlap
     ethr =  1.55E-04,  avg # of iterations =  1.0

     negative rho (up, down):  5.540E-02 0.000E+00

     total cpu time spent up to now is     6797.1 secs

     total energy              =  -11681.99415353 Ry
     estimated scf accuracy    <      10.42577469 Ry

     iteration # 22     ecut=    80.00 Ry     beta= 0.10
     Davidson diagonalization with overlap
     ethr =  1.55E-04,  avg # of iterations =  1.0

     negative rho (up, down):  5.547E-02 0.000E+00

     total cpu time spent up to now is     7084.9 secs

     total energy              =  -11682.04079816 Ry
     estimated scf accuracy    <       8.16448130 Ry

     iteration # 23     ecut=    80.00 Ry     beta= 0.10
     Davidson diagonalization with overlap
     ethr =  1.55E-04,  avg # of iterations =  1.0

     negative rho (up, down):  5.549E-02 0.000E+00

     total cpu time spent up to now is     7372.3 secs

     total energy              =  -11682.07794677 Ry
     estimated scf accuracy    <       4.22951322 Ry

     iteration # 24     ecut=    80.00 Ry     beta= 0.10
     Davidson diagonalization with overlap
     ethr =  1.55E-04,  avg # of iterations =  1.0

     negative rho (up, down):  5.605E-02 0.000E+00

     total cpu time spent up to now is     7658.9 secs

     total energy              =  -11682.06468724 Ry
     estimated scf accuracy    <       3.82369945 Ry

     iteration # 25     ecut=    80.00 Ry     beta= 0.10
     Davidson diagonalization with overlap
     ethr =  1.55E-04,  avg # of iterations =  1.0

     negative rho (up, down):  5.600E-02 0.000E+00

     total cpu time spent up to now is     7946.0 secs

     total energy              =  -11682.06285313 Ry
     estimated scf accuracy    <       2.87499300 Ry

     iteration # 26     ecut=    80.00 Ry     beta= 0.10
     Davidson diagonalization with overlap
     ethr =  1.54E-04,  avg # of iterations =  1.0

     negative rho (up, down):  5.620E-02 0.000E+00

     total cpu time spent up to now is     8233.6 secs

     total energy              =  -11682.08572828 Ry
     estimated scf accuracy    <       1.37332011 Ry

     iteration # 27     ecut=    80.00 Ry     beta= 0.10
     Davidson diagonalization with overlap
     ethr =  7.34E-05,  avg # of iterations =  1.0

     negative rho (up, down):  5.696E-02 0.000E+00

     total cpu time spent up to now is     8521.3 secs

     total energy              =  -11682.06549881 Ry
     estimated scf accuracy    <       1.81041091 Ry

     iteration # 28     ecut=    80.00 Ry     beta= 0.10
     Davidson diagonalization with overlap
     ethr =  7.34E-05,  avg # of iterations =  1.0

     negative rho (up, down):  5.637E-02 0.000E+00

     total cpu time spent up to now is     8808.6 secs

     total energy              =  -11682.00693433 Ry
     estimated scf accuracy    <       5.72301920 Ry

     iteration # 29     ecut=    80.00 Ry     beta= 0.10
     Davidson diagonalization with overlap
     ethr =  7.34E-05,  avg # of iterations =  1.0

     negative rho (up, down):  5.661E-02 0.000E+00

     total cpu time spent up to now is     9096.0 secs

     total energy              =  -11682.07404283 Ry
     estimated scf accuracy    <       4.27591635 Ry

     iteration # 30     ecut=    80.00 Ry     beta= 0.10
     Davidson diagonalization with overlap
     ethr =  7.34E-05,  avg # of iterations =  1.0

     negative rho (up, down):  5.678E-02 0.000E+00

     total cpu time spent up to now is     9383.7 secs

     total energy              =  -11682.08637039 Ry
     estimated scf accuracy    <       1.24848790 Ry

     iteration # 31     ecut=    80.00 Ry     beta= 0.10
     Davidson diagonalization with overlap
     ethr =  6.67E-05,  avg # of iterations =  1.0

     negative rho (up, down):  5.704E-02 0.000E+00

     total cpu time spent up to now is     9672.6 secs

     total energy              =  -11682.08894949 Ry
     estimated scf accuracy    <       1.56080935 Ry

     iteration # 32     ecut=    80.00 Ry     beta= 0.10
     Davidson diagonalization with overlap
     ethr =  6.67E-05,  avg # of iterations =  1.0

     negative rho (up, down):  5.720E-02 0.000E+00

     total cpu time spent up to now is     9960.3 secs

     total energy              =  -11682.07166056 Ry
     estimated scf accuracy    <       2.30940485 Ry

     iteration # 33     ecut=    80.00 Ry     beta= 0.10
     Davidson diagonalization with overlap
     ethr =  6.67E-05,  avg # of iterations =  1.0

     negative rho (up, down):  5.693E-02 0.000E+00

     total cpu time spent up to now is    10248.2 secs

     total energy              =  -11682.05259013 Ry
     estimated scf accuracy    <       5.67160835 Ry

     iteration # 34     ecut=    80.00 Ry     beta= 0.10
     Davidson diagonalization with overlap
     ethr =  6.67E-05,  avg # of iterations =  1.0

     negative rho (up, down):  5.725E-02 0.000E+00

     total cpu time spent up to now is    10535.4 secs

     total energy              =  -11682.08653185 Ry
     estimated scf accuracy    <       1.20526807 Ry

     iteration # 35     ecut=    80.00 Ry     beta= 0.10
     Davidson diagonalization with overlap
     ethr =  6.44E-05,  avg # of iterations =  1.0

     negative rho (up, down):  5.722E-02 0.000E+00

     total cpu time spent up to now is    10822.2 secs

     total energy              =  -11682.07911272 Ry
     estimated scf accuracy    <       1.88247819 Ry

     iteration # 36     ecut=    80.00 Ry     beta= 0.10
     Davidson diagonalization with overlap
     ethr =  6.44E-05,  avg # of iterations =  1.0

     negative rho (up, down):  5.731E-02 0.000E+00

     total cpu time spent up to now is    11108.9 secs

     total energy              =  -11682.09498885 Ry
     estimated scf accuracy    <       0.55494682 Ry

     iteration # 37     ecut=    80.00 Ry     beta= 0.10
     Davidson diagonalization with overlap
     ethr =  2.96E-05,  avg # of iterations =  2.0

     negative rho (up, down):  5.777E-02 0.000E+00

     total cpu time spent up to now is    11432.7 secs

     total energy              =  -11682.09460553 Ry
     estimated scf accuracy    <       0.33625069 Ry

     iteration # 38     ecut=    80.00 Ry     beta= 0.10
     Davidson diagonalization with overlap
     c_bands:  1 eigenvalues not converged
     ethr =  1.80E-05,  avg # of iterations = 20.0

     negative rho (up, down):  5.746E-02 0.000E+00

     total cpu time spent up to now is    11865.6 secs

     total energy              =  -11682.06505452 Ry
     estimated scf accuracy    <       2.55855724 Ry

     iteration # 39     ecut=    80.00 Ry     beta= 0.10
     Davidson diagonalization with overlap
     ethr =  1.80E-05,  avg # of iterations =  1.0

     negative rho (up, down):  5.752E-02 0.000E+00

     total cpu time spent up to now is    12152.7 secs

     total energy              =  -11682.08833626 Ry
     estimated scf accuracy    <       1.49715330 Ry

     iteration # 40     ecut=    80.00 Ry     beta= 0.10
     Davidson diagonalization with overlap
     ethr =  1.80E-05,  avg # of iterations =  1.0

     negative rho (up, down):  5.759E-02 0.000E+00

     total cpu time spent up to now is    12440.0 secs

     total energy              =  -11682.09677910 Ry
     estimated scf accuracy    <       0.50912493 Ry

     iteration # 41     ecut=    80.00 Ry     beta= 0.10
     Davidson diagonalization with overlap
     ethr =  1.80E-05,  avg # of iterations =  1.0

     negative rho (up, down):  5.776E-02 0.000E+00

     total cpu time spent up to now is    12727.3 secs

     total energy              =  -11682.09921882 Ry
     estimated scf accuracy    <       0.25130138 Ry

     iteration # 42     ecut=    80.00 Ry     beta= 0.10
     Davidson diagonalization with overlap
     ethr =  1.34E-05,  avg # of iterations =  1.0

     negative rho (up, down):  5.798E-02 0.000E+00

     total cpu time spent up to now is    13014.0 secs

     total energy              =  -11682.09902115 Ry
     estimated scf accuracy    <       0.29427432 Ry

     iteration # 43     ecut=    80.00 Ry     beta= 0.10
     Davidson diagonalization with overlap
     ethr =  1.34E-05,  avg # of iterations =  1.0

     negative rho (up, down):  5.795E-02 0.000E+00

     total cpu time spent up to now is    13301.2 secs

     total energy              =  -11682.09405360 Ry
     estimated scf accuracy    <       0.27702253 Ry

     iteration # 44     ecut=    80.00 Ry     beta= 0.10
     Davidson diagonalization with overlap
     ethr =  1.34E-05,  avg # of iterations =  1.0

     negative rho (up, down):  5.820E-02 0.000E+00

     total cpu time spent up to now is    13589.1 secs

     total energy              =  -11682.08510876 Ry
     estimated scf accuracy    <       1.98337153 Ry

     iteration # 45     ecut=    80.00 Ry     beta= 0.10
     Davidson diagonalization with overlap
     ethr =  1.34E-05,  avg # of iterations =  1.0

     negative rho (up, down):  5.803E-02 0.000E+00

     total cpu time spent up to now is    13876.0 secs

     total energy              =  -11682.09595904 Ry
     estimated scf accuracy    <       0.28645439 Ry

     iteration # 46     ecut=    80.00 Ry     beta= 0.10
     Davidson diagonalization with overlap
     ethr =  1.34E-05,  avg # of iterations =  1.0

     negative rho (up, down):  5.805E-02 0.000E+00

     total cpu time spent up to now is    14163.4 secs

     total energy              =  -11682.09334979 Ry
     estimated scf accuracy    <       0.89989176 Ry

     iteration # 47     ecut=    80.00 Ry     beta= 0.10
     Davidson diagonalization with overlap
     ethr =  1.34E-05,  avg # of iterations =  1.0

     negative rho (up, down):  5.839E-02 0.000E+00

     total cpu time spent up to now is    14450.9 secs

     total energy              =  -11682.09932246 Ry
     estimated scf accuracy    <       0.48119556 Ry

     iteration # 48     ecut=    80.00 Ry     beta= 0.10
     Davidson diagonalization with overlap
     ethr =  1.34E-05,  avg # of iterations =  1.0

     negative rho (up, down):  5.867E-02 0.000E+00

     total cpu time spent up to now is    14738.2 secs

     total energy              =  -11682.10134373 Ry
     estimated scf accuracy    <       0.23294310 Ry

     iteration # 49     ecut=    80.00 Ry     beta= 0.10
     Davidson diagonalization with overlap
     ethr =  1.24E-05,  avg # of iterations =  1.0

     negative rho (up, down):  5.828E-02 0.000E+00

     total cpu time spent up to now is    15025.3 secs

     total energy              =  -11682.09685502 Ry
     estimated scf accuracy    <       0.36367254 Ry

     iteration # 50     ecut=    80.00 Ry     beta= 0.10
     Davidson diagonalization with overlap
     ethr =  1.24E-05,  avg # of iterations =  1.0

     negative rho (up, down):  5.824E-02 0.000E+00

     total cpu time spent up to now is    15312.2 secs

     total energy              =  -11682.09277126 Ry
     estimated scf accuracy    <       1.37835182 Ry

     iteration # 51     ecut=    80.00 Ry     beta= 0.10
     Davidson diagonalization with overlap
     ethr =  1.24E-05,  avg # of iterations =  1.0

     negative rho (up, down):  5.833E-02 0.000E+00

     total cpu time spent up to now is    15599.4 secs

     total energy              =  -11682.10058642 Ry
     estimated scf accuracy    <       0.27832610 Ry

     iteration # 52     ecut=    80.00 Ry     beta= 0.10
     Davidson diagonalization with overlap
     ethr =  1.24E-05,  avg # of iterations =  1.0

     negative rho (up, down):  5.845E-02 0.000E+00

     total cpu time spent up to now is    15886.8 secs

     total energy              =  -11682.10266838 Ry
     estimated scf accuracy    <       0.11159852 Ry

     iteration # 53     ecut=    80.00 Ry     beta= 0.10
     Davidson diagonalization with overlap
     ethr =  5.96E-06,  avg # of iterations =  1.0

     negative rho (up, down):  5.853E-02 0.000E+00

     total cpu time spent up to now is    16173.7 secs

     total energy              =  -11682.10315003 Ry
     estimated scf accuracy    <       0.03880112 Ry

     iteration # 54     ecut=    80.00 Ry     beta= 0.10
     Davidson diagonalization with overlap
     ethr =  2.07E-06,  avg # of iterations =  1.0

     negative rho (up, down):  5.856E-02 0.000E+00

     total cpu time spent up to now is    16461.0 secs

     total energy              =  -11682.10306763 Ry
     estimated scf accuracy    <       0.04233283 Ry

     iteration # 55     ecut=    80.00 Ry     beta= 0.10
     Davidson diagonalization with overlap
     ethr =  2.07E-06,  avg # of iterations =  1.0

     negative rho (up, down):  5.859E-02 0.000E+00

     total cpu time spent up to now is    16748.1 secs

     total energy              =  -11682.10313015 Ry
     estimated scf accuracy    <       0.05066157 Ry

     iteration # 56     ecut=    80.00 Ry     beta= 0.10
     Davidson diagonalization with overlap
     ethr =  2.07E-06,  avg # of iterations =  1.0

     negative rho (up, down):  5.856E-02 0.000E+00

     total cpu time spent up to now is    17035.3 secs

     total energy              =  -11682.10234249 Ry
     estimated scf accuracy    <       0.14024365 Ry

     iteration # 57     ecut=    80.00 Ry     beta= 0.10
     Davidson diagonalization with overlap
     ethr =  2.07E-06,  avg # of iterations =  1.0

     negative rho (up, down):  5.865E-02 0.000E+00

     total cpu time spent up to now is    17322.2 secs

     total energy              =  -11682.10310318 Ry
     estimated scf accuracy    <       0.09741201 Ry

     iteration # 58     ecut=    80.00 Ry     beta= 0.10
     Davidson diagonalization with overlap
     ethr =  2.07E-06,  avg # of iterations =  1.0

     negative rho (up, down):  5.873E-02 0.000E+00

     total cpu time spent up to now is    17608.7 secs

     total energy              =  -11682.10371243 Ry
     estimated scf accuracy    <       0.04378207 Ry

     iteration # 59     ecut=    80.00 Ry     beta= 0.10
     Davidson diagonalization with overlap
     ethr =  2.07E-06,  avg # of iterations =  1.0

     negative rho (up, down):  5.876E-02 0.000E+00

     total cpu time spent up to now is    17896.0 secs

     total energy              =  -11682.10362328 Ry
     estimated scf accuracy    <       0.03198757 Ry

     iteration # 60     ecut=    80.00 Ry     beta= 0.10
     Davidson diagonalization with overlap
     ethr =  1.71E-06,  avg # of iterations =  1.0

     negative rho (up, down):  5.870E-02 0.000E+00

     total cpu time spent up to now is    18183.3 secs

     total energy              =  -11682.10216632 Ry
     estimated scf accuracy    <       0.18453500 Ry

     iteration # 61     ecut=    80.00 Ry     beta= 0.10
     Davidson diagonalization with overlap
     ethr =  1.71E-06,  avg # of iterations =  1.0

     negative rho (up, down):  5.869E-02 0.000E+00

     total cpu time spent up to now is    18471.3 secs

     total energy              =  -11682.10157574 Ry
     estimated scf accuracy    <       0.25376633 Ry

     iteration # 62     ecut=    80.00 Ry     beta= 0.10
     Davidson diagonalization with overlap
     ethr =  1.71E-06,  avg # of iterations =  1.0

     negative rho (up, down):  5.871E-02 0.000E+00

     total cpu time spent up to now is    18758.4 secs

     total energy              =  -11682.10295711 Ry
     estimated scf accuracy    <       0.14529315 Ry

     iteration # 63     ecut=    80.00 Ry     beta= 0.10
     Davidson diagonalization with overlap
     ethr =  1.71E-06,  avg # of iterations =  1.0

     negative rho (up, down):  5.875E-02 0.000E+00

     total cpu time spent up to now is    19045.6 secs

     total energy              =  -11682.10403635 Ry
     estimated scf accuracy    <       0.00889717 Ry

     iteration # 64     ecut=    80.00 Ry     beta= 0.10
     Davidson diagonalization with overlap
     ethr =  4.75E-07,  avg # of iterations =  1.0

     negative rho (up, down):  5.877E-02 0.000E+00

     total cpu time spent up to now is    19333.5 secs

     total energy              =  -11682.10405428 Ry
     estimated scf accuracy    <       0.01151641 Ry

     iteration # 65     ecut=    80.00 Ry     beta= 0.10
     Davidson diagonalization with overlap
     ethr =  4.75E-07,  avg # of iterations =  1.0

     negative rho (up, down):  5.879E-02 0.000E+00

     total cpu time spent up to now is    19621.3 secs

     total energy              =  -11682.10415020 Ry
     estimated scf accuracy    <       0.00480061 Ry

     iteration # 66     ecut=    80.00 Ry     beta= 0.10
     Davidson diagonalization with overlap
     ethr =  2.56E-07,  avg # of iterations =  1.0

     negative rho (up, down):  5.878E-02 0.000E+00

     total cpu time spent up to now is    19907.7 secs

     total energy              =  -11682.10403077 Ry
     estimated scf accuracy    <       0.01641867 Ry

     iteration # 67     ecut=    80.00 Ry     beta= 0.10
     Davidson diagonalization with overlap
     ethr =  2.56E-07,  avg # of iterations =  1.0

     negative rho (up, down):  5.881E-02 0.000E+00

     total cpu time spent up to now is    20194.5 secs

     total energy              =  -11682.10410249 Ry
     estimated scf accuracy    <       0.02113324 Ry

     iteration # 68     ecut=    80.00 Ry     beta= 0.10
     Davidson diagonalization with overlap
     ethr =  2.56E-07,  avg # of iterations =  1.0

     negative rho (up, down):  5.884E-02 0.000E+00

     total cpu time spent up to now is    20482.2 secs

     total energy              =  -11682.10428150 Ry
     estimated scf accuracy    <       0.00565255 Ry

     iteration # 69     ecut=    80.00 Ry     beta= 0.10
     Davidson diagonalization with overlap
     ethr =  2.56E-07,  avg # of iterations =  1.0

     negative rho (up, down):  5.888E-02 0.000E+00

     total cpu time spent up to now is    20769.4 secs

     total energy              =  -11682.10434340 Ry
     estimated scf accuracy    <       0.00508434 Ry

     iteration # 70     ecut=    80.00 Ry     beta= 0.10
     Davidson diagonalization with overlap
     ethr =  2.56E-07,  avg # of iterations =  1.0

     negative rho (up, down):  5.895E-02 0.000E+00

     total cpu time spent up to now is    21057.1 secs

     total energy              =  -11682.10430755 Ry
     estimated scf accuracy    <       0.02631015 Ry

     iteration # 71     ecut=    80.00 Ry     beta= 0.10
     Davidson diagonalization with overlap
     ethr =  2.56E-07,  avg # of iterations =  1.0

     negative rho (up, down):  5.892E-02 0.000E+00

     total cpu time spent up to now is    21344.6 secs

     total energy              =  -11682.10405226 Ry
     estimated scf accuracy    <       0.04136356 Ry

     iteration # 72     ecut=    80.00 Ry     beta= 0.10
     Davidson diagonalization with overlap
     ethr =  2.56E-07,  avg # of iterations =  1.0

     negative rho (up, down):  5.885E-02 0.000E+00

     total cpu time spent up to now is    21631.2 secs

     total energy              =  -11682.10389531 Ry
     estimated scf accuracy    <       0.04906081 Ry

     iteration # 73     ecut=    80.00 Ry     beta= 0.10
     Davidson diagonalization with overlap
     ethr =  2.56E-07,  avg # of iterations =  1.0

     negative rho (up, down):  5.890E-02 0.000E+00

     total cpu time spent up to now is    21917.9 secs

     total energy              =  -11682.10431882 Ry
     estimated scf accuracy    <       0.01306385 Ry

     iteration # 74     ecut=    80.00 Ry     beta= 0.10
     Davidson diagonalization with overlap
     ethr =  2.56E-07,  avg # of iterations =  1.0

     negative rho (up, down):  5.890E-02 0.000E+00

     total cpu time spent up to now is    22204.9 secs

     total energy              =  -11682.10434683 Ry
     estimated scf accuracy    <       0.00918114 Ry

     iteration # 75     ecut=    80.00 Ry     beta= 0.10
     Davidson diagonalization with overlap
     ethr =  2.56E-07,  avg # of iterations =  1.0

     negative rho (up, down):  5.892E-02 0.000E+00

     total cpu time spent up to now is    22492.5 secs

     total energy              =  -11682.10443160 Ry
     estimated scf accuracy    <       0.00485456 Ry

     iteration # 76     ecut=    80.00 Ry     beta= 0.10
     Davidson diagonalization with overlap
     ethr =  2.56E-07,  avg # of iterations =  1.0

     negative rho (up, down):  5.893E-02 0.000E+00

     total cpu time spent up to now is    22780.4 secs

     total energy              =  -11682.10441276 Ry
     estimated scf accuracy    <       0.00632920 Ry

     iteration # 77     ecut=    80.00 Ry     beta= 0.10
     Davidson diagonalization with overlap
     ethr =  2.56E-07,  avg # of iterations =  1.0

     negative rho (up, down):  5.893E-02 0.000E+00

     total cpu time spent up to now is    23067.9 secs

     total energy              =  -11682.10438754 Ry
     estimated scf accuracy    <       0.01506207 Ry

     iteration # 78     ecut=    80.00 Ry     beta= 0.10
     Davidson diagonalization with overlap
     ethr =  2.56E-07,  avg # of iterations =  1.0

     negative rho (up, down):  5.894E-02 0.000E+00

     total cpu time spent up to now is    23354.8 secs

     total energy              =  -11682.10449053 Ry
     estimated scf accuracy    <       0.00321370 Ry

     iteration # 79     ecut=    80.00 Ry     beta= 0.10
     Davidson diagonalization with overlap
     ethr =  1.72E-07,  avg # of iterations =  1.0

     negative rho (up, down):  5.896E-02 0.000E+00

     total cpu time spent up to now is    23641.8 secs

     total energy              =  -11682.10452788 Ry
     estimated scf accuracy    <       0.00153696 Ry

     iteration # 80     ecut=    80.00 Ry     beta= 0.10
     Davidson diagonalization with overlap
     ethr =  8.21E-08,  avg # of iterations =  1.0

     negative rho (up, down):  5.901E-02 0.000E+00

     total cpu time spent up to now is    23929.4 secs

     total energy              =  -11682.10458662 Ry
     estimated scf accuracy    <       0.00217231 Ry

     iteration # 81     ecut=    80.00 Ry     beta= 0.10
     Davidson diagonalization with overlap
     ethr =  8.21E-08,  avg # of iterations =  1.0

     negative rho (up, down):  5.901E-02 0.000E+00

     total cpu time spent up to now is    24216.9 secs

     total energy              =  -11682.10456334 Ry
     estimated scf accuracy    <       0.00319954 Ry

     iteration # 82     ecut=    80.00 Ry     beta= 0.10
     Davidson diagonalization with overlap
     ethr =  8.21E-08,  avg # of iterations =  1.0

     negative rho (up, down):  5.898E-02 0.000E+00

     total cpu time spent up to now is    24504.0 secs

     total energy              =  -11682.10443167 Ry
     estimated scf accuracy    <       0.01083205 Ry

     iteration # 83     ecut=    80.00 Ry     beta= 0.10
     Davidson diagonalization with overlap
     ethr =  8.21E-08,  avg # of iterations =  1.0

     negative rho (up, down):  5.900E-02 0.000E+00

     total cpu time spent up to now is    24791.8 secs

     total energy              =  -11682.10442398 Ry
     estimated scf accuracy    <       0.02124097 Ry

     iteration # 84     ecut=    80.00 Ry     beta= 0.10
     Davidson diagonalization with overlap
     ethr =  8.21E-08,  avg # of iterations =  1.0

     negative rho (up, down):  5.901E-02 0.000E+00

     total cpu time spent up to now is    25078.8 secs

     total energy              =  -11682.10452346 Ry
     estimated scf accuracy    <       0.00755226 Ry

     iteration # 85     ecut=    80.00 Ry     beta= 0.10
     Davidson diagonalization with overlap
     ethr =  8.21E-08,  avg # of iterations =  1.0

     negative rho (up, down):  5.903E-02 0.000E+00

     total cpu time spent up to now is    25366.0 secs

     total energy              =  -11682.10458846 Ry
     estimated scf accuracy    <       0.00417786 Ry

     iteration # 86     ecut=    80.00 Ry     beta= 0.10
     Davidson diagonalization with overlap
     ethr =  8.21E-08,  avg # of iterations =  1.0

     negative rho (up, down):  5.905E-02 0.000E+00

     total cpu time spent up to now is    25653.6 secs

     total energy              =  -11682.10459593 Ry
     estimated scf accuracy    <       0.00478888 Ry

     iteration # 87     ecut=    80.00 Ry     beta= 0.10
     Davidson diagonalization with overlap
     ethr =  8.21E-08,  avg # of iterations =  1.0

     negative rho (up, down):  5.902E-02 0.000E+00

     total cpu time spent up to now is    25940.0 secs

     total energy              =  -11682.10454028 Ry
     estimated scf accuracy    <       0.01011600 Ry

     iteration # 88     ecut=    80.00 Ry     beta= 0.10
     Davidson diagonalization with overlap
     ethr =  8.21E-08,  avg # of iterations =  1.0

     negative rho (up, down):  5.903E-02 0.000E+00

     total cpu time spent up to now is    26226.9 secs

     total energy              =  -11682.10459270 Ry
     estimated scf accuracy    <       0.00445526 Ry

     iteration # 89     ecut=    80.00 Ry     beta= 0.10
     Davidson diagonalization with overlap
     ethr =  8.21E-08,  avg # of iterations =  1.0

     negative rho (up, down):  5.904E-02 0.000E+00

     total cpu time spent up to now is    26513.9 secs

     total energy              =  -11682.10462834 Ry
     estimated scf accuracy    <       0.00093254 Ry

     iteration # 90     ecut=    80.00 Ry     beta= 0.10
     Davidson diagonalization with overlap
     ethr =  4.98E-08,  avg # of iterations =  1.0

     negative rho (up, down):  5.905E-02 0.000E+00

     total cpu time spent up to now is    26802.2 secs

     total energy              =  -11682.10465008 Ry
     estimated scf accuracy    <       0.00054037 Ry

     iteration # 91     ecut=    80.00 Ry     beta= 0.10
     Davidson diagonalization with overlap
     ethr =  2.89E-08,  avg # of iterations =  1.0

     negative rho (up, down):  5.906E-02 0.000E+00

     total cpu time spent up to now is    27089.2 secs

     total energy              =  -11682.10465340 Ry
     estimated scf accuracy    <       0.00054758 Ry

     iteration # 92     ecut=    80.00 Ry     beta= 0.10
     Davidson diagonalization with overlap
     ethr =  2.89E-08,  avg # of iterations =  1.0

     negative rho (up, down):  5.908E-02 0.000E+00

     total cpu time spent up to now is    27375.6 secs

     total energy              =  -11682.10466061 Ry
     estimated scf accuracy    <       0.00059254 Ry

     iteration # 93     ecut=    80.00 Ry     beta= 0.10
     Davidson diagonalization with overlap
     ethr =  2.89E-08,  avg # of iterations =  1.0

     negative rho (up, down):  5.907E-02 0.000E+00

     total cpu time spent up to now is    27664.1 secs

     total energy              =  -11682.10462365 Ry
     estimated scf accuracy    <       0.00549643 Ry

     iteration # 94     ecut=    80.00 Ry     beta= 0.10
     Davidson diagonalization with overlap
     ethr =  2.89E-08,  avg # of iterations =  1.0

     negative rho (up, down):  5.908E-02 0.000E+00

     total cpu time spent up to now is    27951.0 secs

     total energy              =  -11682.10464840 Ry
     estimated scf accuracy    <       0.00301058 Ry

     iteration # 95     ecut=    80.00 Ry     beta= 0.10
     Davidson diagonalization with overlap
     ethr =  2.89E-08,  avg # of iterations =  1.0

     negative rho (up, down):  5.910E-02 0.000E+00

     total cpu time spent up to now is    28237.0 secs

     total energy              =  -11682.10466694 Ry
     estimated scf accuracy    <       0.00195053 Ry

     iteration # 96     ecut=    80.00 Ry     beta= 0.10
     Davidson diagonalization with overlap
     ethr =  2.89E-08,  avg # of iterations =  1.0

     negative rho (up, down):  5.912E-02 0.000E+00

     total cpu time spent up to now is    28523.5 secs

     total energy              =  -11682.10468505 Ry
     estimated scf accuracy    <       0.00191147 Ry

     iteration # 97     ecut=    80.00 Ry     beta= 0.10
     Davidson diagonalization with overlap
     ethr =  2.89E-08,  avg # of iterations =  1.0

     negative rho (up, down):  5.910E-02 0.000E+00

     total cpu time spent up to now is    28810.2 secs

     total energy              =  -11682.10465632 Ry
     estimated scf accuracy    <       0.00314463 Ry

     iteration # 98     ecut=    80.00 Ry     beta= 0.10
     Davidson diagonalization with overlap
     ethr =  2.89E-08,  avg # of iterations =  1.0

     negative rho (up, down):  5.909E-02 0.000E+00

     total cpu time spent up to now is    29097.0 secs

     total energy              =  -11682.10464381 Ry
     estimated scf accuracy    <       0.00486159 Ry

     iteration # 99     ecut=    80.00 Ry     beta= 0.10
     Davidson diagonalization with overlap
     ethr =  2.89E-08,  avg # of iterations =  1.0

     negative rho (up, down):  5.909E-02 0.000E+00

     total cpu time spent up to now is    29383.8 secs

     total energy              =  -11682.10467053 Ry
     estimated scf accuracy    <       0.00143589 Ry

     iteration #100     ecut=    80.00 Ry     beta= 0.10
     Davidson diagonalization with overlap
     ethr =  2.89E-08,  avg # of iterations =  1.0

     negative rho (up, down):  5.911E-02 0.000E+00

     total cpu time spent up to now is    29670.5 secs

     total energy              =  -11682.10469080 Ry
     estimated scf accuracy    <       0.00064992 Ry

     iteration #101     ecut=    80.00 Ry     beta= 0.10
     Davidson diagonalization with overlap
     ethr =  2.89E-08,  avg # of iterations =  1.0

     negative rho (up, down):  5.911E-02 0.000E+00

     total cpu time spent up to now is    29958.3 secs

     total energy              =  -11682.10469236 Ry
     estimated scf accuracy    <       0.00039592 Ry

     iteration #102     ecut=    80.00 Ry     beta= 0.10
     Davidson diagonalization with overlap
     ethr =  2.11E-08,  avg # of iterations =  1.0

     negative rho (up, down):  5.912E-02 0.000E+00

     total cpu time spent up to now is    30245.2 secs

     total energy              =  -11682.10470231 Ry
     estimated scf accuracy    <       0.00016651 Ry

     iteration #103     ecut=    80.00 Ry     beta= 0.10
     Davidson diagonalization with overlap
     ethr =  8.89E-09,  avg # of iterations =  1.0

     negative rho (up, down):  5.912E-02 0.000E+00

     total cpu time spent up to now is    30532.3 secs

     total energy              =  -11682.10469522 Ry
     estimated scf accuracy    <       0.00079790 Ry

     iteration #104     ecut=    80.00 Ry     beta= 0.10
     Davidson diagonalization with overlap
     ethr =  8.89E-09,  avg # of iterations =  1.0

     negative rho (up, down):  5.913E-02 0.000E+00

     total cpu time spent up to now is    30819.8 secs

     total energy              =  -11682.10469991 Ry
     estimated scf accuracy    <       0.00083070 Ry

     iteration #105     ecut=    80.00 Ry     beta= 0.10
     Davidson diagonalization with overlap
     ethr =  8.89E-09,  avg # of iterations =  1.0

     negative rho (up, down):  5.913E-02 0.000E+00

     total cpu time spent up to now is    31106.9 secs

     total energy              =  -11682.10470542 Ry
     estimated scf accuracy    <       0.00036066 Ry

     iteration #106     ecut=    80.00 Ry     beta= 0.10
     Davidson diagonalization with overlap
     ethr =  8.89E-09,  avg # of iterations =  1.0

     negative rho (up, down):  5.915E-02 0.000E+00

     total cpu time spent up to now is    31394.2 secs

     total energy              =  -11682.10471257 Ry
     estimated scf accuracy    <       0.00037790 Ry

     iteration #107     ecut=    80.00 Ry     beta= 0.10
     Davidson diagonalization with overlap
     ethr =  8.89E-09,  avg # of iterations =  1.0

     negative rho (up, down):  5.915E-02 0.000E+00

     total cpu time spent up to now is    31681.5 secs

     total energy              =  -11682.10470932 Ry
     estimated scf accuracy    <       0.00062346 Ry

     iteration #108     ecut=    80.00 Ry     beta= 0.10
     Davidson diagonalization with overlap
     ethr =  8.89E-09,  avg # of iterations =  1.0

     negative rho (up, down):  5.914E-02 0.000E+00

     total cpu time spent up to now is    31968.5 secs

     total energy              =  -11682.10469608 Ry
     estimated scf accuracy    <       0.00205263 Ry

     iteration #109     ecut=    80.00 Ry     beta= 0.10
     Davidson diagonalization with overlap
     ethr =  8.89E-09,  avg # of iterations =  1.0

     negative rho (up, down):  5.914E-02 0.000E+00

     total cpu time spent up to now is    32255.4 secs

     total energy              =  -11682.10469813 Ry
     estimated scf accuracy    <       0.00135028 Ry

     iteration #110     ecut=    80.00 Ry     beta= 0.10
     Davidson diagonalization with overlap
     ethr =  8.89E-09,  avg # of iterations =  1.0

     negative rho (up, down):  5.915E-02 0.000E+00

     total cpu time spent up to now is    32542.9 secs

     total energy              =  -11682.10470975 Ry
     estimated scf accuracy    <       0.00083552 Ry

     iteration #111     ecut=    80.00 Ry     beta= 0.10
     Davidson diagonalization with overlap
     ethr =  8.89E-09,  avg # of iterations =  1.0

     negative rho (up, down):  5.915E-02 0.000E+00

     total cpu time spent up to now is    32829.9 secs

     total energy              =  -11682.10471161 Ry
     estimated scf accuracy    <       0.00033817 Ry

     iteration #112     ecut=    80.00 Ry     beta= 0.10
     Davidson diagonalization with overlap
     ethr =  8.89E-09,  avg # of iterations =  1.0

     negative rho (up, down):  5.916E-02 0.000E+00

     total cpu time spent up to now is    33117.4 secs

     total energy              =  -11682.10471894 Ry
     estimated scf accuracy    <       0.00013361 Ry

     iteration #113     ecut=    80.00 Ry     beta= 0.10
     Davidson diagonalization with overlap
     ethr =  7.14E-09,  avg # of iterations =  1.0

     negative rho (up, down):  5.915E-02 0.000E+00

     total cpu time spent up to now is    33404.7 secs

     total energy              =  -11682.10471585 Ry
     estimated scf accuracy    <       0.00025809 Ry

     iteration #114     ecut=    80.00 Ry     beta= 0.10
     Davidson diagonalization with overlap
     ethr =  7.14E-09,  avg # of iterations =  1.0

     negative rho (up, down):  5.916E-02 0.000E+00

     total cpu time spent up to now is    33692.4 secs

     total energy              =  -11682.10471769 Ry
     estimated scf accuracy    <       0.00032507 Ry

     iteration #115     ecut=    80.00 Ry     beta= 0.10
     Davidson diagonalization with overlap
     ethr =  7.14E-09,  avg # of iterations =  1.0

     negative rho (up, down):  5.916E-02 0.000E+00

     total cpu time spent up to now is    33980.5 secs

     total energy              =  -11682.10471969 Ry
     estimated scf accuracy    <       0.00012001 Ry

     iteration #116     ecut=    80.00 Ry     beta= 0.10
     Davidson diagonalization with overlap
     ethr =  6.41E-09,  avg # of iterations =  1.0

     negative rho (up, down):  5.916E-02 0.000E+00

     total cpu time spent up to now is    34268.0 secs

     total energy              =  -11682.10472244 Ry
     estimated scf accuracy    <       0.00007703 Ry

     iteration #117     ecut=    80.00 Ry     beta= 0.10
     Davidson diagonalization with overlap
     ethr =  4.11E-09,  avg # of iterations =  1.0

     negative rho (up, down):  5.917E-02 0.000E+00

     total cpu time spent up to now is    34555.2 secs

     total energy              =  -11682.10472383 Ry
     estimated scf accuracy    <       0.00009685 Ry

     iteration #118     ecut=    80.00 Ry     beta= 0.10
     Davidson diagonalization with overlap
     ethr =  4.11E-09,  avg # of iterations =  1.0

     negative rho (up, down):  5.917E-02 0.000E+00

     total cpu time spent up to now is    34842.6 secs

     total energy              =  -11682.10472287 Ry
     estimated scf accuracy    <       0.00035519 Ry

     iteration #119     ecut=    80.00 Ry     beta= 0.10
     Davidson diagonalization with overlap
     ethr =  4.11E-09,  avg # of iterations =  1.0

     negative rho (up, down):  5.917E-02 0.000E+00

     total cpu time spent up to now is    35130.2 secs

     total energy              =  -11682.10472199 Ry
     estimated scf accuracy    <       0.00038780 Ry

     iteration #120     ecut=    80.00 Ry     beta= 0.10
     Davidson diagonalization with overlap
     ethr =  4.11E-09,  avg # of iterations =  1.0

     negative rho (up, down):  5.918E-02 0.000E+00

     total cpu time spent up to now is    35417.4 secs

     total energy              =  -11682.10472251 Ry
     estimated scf accuracy    <       0.00040174 Ry

     iteration #121     ecut=    80.00 Ry     beta= 0.10
     Davidson diagonalization with overlap
     ethr =  4.11E-09,  avg # of iterations =  1.0

     negative rho (up, down):  5.917E-02 0.000E+00

     total cpu time spent up to now is    35704.2 secs

     total energy              =  -11682.10472255 Ry
     estimated scf accuracy    <       0.00016974 Ry

     iteration #122     ecut=    80.00 Ry     beta= 0.10
     Davidson diagonalization with overlap
     ethr =  4.11E-09,  avg # of iterations =  1.0

     negative rho (up, down):  5.918E-02 0.000E+00

     total cpu time spent up to now is    35992.3 secs

     total energy              =  -11682.10472658 Ry
     estimated scf accuracy    <       0.00014697 Ry

     iteration #123     ecut=    80.00 Ry     beta= 0.10
     Davidson diagonalization with overlap
     ethr =  4.11E-09,  avg # of iterations =  1.0

     negative rho (up, down):  5.918E-02 0.000E+00

     total cpu time spent up to now is    36279.0 secs

     total energy              =  -11682.10472507 Ry
     estimated scf accuracy    <       0.00017802 Ry

     iteration #124     ecut=    80.00 Ry     beta= 0.10
     Davidson diagonalization with overlap
     ethr =  4.11E-09,  avg # of iterations =  1.0

     negative rho (up, down):  5.918E-02 0.000E+00

     total cpu time spent up to now is    36565.4 secs

     total energy              =  -11682.10472461 Ry
     estimated scf accuracy    <       0.00040264 Ry

     iteration #125     ecut=    80.00 Ry     beta= 0.10
     Davidson diagonalization with overlap
     ethr =  4.11E-09,  avg # of iterations =  1.0

     negative rho (up, down):  5.918E-02 0.000E+00

     total cpu time spent up to now is    36852.4 secs

     total energy              =  -11682.10472616 Ry
     estimated scf accuracy    <       0.00012398 Ry

     iteration #126     ecut=    80.00 Ry     beta= 0.10
     Davidson diagonalization with overlap
     ethr =  4.11E-09,  avg # of iterations =  1.0

     negative rho (up, down):  5.918E-02 0.000E+00

     total cpu time spent up to now is    37139.5 secs

     total energy              =  -11682.10472786 Ry
     estimated scf accuracy    <       0.00006656 Ry

     iteration #127     ecut=    80.00 Ry     beta= 0.10
     Davidson diagonalization with overlap
     ethr =  3.56E-09,  avg # of iterations =  1.0

     negative rho (up, down):  5.918E-02 0.000E+00

     total cpu time spent up to now is    37427.1 secs

     total energy              =  -11682.10472864 Ry
     estimated scf accuracy    <       0.00002792 Ry

     iteration #128     ecut=    80.00 Ry     beta= 0.10
     Davidson diagonalization with overlap
     ethr =  1.49E-09,  avg # of iterations =  1.0

     negative rho (up, down):  5.919E-02 0.000E+00

     total cpu time spent up to now is    37713.5 secs

     total energy              =  -11682.10472922 Ry
     estimated scf accuracy    <       0.00004996 Ry

     iteration #129     ecut=    80.00 Ry     beta= 0.10
     Davidson diagonalization with overlap
     ethr =  1.49E-09,  avg # of iterations =  1.0

     negative rho (up, down):  5.919E-02 0.000E+00

     total cpu time spent up to now is    38000.1 secs

     total energy              =  -11682.10472977 Ry
     estimated scf accuracy    <       0.00004504 Ry

     iteration #130     ecut=    80.00 Ry     beta= 0.10
     Davidson diagonalization with overlap
     ethr =  1.49E-09,  avg # of iterations =  1.0

     negative rho (up, down):  5.919E-02 0.000E+00

     total cpu time spent up to now is    38287.5 secs

     total energy              =  -11682.10472925 Ry
     estimated scf accuracy    <       0.00008603 Ry

     iteration #131     ecut=    80.00 Ry     beta= 0.10
     Davidson diagonalization with overlap
     ethr =  1.49E-09,  avg # of iterations =  1.0

     negative rho (up, down):  5.919E-02 0.000E+00

     total cpu time spent up to now is    38574.4 secs

     total energy              =  -11682.10472936 Ry
     estimated scf accuracy    <       0.00005768 Ry

     iteration #132     ecut=    80.00 Ry     beta= 0.10
     Davidson diagonalization with overlap
     ethr =  1.49E-09,  avg # of iterations =  1.0

     negative rho (up, down):  5.919E-02 0.000E+00

     total cpu time spent up to now is    38863.7 secs

     total energy              =  -11682.10473007 Ry
     estimated scf accuracy    <       0.00010763 Ry

     iteration #133     ecut=    80.00 Ry     beta= 0.10
     Davidson diagonalization with overlap
     ethr =  1.49E-09,  avg # of iterations =  1.0

     negative rho (up, down):  5.920E-02 0.000E+00

     total cpu time spent up to now is    39150.4 secs

     total energy              =  -11682.10473074 Ry
     estimated scf accuracy    <       0.00008588 Ry

     iteration #134     ecut=    80.00 Ry     beta= 0.10
     Davidson diagonalization with overlap
     ethr =  1.49E-09,  avg # of iterations =  1.0

     negative rho (up, down):  5.920E-02 0.000E+00

     total cpu time spent up to now is    39438.0 secs

     total energy              =  -11682.10472945 Ry
     estimated scf accuracy    <       0.00025619 Ry

     iteration #135     ecut=    80.00 Ry     beta= 0.10
     Davidson diagonalization with overlap
     ethr =  1.49E-09,  avg # of iterations =  1.0

     negative rho (up, down):  5.919E-02 0.000E+00

     total cpu time spent up to now is    39725.1 secs

     total energy              =  -11682.10472967 Ry
     estimated scf accuracy    <       0.00011041 Ry

     iteration #136     ecut=    80.00 Ry     beta= 0.10
     Davidson diagonalization with overlap
     ethr =  1.49E-09,  avg # of iterations =  1.0

     negative rho (up, down):  5.919E-02 0.000E+00

     total cpu time spent up to now is    40012.9 secs

     total energy              =  -11682.10473026 Ry
     estimated scf accuracy    <       0.00011933 Ry

     iteration #137     ecut=    80.00 Ry     beta= 0.10
     Davidson diagonalization with overlap
     ethr =  1.49E-09,  avg # of iterations =  1.0

     negative rho (up, down):  5.920E-02 0.000E+00

     total cpu time spent up to now is    40299.6 secs

     total energy              =  -11682.10473125 Ry
     estimated scf accuracy    <       0.00002924 Ry

     iteration #138     ecut=    80.00 Ry     beta= 0.10
     Davidson diagonalization with overlap
     ethr =  1.49E-09,  avg # of iterations =  1.0

     negative rho (up, down):  5.920E-02 0.000E+00

     total cpu time spent up to now is    40586.5 secs

     total energy              =  -11682.10473160 Ry
     estimated scf accuracy    <       0.00002251 Ry

     iteration #139     ecut=    80.00 Ry     beta= 0.10
     Davidson diagonalization with overlap
     ethr =  1.20E-09,  avg # of iterations =  1.0

     negative rho (up, down):  5.920E-02 0.000E+00

     total cpu time spent up to now is    40883.4 secs

     total energy              =  -11682.10473192 Ry
     estimated scf accuracy    <       0.00001150 Ry

     iteration #140     ecut=    80.00 Ry     beta= 0.10
     Davidson diagonalization with overlap
     ethr =  6.14E-10,  avg # of iterations =  1.0

     negative rho (up, down):  5.920E-02 0.000E+00

     total cpu time spent up to now is    41170.7 secs

     total energy              =  -11682.10473184 Ry
     estimated scf accuracy    <       0.00001909 Ry

     iteration #141     ecut=    80.00 Ry     beta= 0.10
     Davidson diagonalization with overlap
     ethr =  6.14E-10,  avg # of iterations =  1.0

     negative rho (up, down):  5.920E-02 0.000E+00

     total cpu time spent up to now is    41457.7 secs

     total energy              =  -11682.10473206 Ry
     estimated scf accuracy    <       0.00001620 Ry

     iteration #142     ecut=    80.00 Ry     beta= 0.10
     Davidson diagonalization with overlap
     ethr =  6.14E-10,  avg # of iterations =  1.0

     negative rho (up, down):  5.920E-02 0.000E+00

     total cpu time spent up to now is    41744.8 secs

     total energy              =  -11682.10473232 Ry
     estimated scf accuracy    <       0.00002265 Ry

     iteration #143     ecut=    80.00 Ry     beta= 0.10
     Davidson diagonalization with overlap
     ethr =  6.14E-10,  avg # of iterations =  1.0

     negative rho (up, down):  5.921E-02 0.000E+00

     total cpu time spent up to now is    42040.9 secs

     total energy              =  -11682.10473273 Ry
     estimated scf accuracy    <       0.00002242 Ry

     iteration #144     ecut=    80.00 Ry     beta= 0.10
     Davidson diagonalization with overlap
     ethr =  6.14E-10,  avg # of iterations =  1.0

     negative rho (up, down):  5.921E-02 0.000E+00

     total cpu time spent up to now is    42328.2 secs

     total energy              =  -11682.10473240 Ry
     estimated scf accuracy    <       0.00006503 Ry

     iteration #145     ecut=    80.00 Ry     beta= 0.10
     Davidson diagonalization with overlap
     ethr =  6.14E-10,  avg # of iterations =  1.0

     negative rho (up, down):  5.921E-02 0.000E+00

     total cpu time spent up to now is    42615.7 secs

     total energy              =  -11682.10473229 Ry
     estimated scf accuracy    <       0.00005084 Ry

     iteration #146     ecut=    80.00 Ry     beta= 0.10
     Davidson diagonalization with overlap
     ethr =  6.14E-10,  avg # of iterations =  1.0

     negative rho (up, down):  5.920E-02 0.000E+00

     total cpu time spent up to now is    42903.0 secs

     total energy              =  -11682.10473169 Ry
     estimated scf accuracy    <       0.00010023 Ry

     iteration #147     ecut=    80.00 Ry     beta= 0.10
     Davidson diagonalization with overlap
     ethr =  6.14E-10,  avg # of iterations =  1.0

     negative rho (up, down):  5.920E-02 0.000E+00

     total cpu time spent up to now is    43189.5 secs

     total energy              =  -11682.10473245 Ry
     estimated scf accuracy    <       0.00004675 Ry

     iteration #148     ecut=    80.00 Ry     beta= 0.10
     Davidson diagonalization with overlap
     ethr =  6.14E-10,  avg # of iterations =  1.0

     negative rho (up, down):  5.921E-02 0.000E+00

     total cpu time spent up to now is    43475.7 secs

     total energy              =  -11682.10473274 Ry
     estimated scf accuracy    <       0.00002709 Ry

     iteration #149     ecut=    80.00 Ry     beta= 0.10
     Davidson diagonalization with overlap
     ethr =  6.14E-10,  avg # of iterations =  1.0

     negative rho (up, down):  5.921E-02 0.000E+00

     total cpu time spent up to now is    43762.3 secs

     total energy              =  -11682.10473297 Ry
     estimated scf accuracy    <       0.00001124 Ry

     iteration #150     ecut=    80.00 Ry     beta= 0.10
     Davidson diagonalization with overlap
     ethr =  6.01E-10,  avg # of iterations =  1.0

     negative rho (up, down):  5.921E-02 0.000E+00

     total cpu time spent up to now is    44049.2 secs

     total energy              =  -11682.10473295 Ry
     estimated scf accuracy    <       0.00001094 Ry

     iteration #151     ecut=    80.00 Ry     beta= 0.10
     Davidson diagonalization with overlap
     ethr =  5.84E-10,  avg # of iterations =  1.0

     negative rho (up, down):  5.921E-02 0.000E+00

     total cpu time spent up to now is    44336.1 secs

     total energy              =  -11682.10473308 Ry
     estimated scf accuracy    <       0.00000753 Ry

     iteration #152     ecut=    80.00 Ry     beta= 0.10
     Davidson diagonalization with overlap
     ethr =  4.02E-10,  avg # of iterations =  1.0

     negative rho (up, down):  5.921E-02 0.000E+00

     total cpu time spent up to now is    44626.7 secs

     total energy              =  -11682.10473318 Ry
     estimated scf accuracy    <       0.00000707 Ry

     iteration #153     ecut=    80.00 Ry     beta= 0.10
     Davidson diagonalization with overlap
     ethr =  3.78E-10,  avg # of iterations =  1.0

     negative rho (up, down):  5.921E-02 0.000E+00

     total cpu time spent up to now is    44913.5 secs

     total energy              =  -11682.10473337 Ry
     estimated scf accuracy    <       0.00000418 Ry

     iteration #154     ecut=    80.00 Ry     beta= 0.10
     Davidson diagonalization with overlap
     ethr =  2.23E-10,  avg # of iterations =  1.0

     negative rho (up, down):  5.921E-02 0.000E+00

     total cpu time spent up to now is    45201.5 secs

     total energy              =  -11682.10473335 Ry
     estimated scf accuracy    <       0.00001007 Ry

     iteration #155     ecut=    80.00 Ry     beta= 0.10
     Davidson diagonalization with overlap
     ethr =  2.23E-10,  avg # of iterations =  1.0

     negative rho (up, down):  5.921E-02 0.000E+00

     total cpu time spent up to now is    45489.9 secs

     total energy              =  -11682.10473342 Ry
     estimated scf accuracy    <       0.00001384 Ry

     iteration #156     ecut=    80.00 Ry     beta= 0.10
     Davidson diagonalization with overlap
     ethr =  2.23E-10,  avg # of iterations =  1.0

     negative rho (up, down):  5.921E-02 0.000E+00

     total cpu time spent up to now is    45777.1 secs

     total energy              =  -11682.10473307 Ry
     estimated scf accuracy    <       0.00002960 Ry

     iteration #157     ecut=    80.00 Ry     beta= 0.10
     Davidson diagonalization with overlap
     ethr =  2.23E-10,  avg # of iterations =  1.0

     negative rho (up, down):  5.921E-02 0.000E+00

     total cpu time spent up to now is    46064.5 secs

     total energy              =  -11682.10473318 Ry
     estimated scf accuracy    <       0.00004251 Ry

     iteration #158     ecut=    80.00 Ry     beta= 0.10
     Davidson diagonalization with overlap
     ethr =  2.23E-10,  avg # of iterations =  1.0

     negative rho (up, down):  5.921E-02 0.000E+00

     total cpu time spent up to now is    46351.4 secs

     total energy              =  -11682.10473336 Ry
     estimated scf accuracy    <       0.00002183 Ry

     iteration #159     ecut=    80.00 Ry     beta= 0.10
     Davidson diagonalization with overlap
     ethr =  2.23E-10,  avg # of iterations =  1.0

     negative rho (up, down):  5.921E-02 0.000E+00

     total cpu time spent up to now is    46639.0 secs

     total energy              =  -11682.10473350 Ry
     estimated scf accuracy    <       0.00000911 Ry

     iteration #160     ecut=    80.00 Ry     beta= 0.10
     Davidson diagonalization with overlap
     ethr =  2.23E-10,  avg # of iterations =  1.0

     negative rho (up, down):  5.921E-02 0.000E+00

     total cpu time spent up to now is    46926.5 secs

     total energy              =  -11682.10473346 Ry
     estimated scf accuracy    <       0.00000864 Ry

     iteration #161     ecut=    80.00 Ry     beta= 0.10
     Davidson diagonalization with overlap
     ethr =  2.23E-10,  avg # of iterations =  1.0

     negative rho (up, down):  5.921E-02 0.000E+00

     total cpu time spent up to now is    47212.9 secs

     total energy              =  -11682.10473353 Ry
     estimated scf accuracy    <       0.00000811 Ry

     iteration #162     ecut=    80.00 Ry     beta= 0.10
     Davidson diagonalization with overlap
     ethr =  2.23E-10,  avg # of iterations =  1.0

     negative rho (up, down):  5.921E-02 0.000E+00

     total cpu time spent up to now is    47500.5 secs

     total energy              =  -11682.10473357 Ry
     estimated scf accuracy    <       0.00000571 Ry

     iteration #163     ecut=    80.00 Ry     beta= 0.10
     Davidson diagonalization with overlap
     ethr =  2.23E-10,  avg # of iterations =  1.0

     negative rho (up, down):  5.921E-02 0.000E+00

     total cpu time spent up to now is    47787.4 secs

     total energy              =  -11682.10473366 Ry
     estimated scf accuracy    <       0.00000194 Ry

     iteration #164     ecut=    80.00 Ry     beta= 0.10
     Davidson diagonalization with overlap
     ethr =  1.04E-10,  avg # of iterations =  1.0

     negative rho (up, down):  5.921E-02 0.000E+00

     total cpu time spent up to now is    48074.4 secs

     total energy              =  -11682.10473368 Ry
     estimated scf accuracy    <       0.00000211 Ry

     iteration #165     ecut=    80.00 Ry     beta= 0.10
     Davidson diagonalization with overlap
     ethr =  1.04E-10,  avg # of iterations =  1.0

     negative rho (up, down):  5.922E-02 0.000E+00

     total cpu time spent up to now is    48361.5 secs

     total energy              =  -11682.10473374 Ry
     estimated scf accuracy    <       0.00000246 Ry

     iteration #166     ecut=    80.00 Ry     beta= 0.10
     Davidson diagonalization with overlap
     ethr =  1.04E-10,  avg # of iterations =  1.0

     negative rho (up, down):  5.922E-02 0.000E+00

     total cpu time spent up to now is    48648.7 secs

     total energy              =  -11682.10473369 Ry
     estimated scf accuracy    <       0.00000463 Ry

     iteration #167     ecut=    80.00 Ry     beta= 0.10
     Davidson diagonalization with overlap
     ethr =  1.04E-10,  avg # of iterations =  1.0

     negative rho (up, down):  5.922E-02 0.000E+00

     total cpu time spent up to now is    48935.2 secs

     total energy              =  -11682.10473365 Ry
     estimated scf accuracy    <       0.00001712 Ry

     iteration #168     ecut=    80.00 Ry     beta= 0.10
     Davidson diagonalization with overlap
     ethr =  1.04E-10,  avg # of iterations =  1.0

     negative rho (up, down):  5.922E-02 0.000E+00

     total cpu time spent up to now is    49222.1 secs

     total energy              =  -11682.10473373 Ry
     estimated scf accuracy    <       0.00000771 Ry

     iteration #169     ecut=    80.00 Ry     beta= 0.10
     Davidson diagonalization with overlap
     ethr =  1.04E-10,  avg # of iterations =  1.0

     negative rho (up, down):  5.922E-02 0.000E+00

     total cpu time spent up to now is    49509.1 secs

     total energy              =  -11682.10473377 Ry
     estimated scf accuracy    <       0.00000425 Ry

     iteration #170     ecut=    80.00 Ry     beta= 0.10
     Davidson diagonalization with overlap
     ethr =  1.04E-10,  avg # of iterations =  1.0

     negative rho (up, down):  5.922E-02 0.000E+00

     total cpu time spent up to now is    49796.1 secs

     total energy              =  -11682.10473375 Ry
     estimated scf accuracy    <       0.00000486 Ry

     iteration #171     ecut=    80.00 Ry     beta= 0.10
     Davidson diagonalization with overlap
     ethr =  1.04E-10,  avg # of iterations =  1.0

     negative rho (up, down):  5.922E-02 0.000E+00

     total cpu time spent up to now is    50083.2 secs

     total energy              =  -11682.10473375 Ry
     estimated scf accuracy    <       0.00000851 Ry

     iteration #172     ecut=    80.00 Ry     beta= 0.10
     Davidson diagonalization with overlap
     ethr =  1.04E-10,  avg # of iterations =  1.0

     negative rho (up, down):  5.922E-02 0.000E+00

     total cpu time spent up to now is    50369.5 secs

     total energy              =  -11682.10473374 Ry
     estimated scf accuracy    <       0.00000570 Ry

     iteration #173     ecut=    80.00 Ry     beta= 0.10
     Davidson diagonalization with overlap
     ethr =  1.04E-10,  avg # of iterations =  1.0

     negative rho (up, down):  5.922E-02 0.000E+00

     total cpu time spent up to now is    50657.0 secs

     total energy              =  -11682.10473381 Ry
     estimated scf accuracy    <       0.00000307 Ry

     iteration #174     ecut=    80.00 Ry     beta= 0.10
     Davidson diagonalization with overlap
     ethr =  1.04E-10,  avg # of iterations =  1.0

     negative rho (up, down):  5.922E-02 0.000E+00

     total cpu time spent up to now is    50943.8 secs

     total energy              =  -11682.10473383 Ry
     estimated scf accuracy    <       0.00000177 Ry

     iteration #175     ecut=    80.00 Ry     beta= 0.10
     Davidson diagonalization with overlap
     ethr =  9.47E-11,  avg # of iterations =  1.0

     negative rho (up, down):  5.922E-02 0.000E+00

     total cpu time spent up to now is    51230.5 secs

     total energy              =  -11682.10473386 Ry
     estimated scf accuracy    <       0.00000078 Ry

     iteration #176     ecut=    80.00 Ry     beta= 0.10
     Davidson diagonalization with overlap
     ethr =  4.19E-11,  avg # of iterations =  1.0

     negative rho (up, down):  5.922E-02 0.000E+00

     total cpu time spent up to now is    51517.9 secs

     total energy              =  -11682.10473386 Ry
     estimated scf accuracy    <       0.00000085 Ry

     iteration #177     ecut=    80.00 Ry     beta= 0.10
     Davidson diagonalization with overlap
     ethr =  4.19E-11,  avg # of iterations =  1.0

     negative rho (up, down):  5.922E-02 0.000E+00

     total cpu time spent up to now is    51804.9 secs

     total energy              =  -11682.10473385 Ry
     estimated scf accuracy    <       0.00000390 Ry

     iteration #178     ecut=    80.00 Ry     beta= 0.10
     Davidson diagonalization with overlap
     ethr =  4.19E-11,  avg # of iterations =  1.0

     negative rho (up, down):  5.922E-02 0.000E+00

     total cpu time spent up to now is    52092.2 secs

     total energy              =  -11682.10473387 Ry
     estimated scf accuracy    <       0.00000202 Ry

     iteration #179     ecut=    80.00 Ry     beta= 0.10
     Davidson diagonalization with overlap
     ethr =  4.19E-11,  avg # of iterations =  1.0

     negative rho (up, down):  5.922E-02 0.000E+00

     total cpu time spent up to now is    52379.2 secs

     total energy              =  -11682.10473389 Ry
     estimated scf accuracy    <       0.00000130 Ry

     iteration #180     ecut=    80.00 Ry     beta= 0.10
     Davidson diagonalization with overlap
     ethr =  4.19E-11,  avg # of iterations =  1.0

     negative rho (up, down):  5.922E-02 0.000E+00

     total cpu time spent up to now is    52666.4 secs

     total energy              =  -11682.10473390 Ry
     estimated scf accuracy    <       0.00000173 Ry

     iteration #181     ecut=    80.00 Ry     beta= 0.10
     Davidson diagonalization with overlap
     ethr =  4.19E-11,  avg # of iterations =  1.0

     negative rho (up, down):  5.922E-02 0.000E+00

     total cpu time spent up to now is    52953.1 secs

     total energy              =  -11682.10473389 Ry
     estimated scf accuracy    <       0.00000424 Ry

     iteration #182     ecut=    80.00 Ry     beta= 0.10
     Davidson diagonalization with overlap
     ethr =  4.19E-11,  avg # of iterations =  1.0

     negative rho (up, down):  5.922E-02 0.000E+00

     total cpu time spent up to now is    53240.8 secs

     total energy              =  -11682.10473386 Ry
     estimated scf accuracy    <       0.00000286 Ry

     iteration #183     ecut=    80.00 Ry     beta= 0.10
     Davidson diagonalization with overlap
     ethr =  4.19E-11,  avg # of iterations =  1.0

     negative rho (up, down):  5.922E-02 0.000E+00

     total cpu time spent up to now is    53528.6 secs

     total energy              =  -11682.10473388 Ry
     estimated scf accuracy    <       0.00000489 Ry

     iteration #184     ecut=    80.00 Ry     beta= 0.10
     Davidson diagonalization with overlap
     ethr =  4.19E-11,  avg # of iterations =  1.0

     negative rho (up, down):  5.922E-02 0.000E+00

     total cpu time spent up to now is    53815.4 secs

     total energy              =  -11682.10473390 Ry
     estimated scf accuracy    <       0.00000238 Ry

     iteration #185     ecut=    80.00 Ry     beta= 0.10
     Davidson diagonalization with overlap
     ethr =  4.19E-11,  avg # of iterations =  1.0

     negative rho (up, down):  5.922E-02 0.000E+00

     total cpu time spent up to now is    54102.6 secs

     total energy              =  -11682.10473392 Ry
     estimated scf accuracy    <       0.00000080 Ry

     iteration #186     ecut=    80.00 Ry     beta= 0.10
     Davidson diagonalization with overlap
     ethr =  4.19E-11,  avg # of iterations =  1.0

     negative rho (up, down):  5.922E-02 0.000E+00

     total cpu time spent up to now is    54389.6 secs

     total energy              =  -11682.10473393 Ry
     estimated scf accuracy    <       0.00000052 Ry

     iteration #187     ecut=    80.00 Ry     beta= 0.10
     Davidson diagonalization with overlap
     ethr =  2.76E-11,  avg # of iterations =  1.0

     negative rho (up, down):  5.922E-02 0.000E+00

     total cpu time spent up to now is    54676.2 secs

     total energy              =  -11682.10473392 Ry
     estimated scf accuracy    <       0.00000135 Ry

     iteration #188     ecut=    80.00 Ry     beta= 0.10
     Davidson diagonalization with overlap
     ethr =  2.76E-11,  avg # of iterations =  1.0

     negative rho (up, down):  5.922E-02 0.000E+00

     total cpu time spent up to now is    54963.4 secs

     total energy              =  -11682.10473393 Ry
     estimated scf accuracy    <       0.00000074 Ry

     iteration #189     ecut=    80.00 Ry     beta= 0.10
     Davidson diagonalization with overlap
     ethr =  2.76E-11,  avg # of iterations =  1.0

     negative rho (up, down):  5.922E-02 0.000E+00

     total cpu time spent up to now is    55260.7 secs

     total energy              =  -11682.10473394 Ry
     estimated scf accuracy    <       0.00000041 Ry

     iteration #190     ecut=    80.00 Ry     beta= 0.10
     Davidson diagonalization with overlap
     ethr =  2.20E-11,  avg # of iterations =  1.0

     negative rho (up, down):  5.922E-02 0.000E+00

     total cpu time spent up to now is    55547.1 secs

     total energy              =  -11682.10473394 Ry
     estimated scf accuracy    <       0.00000042 Ry

     iteration #191     ecut=    80.00 Ry     beta= 0.10
     Davidson diagonalization with overlap
     ethr =  2.20E-11,  avg # of iterations =  1.0

     negative rho (up, down):  5.922E-02 0.000E+00

     total cpu time spent up to now is    55833.3 secs

     total energy              =  -11682.10473394 Ry
     estimated scf accuracy    <       0.00000103 Ry

     iteration #192     ecut=    80.00 Ry     beta= 0.10
     Davidson diagonalization with overlap
     ethr =  2.20E-11,  avg # of iterations =  1.0

     negative rho (up, down):  5.922E-02 0.000E+00

     total cpu time spent up to now is    56120.3 secs

     total energy              =  -11682.10473394 Ry
     estimated scf accuracy    <       0.00000074 Ry

     iteration #193     ecut=    80.00 Ry     beta= 0.10
     Davidson diagonalization with overlap
     ethr =  2.20E-11,  avg # of iterations =  1.0

     negative rho (up, down):  5.922E-02 0.000E+00

     total cpu time spent up to now is    56407.6 secs

     total energy              =  -11682.10473392 Ry
     estimated scf accuracy    <       0.00000344 Ry

     iteration #194     ecut=    80.00 Ry     beta= 0.10
     Davidson diagonalization with overlap
     ethr =  2.20E-11,  avg # of iterations =  1.0

     negative rho (up, down):  5.922E-02 0.000E+00

     total cpu time spent up to now is    56694.6 secs

     total energy              =  -11682.10473393 Ry
     estimated scf accuracy    <       0.00000210 Ry

     iteration #195     ecut=    80.00 Ry     beta= 0.10
     Davidson diagonalization with overlap
     ethr =  2.20E-11,  avg # of iterations =  1.0

     negative rho (up, down):  5.922E-02 0.000E+00

     total cpu time spent up to now is    56982.0 secs

     total energy              =  -11682.10473394 Ry
     estimated scf accuracy    <       0.00000105 Ry

     iteration #196     ecut=    80.00 Ry     beta= 0.10
     Davidson diagonalization with overlap
     ethr =  2.20E-11,  avg # of iterations =  1.0

     negative rho (up, down):  5.922E-02 0.000E+00

     total cpu time spent up to now is    57268.5 secs

     total energy              =  -11682.10473395 Ry
     estimated scf accuracy    <       0.00000058 Ry

     iteration #197     ecut=    80.00 Ry     beta= 0.10
     Davidson diagonalization with overlap
     ethr =  2.20E-11,  avg # of iterations =  1.0

     negative rho (up, down):  5.922E-02 0.000E+00

     total cpu time spent up to now is    57555.5 secs

     total energy              =  -11682.10473395 Ry
     estimated scf accuracy    <       0.00000110 Ry

     iteration #198     ecut=    80.00 Ry     beta= 0.10
     Davidson diagonalization with overlap
     ethr =  2.20E-11,  avg # of iterations =  1.0

     negative rho (up, down):  5.922E-02 0.000E+00

     total cpu time spent up to now is    57842.4 secs

     total energy              =  -11682.10473395 Ry
     estimated scf accuracy    <       0.00000069 Ry

     iteration #199     ecut=    80.00 Ry     beta= 0.10
     Davidson diagonalization with overlap
     ethr =  2.20E-11,  avg # of iterations =  1.0

     negative rho (up, down):  5.922E-02 0.000E+00

     total cpu time spent up to now is    58135.4 secs

     total energy              =  -11682.10473395 Ry
     estimated scf accuracy    <       0.00000026 Ry

     iteration #200     ecut=    80.00 Ry     beta= 0.10
     Davidson diagonalization with overlap
     ethr =  1.40E-11,  avg # of iterations =  1.0

     negative rho (up, down):  5.922E-02 0.000E+00

     total cpu time spent up to now is    58422.4 secs

     total energy              =  -11682.10473396 Ry
     estimated scf accuracy    <       0.00000012 Ry

     iteration #201     ecut=    80.00 Ry     beta= 0.10
     Davidson diagonalization with overlap
     ethr =  6.56E-12,  avg # of iterations =  1.0

     negative rho (up, down):  5.922E-02 0.000E+00

     total cpu time spent up to now is    58709.0 secs

     total energy              =  -11682.10473396 Ry
     estimated scf accuracy    <       0.00000019 Ry

     iteration #202     ecut=    80.00 Ry     beta= 0.10
     Davidson diagonalization with overlap
     ethr =  6.56E-12,  avg # of iterations =  1.0

     negative rho (up, down):  5.922E-02 0.000E+00

     total cpu time spent up to now is    58995.4 secs

     total energy              =  -11682.10473396 Ry
     estimated scf accuracy    <       0.00000015 Ry

     iteration #203     ecut=    80.00 Ry     beta= 0.10
     Davidson diagonalization with overlap
     ethr =  6.56E-12,  avg # of iterations =  1.0

     negative rho (up, down):  5.922E-02 0.000E+00

     total cpu time spent up to now is    59284.2 secs

     total energy              =  -11682.10473395 Ry
     estimated scf accuracy    <       0.00000105 Ry

     iteration #204     ecut=    80.00 Ry     beta= 0.10
     Davidson diagonalization with overlap
     ethr =  6.56E-12,  avg # of iterations =  1.0

     negative rho (up, down):  5.922E-02 0.000E+00

     total cpu time spent up to now is    59571.0 secs

     total energy              =  -11682.10473395 Ry
     estimated scf accuracy    <       0.00000101 Ry

     iteration #205     ecut=    80.00 Ry     beta= 0.10
     Davidson diagonalization with overlap
     ethr =  6.56E-12,  avg # of iterations =  1.0

     negative rho (up, down):  5.922E-02 0.000E+00

     total cpu time spent up to now is    59858.5 secs

     total energy              =  -11682.10473395 Ry
     estimated scf accuracy    <       0.00000070 Ry

     iteration #206     ecut=    80.00 Ry     beta= 0.10
     Davidson diagonalization with overlap
     ethr =  6.56E-12,  avg # of iterations =  1.0

     negative rho (up, down):  5.922E-02 0.000E+00

     total cpu time spent up to now is    60145.9 secs

     total energy              =  -11682.10473396 Ry
     estimated scf accuracy    <       0.00000040 Ry

     iteration #207     ecut=    80.00 Ry     beta= 0.10
     Davidson diagonalization with overlap
     ethr =  6.56E-12,  avg # of iterations =  1.0

     negative rho (up, down):  5.922E-02 0.000E+00

     total cpu time spent up to now is    60432.8 secs

     total energy              =  -11682.10473396 Ry
     estimated scf accuracy    <       0.00000062 Ry

     iteration #208     ecut=    80.00 Ry     beta= 0.10
     Davidson diagonalization with overlap
     ethr =  6.56E-12,  avg # of iterations =  1.0

     negative rho (up, down):  5.922E-02 0.000E+00

     total cpu time spent up to now is    60719.6 secs

     total energy              =  -11682.10473395 Ry
     estimated scf accuracy    <       0.00000070 Ry

     iteration #209     ecut=    80.00 Ry     beta= 0.10
     Davidson diagonalization with overlap
     ethr =  6.56E-12,  avg # of iterations =  1.0

     negative rho (up, down):  5.922E-02 0.000E+00

     total cpu time spent up to now is    61006.5 secs

     total energy              =  -11682.10473396 Ry
     estimated scf accuracy    <       0.00000030 Ry

     iteration #210     ecut=    80.00 Ry     beta= 0.10
     Davidson diagonalization with overlap
     ethr =  6.56E-12,  avg # of iterations =  1.0

     negative rho (up, down):  5.922E-02 0.000E+00

     total cpu time spent up to now is    61292.9 secs

     total energy              =  -11682.10473396 Ry
     estimated scf accuracy    <       0.00000012 Ry

     iteration #211     ecut=    80.00 Ry     beta= 0.10
     Davidson diagonalization with overlap
     ethr =  6.50E-12,  avg # of iterations =  1.0

     negative rho (up, down):  5.922E-02 0.000E+00

     total cpu time spent up to now is    61579.7 secs

     total energy              =  -11682.10473396 Ry
     estimated scf accuracy    <       0.00000009 Ry

     iteration #212     ecut=    80.00 Ry     beta= 0.10
     Davidson diagonalization with overlap
     ethr =  4.74E-12,  avg # of iterations =  1.0

     negative rho (up, down):  5.922E-02 0.000E+00

     total cpu time spent up to now is    61866.7 secs

     total energy              =  -11682.10473396 Ry
     estimated scf accuracy    <       0.00000004 Ry

     iteration #213     ecut=    80.00 Ry     beta= 0.10
     Davidson diagonalization with overlap
     ethr =  2.28E-12,  avg # of iterations =  1.0

     negative rho (up, down):  5.922E-02 0.000E+00

     total cpu time spent up to now is    62154.1 secs

     total energy              =  -11682.10473396 Ry
     estimated scf accuracy    <       0.00000018 Ry

     iteration #214     ecut=    80.00 Ry     beta= 0.10
     Davidson diagonalization with overlap
     ethr =  2.28E-12,  avg # of iterations =  1.0

     negative rho (up, down):  5.922E-02 0.000E+00

     total cpu time spent up to now is    62441.0 secs

     total energy              =  -11682.10473396 Ry
     estimated scf accuracy    <       0.00000026 Ry

     iteration #215     ecut=    80.00 Ry     beta= 0.10
     Davidson diagonalization with overlap
     ethr =  2.28E-12,  avg # of iterations =  1.0

     negative rho (up, down):  5.922E-02 0.000E+00

     total cpu time spent up to now is    62727.9 secs

     total energy              =  -11682.10473396 Ry
     estimated scf accuracy    <       0.00000022 Ry

     iteration #216     ecut=    80.00 Ry     beta= 0.10
     Davidson diagonalization with overlap
     ethr =  2.28E-12,  avg # of iterations =  1.0

     negative rho (up, down):  5.922E-02 0.000E+00

     total cpu time spent up to now is    63015.3 secs

     total energy              =  -11682.10473396 Ry
     estimated scf accuracy    <       0.00000015 Ry

     iteration #217     ecut=    80.00 Ry     beta= 0.10
     Davidson diagonalization with overlap
     ethr =  2.28E-12,  avg # of iterations =  1.0

     negative rho (up, down):  5.922E-02 0.000E+00

     total cpu time spent up to now is    63302.5 secs

     total energy              =  -11682.10473396 Ry
     estimated scf accuracy    <       0.00000020 Ry

     iteration #218     ecut=    80.00 Ry     beta= 0.10
     Davidson diagonalization with overlap
     ethr =  2.28E-12,  avg # of iterations =  1.0

     negative rho (up, down):  5.922E-02 0.000E+00

     total cpu time spent up to now is    63589.0 secs

     total energy              =  -11682.10473396 Ry
     estimated scf accuracy    <       0.00000039 Ry

     iteration #219     ecut=    80.00 Ry     beta= 0.10
     Davidson diagonalization with overlap
     ethr =  2.28E-12,  avg # of iterations =  1.0

     negative rho (up, down):  5.922E-02 0.000E+00

     total cpu time spent up to now is    63875.6 secs

     total energy              =  -11682.10473396 Ry
     estimated scf accuracy    <       0.00000027 Ry

     iteration #220     ecut=    80.00 Ry     beta= 0.10
     Davidson diagonalization with overlap
     ethr =  2.28E-12,  avg # of iterations =  1.0

     negative rho (up, down):  5.922E-02 0.000E+00

     total cpu time spent up to now is    64162.5 secs

     total energy              =  -11682.10473396 Ry
     estimated scf accuracy    <       0.00000019 Ry

     iteration #221     ecut=    80.00 Ry     beta= 0.10
     Davidson diagonalization with overlap
     ethr =  2.28E-12,  avg # of iterations =  1.0

     negative rho (up, down):  5.922E-02 0.000E+00

     total cpu time spent up to now is    64451.9 secs

     total energy              =  -11682.10473396 Ry
     estimated scf accuracy    <       0.00000011 Ry

     iteration #222     ecut=    80.00 Ry     beta= 0.10
     Davidson diagonalization with overlap
     ethr =  2.28E-12,  avg # of iterations =  1.0

     negative rho (up, down):  5.922E-02 0.000E+00

     total cpu time spent up to now is    64738.6 secs

     total energy              =  -11682.10473396 Ry
     estimated scf accuracy    <       0.00000003 Ry

     iteration #223     ecut=    80.00 Ry     beta= 0.10
     Davidson diagonalization with overlap
     ethr =  1.46E-12,  avg # of iterations =  1.0

     negative rho (up, down):  5.922E-02 0.000E+00

     total cpu time spent up to now is    65025.5 secs

     total energy              =  -11682.10473396 Ry
     estimated scf accuracy    <       0.00000004 Ry

     iteration #224     ecut=    80.00 Ry     beta= 0.10
     Davidson diagonalization with overlap
     ethr =  1.46E-12,  avg # of iterations =  1.0

     negative rho (up, down):  5.922E-02 0.000E+00

     total cpu time spent up to now is    65312.3 secs

     total energy              =  -11682.10473396 Ry
     estimated scf accuracy    <       0.00000007 Ry

     iteration #225     ecut=    80.00 Ry     beta= 0.10
     Davidson diagonalization with overlap
     ethr =  1.46E-12,  avg # of iterations =  1.0

     negative rho (up, down):  5.922E-02 0.000E+00

     total cpu time spent up to now is    65599.2 secs

     total energy              =  -11682.10473396 Ry
     estimated scf accuracy    <       0.00000005 Ry

     iteration #226     ecut=    80.00 Ry     beta= 0.10
     Davidson diagonalization with overlap
     ethr =  1.46E-12,  avg # of iterations =  1.0

     negative rho (up, down):  5.922E-02 0.000E+00

     total cpu time spent up to now is    65886.0 secs

     total energy              =  -11682.10473396 Ry
     estimated scf accuracy    <       0.00000004 Ry

     iteration #227     ecut=    80.00 Ry     beta= 0.10
     Davidson diagonalization with overlap
     ethr =  1.46E-12,  avg # of iterations =  1.0

     negative rho (up, down):  5.922E-02 0.000E+00

     total cpu time spent up to now is    66174.0 secs

     total energy              =  -11682.10473396 Ry
     estimated scf accuracy    <       0.00000004 Ry

     iteration #228     ecut=    80.00 Ry     beta= 0.10
     Davidson diagonalization with overlap
     ethr =  1.46E-12,  avg # of iterations =  1.0

     negative rho (up, down):  5.922E-02 0.000E+00

     total cpu time spent up to now is    66461.1 secs

     total energy              =  -11682.10473396 Ry
     estimated scf accuracy    <       0.00000015 Ry

     iteration #229     ecut=    80.00 Ry     beta= 0.10
     Davidson diagonalization with overlap
     ethr =  1.46E-12,  avg # of iterations =  1.0

     negative rho (up, down):  5.922E-02 0.000E+00

     total cpu time spent up to now is    66748.2 secs

     total energy              =  -11682.10473395 Ry
     estimated scf accuracy    <       0.00000010 Ry

     iteration #230     ecut=    80.00 Ry     beta= 0.10
     Davidson diagonalization with overlap
     ethr =  1.46E-12,  avg # of iterations =  1.0

     negative rho (up, down):  5.922E-02 0.000E+00

     total cpu time spent up to now is    67034.2 secs

     total energy              =  -11682.10473395 Ry
     estimated scf accuracy    <       0.00000014 Ry

     iteration #231     ecut=    80.00 Ry     beta= 0.10
     Davidson diagonalization with overlap
     ethr =  1.46E-12,  avg # of iterations =  1.0

     negative rho (up, down):  5.922E-02 0.000E+00

     total cpu time spent up to now is    67321.6 secs

     total energy              =  -11682.10473396 Ry
     estimated scf accuracy    <       0.00000010 Ry

     iteration #232     ecut=    80.00 Ry     beta= 0.10
     Davidson diagonalization with overlap
     ethr =  1.46E-12,  avg # of iterations =  1.0

     negative rho (up, down):  5.922E-02 0.000E+00

     total cpu time spent up to now is    67608.3 secs

     total energy              =  -11682.10473395 Ry
     estimated scf accuracy    <       0.00000003 Ry

     iteration #233     ecut=    80.00 Ry     beta= 0.10
     Davidson diagonalization with overlap
     ethr =  1.46E-12,  avg # of iterations =  1.0

     negative rho (up, down):  5.922E-02 0.000E+00

     total cpu time spent up to now is    67896.1 secs

     total energy              =  -11682.10473396 Ry
     estimated scf accuracy    <       0.00000003 Ry

     iteration #234     ecut=    80.00 Ry     beta= 0.10
     Davidson diagonalization with overlap
     ethr =  1.46E-12,  avg # of iterations =  1.0

     negative rho (up, down):  5.922E-02 0.000E+00

     total cpu time spent up to now is    68183.3 secs

     total energy              =  -11682.10473396 Ry
     estimated scf accuracy    <       0.00000005 Ry

     iteration #235     ecut=    80.00 Ry     beta= 0.10
     Davidson diagonalization with overlap
     ethr =  1.46E-12,  avg # of iterations =  1.0

     negative rho (up, down):  5.922E-02 0.000E+00

     total cpu time spent up to now is    68469.3 secs

     total energy              =  -11682.10473395 Ry
     estimated scf accuracy    <       0.00000003 Ry

     iteration #236     ecut=    80.00 Ry     beta= 0.10
     Davidson diagonalization with overlap
     ethr =  1.46E-12,  avg # of iterations =  1.0

     negative rho (up, down):  5.922E-02 0.000E+00

     total cpu time spent up to now is    68756.3 secs

     total energy              =  -11682.10473396 Ry
     estimated scf accuracy    <       0.00000002 Ry

     iteration #237     ecut=    80.00 Ry     beta= 0.10
     Davidson diagonalization with overlap
     ethr =  1.07E-12,  avg # of iterations =  1.0

     negative rho (up, down):  5.922E-02 0.000E+00

     total cpu time spent up to now is    69042.8 secs

     total energy              =  -11682.10473395 Ry
     estimated scf accuracy    <       0.00000001 Ry

     iteration #238     ecut=    80.00 Ry     beta= 0.10
     Davidson diagonalization with overlap
     ethr =  6.24E-13,  avg # of iterations =  1.0

     negative rho (up, down):  5.922E-02 0.000E+00

     total cpu time spent up to now is    69329.8 secs

     total energy              =  -11682.10473395 Ry
     estimated scf accuracy    <       0.00000003 Ry

     iteration #239     ecut=    80.00 Ry     beta= 0.10
     Davidson diagonalization with overlap
     ethr =  6.24E-13,  avg # of iterations =  1.0

     negative rho (up, down):  5.922E-02 0.000E+00

     total cpu time spent up to now is    69616.4 secs

     total energy              =  -11682.10473395 Ry
     estimated scf accuracy    <       0.00000002 Ry

     iteration #240     ecut=    80.00 Ry     beta= 0.10
     Davidson diagonalization with overlap
     ethr =  6.24E-13,  avg # of iterations =  1.0

     negative rho (up, down):  5.922E-02 0.000E+00

     total cpu time spent up to now is    69902.9 secs

     total energy              =  -11682.10473395 Ry
     estimated scf accuracy    <       0.00000004 Ry

     iteration #241     ecut=    80.00 Ry     beta= 0.10
     Davidson diagonalization with overlap
     ethr =  6.24E-13,  avg # of iterations =  1.0

     negative rho (up, down):  5.922E-02 0.000E+00

     total cpu time spent up to now is    70189.8 secs

     total energy              =  -11682.10473395 Ry
     estimated scf accuracy    <       0.00000005 Ry

     iteration #242     ecut=    80.00 Ry     beta= 0.10
     Davidson diagonalization with overlap
     ethr =  6.24E-13,  avg # of iterations =  1.0

     negative rho (up, down):  5.922E-02 0.000E+00

     total cpu time spent up to now is    70478.2 secs

     total energy              =  -11682.10473395 Ry
     estimated scf accuracy    <       0.00000003 Ry

     iteration #243     ecut=    80.00 Ry     beta= 0.10
     Davidson diagonalization with overlap
     ethr =  6.24E-13,  avg # of iterations =  1.0

     negative rho (up, down):  5.922E-02 0.000E+00

     total cpu time spent up to now is    70765.1 secs

     total energy              =  -11682.10473395 Ry
     estimated scf accuracy    <       0.00000003 Ry

     iteration #244     ecut=    80.00 Ry     beta= 0.10
     Davidson diagonalization with overlap
     ethr =  6.24E-13,  avg # of iterations =  1.0

     negative rho (up, down):  5.922E-02 0.000E+00

     total cpu time spent up to now is    71052.1 secs

     total energy              =  -11682.10473395 Ry
     estimated scf accuracy    <       0.00000005 Ry

     iteration #245     ecut=    80.00 Ry     beta= 0.10
     Davidson diagonalization with overlap
     ethr =  6.24E-13,  avg # of iterations =  1.0

     negative rho (up, down):  5.922E-02 0.000E+00

     total cpu time spent up to now is    71339.1 secs

     total energy              =  -11682.10473395 Ry
     estimated scf accuracy    <       0.00000003 Ry

     iteration #246     ecut=    80.00 Ry     beta= 0.10
     Davidson diagonalization with overlap
     ethr =  6.24E-13,  avg # of iterations =  1.0

     negative rho (up, down):  5.922E-02 0.000E+00

     total cpu time spent up to now is    71625.8 secs

     total energy              =  -11682.10473395 Ry
     estimated scf accuracy    <       0.00000002 Ry

     iteration #247     ecut=    80.00 Ry     beta= 0.10
     Davidson diagonalization with overlap
     ethr =  6.24E-13,  avg # of iterations =  1.0

     negative rho (up, down):  5.923E-02 0.000E+00

     total cpu time spent up to now is    71913.8 secs

     End of self-consistent calculation

          k = 0.0000 0.0000 0.0000 (****** PWs)   bands (ev):

   -58.1362 -56.3541 -56.0121 -55.9844 -55.7591 -55.7432 -55.1811 -55.1342
   -54.9104 -54.6552 -54.0167 -30.0628 -30.0456 -30.0076 -28.3049 -28.2622
   -28.2209 -27.9454 -27.9378 -27.9210 -27.9025 -27.8979 -27.8795 -27.7109
   -27.6921 -27.6646 -27.6451 -27.6272 -27.6166 -27.2826 -27.1518 -27.0918
   -27.0868 -27.0571 -27.0263 -27.0059 -26.9030 -26.8513 -26.8108 -26.6316
   -26.5928 -26.5377 -26.4060 -26.2790 -26.0233 -25.9674 -25.9395 -25.9216
   -25.9195 -25.9087 -25.7726 -25.7296 -25.7103 -25.7032 -25.6047 -25.5181
   -25.4491 -25.3882 -25.3394 -25.2822 -25.2615 -25.2074 -25.1831 -25.1658
   -25.1532 -25.1464 -25.0975 -25.0578 -25.0491 -25.0372 -25.0023 -25.0013
   -24.9511 -24.9373 -24.9089 -24.8855 -24.8593 -24.8203 -24.7961 -24.7782
   -24.7604 -24.7567 -24.7230 -24.7018 -24.6868 -24.6625 -24.6392 -24.6057
   -24.5922 -24.5572 -24.5534 -24.5290 -24.5151 -24.4885 -24.4775 -24.4558
   -24.4428 -24.4164 -24.4096 -24.3959 -24.3682 -24.3621 -24.3356 -24.3246
   -24.3028 -24.2767 -24.2565 -24.2484 -24.2322 -24.2128 -24.1987 -24.1722
   -24.1409 -24.1266 -24.1139 -24.0923 -24.0761 -24.0497 -24.0207 -24.0174
   -23.9638 -23.9429 -23.9396 -23.9236 -23.9069 -23.8914 -23.8822 -23.8696
   -23.8551 -23.8495 -23.8426 -23.8348 -23.8266 -23.8164 -23.7868 -23.7729
   -23.7588 -23.7523 -23.7394 -23.7126 -23.7074 -23.6938 -23.6750 -23.6654
   -23.6540 -23.6417 -23.6246 -23.5929 -23.5669 -23.5568 -23.5397 -23.5375
   -23.5099 -23.4958 -23.4918 -23.4588 -23.4521 -23.4419 -23.4298 -23.4112
   -23.4008 -23.3708 -23.3631 -23.3454 -23.3358 -23.3065 -23.2975 -23.2759
   -23.2753 -23.2510 -23.2393 -23.2313 -23.2125 -23.2030 -23.2019 -23.1865
   -23.1691 -23.1607 -23.1459 -23.1085 -23.0806 -23.0607 -23.0561 -23.0402
   -23.0324 -23.0097 -22.9964 -22.9836 -22.9782 -22.9508 -22.9432 -22.9253
   -22.9176 -22.8996 -22.8634 -22.8571 -22.8534 -22.8473 -22.8165 -22.8111
   -22.7902 -22.7131 -22.6800 -22.6692 -22.6261 -22.6028 -22.5543 -22.5452
   -22.5395 -22.5353 -22.5314 -22.4763 -22.4150 -22.3947 -22.3886 -22.3690
   -22.3582 -22.3230 -22.2626 -22.1798 -22.1351 -22.1265 -22.0842 -21.9877
   -21.8003 -21.7307 -21.7265 -21.7050 -21.6565 -21.6034 -21.5812 -21.5437
   -21.4810 -21.4571 -20.7919 -20.7465 -20.7133 -20.7041 -20.7024 -20.6757
   -20.6733 -20.6212 -20.6175 -20.5119 -20.5118 -20.3142 -20.2309 -20.2234
   -20.1636 -19.9786 -19.8851 -19.8828 -19.8807 -19.8682 -19.8635 -19.8626
   -19.8591 -19.8328 -19.8247 -19.8171 -19.7529 -19.0483 -18.6734 -17.8245
   -17.0726 -16.2724 -15.4995 -15.3602 -15.2983 -15.2270 -15.1185 -15.0386
   -15.0034 -14.9348 -14.8997 -14.8561 -14.8065 -14.7389 -14.7303 -14.6801
   -14.6549 -14.5687 -14.4906 -14.4342 -14.3602 -14.3312 -14.2783 -14.2478
   -14.1792 -14.1625 -14.1557 -14.1066 -14.0692 -14.0528 -14.0273 -13.9639
   -13.9442 -13.8992 -13.8933 -13.8370 -13.8085 -13.7539 -13.6855 -13.6716
   -13.6440 -13.5943 -13.5894 -13.5710 -13.5224 -13.4711 -13.4467 -13.4357
   -13.3911 -13.3668 -13.3604 -13.3014 -13.2785 -13.2375 -13.2299 -13.2010
   -13.1574 -13.1403 -13.1114 -13.0760 -13.0546 -13.0329 -12.9984 -12.9753
   -12.9505 -12.9224 -12.8835 -12.8729 -12.8168 -12.7977 -12.7759 -12.6985
   -12.6876 -12.6676 -12.6311 -12.5900 -12.5630 -12.5234 -12.5089 -12.4756
   -12.4659 -12.4478 -12.4386 -12.3776 -12.3595 -12.3147 -12.2948 -12.2745
   -12.2335 -12.1899 -12.1704 -12.1479 -12.1263 -12.0966 -12.0647 -12.0360
   -12.0146 -12.0013 -11.9754 -11.9567 -11.9330 -11.8976 -11.8898 -11.8544
   -11.8502 -11.8411 -11.7946 -11.7831 -11.7505 -11.7462 -11.7307 -11.7153
   -11.6932 -11.6842 -11.6660 -11.6432 -11.6299 -11.6123 -11.6083 -11.5920
   -11.5724 -11.5612 -11.5335 -11.5229 -11.5191 -11.4806 -11.4592 -11.4433
   -11.4222 -11.4134 -11.3969 -11.3635 -11.3448 -11.3238 -11.3208 -11.3139
   -11.2915 -11.2871 -11.2681 -11.2468 -11.2322 -11.2177 -11.2141 -11.1887
   -11.1392 -11.1352 -11.1101 -11.0985 -11.0755 -11.0491 -11.0422 -11.0292
   -11.0287 -11.0244 -11.0040 -10.9999 -10.9781 -10.9710 -10.9595 -10.9283
   -10.9259 -10.8882 -10.8674 -10.8575 -10.8411 -10.8379 -10.8097 -10.8013
   -10.7627 -10.7412 -10.7309 -10.7118 -10.6957 -10.6875 -10.6667 -10.6380
   -10.6230 -10.6097 -10.5787 -10.5385 -10.5271 -10.4813 -10.4591 -10.4443
   -10.4305 -10.3817 -10.3600 -10.3547 -10.3299 -10.3122 -10.2590 -10.2237
   -10.2206 -10.1958 -10.1787 -10.1385 -10.1179 -10.0600 -10.0461 -10.0232
   -10.0085  -9.9836  -9.9624  -9.9472  -9.9333  -9.9118  -9.8871  -9.8698
    -9.8155  -9.7964  -9.7396  -9.7351  -9.7173  -9.6868  -9.6775  -9.6610
    -9.6439  -9.6325  -9.6139  -9.6049  -9.5680  -9.5466  -9.5212  -9.5124
    -9.5082  -9.4867  -9.4837  -9.4740  -9.4730  -9.4600  -9.4518  -9.4387
    -9.3956  -9.3796  -9.3719  -9.3383  -9.3269  -9.3186  -9.2957  -9.2898
    -9.2703  -9.2565  -9.2266  -9.2074  -9.1912  -9.1672  -9.1643  -9.1248
    -9.1170  -9.0911  -9.0611  -9.0584  -9.0300  -9.0136  -9.0052  -8.9966
    -8.9869  -8.9719  -8.9537  -8.9319  -8.9202  -8.9113  -8.8866  -8.8838
    -8.8715  -8.8576  -8.8486  -8.8336  -8.8137  -8.8090  -8.8041  -8.7911
    -8.7875  -8.7707  -8.7419  -8.7353  -8.7245  -8.7199  -8.7190  -8.7169
    -8.7003  -8.6885  -8.6817  -8.6625  -8.6592  -8.6488  -8.6384  -8.6220
    -8.6119  -8.6057  -8.5920  -8.5809  -8.5660  -8.5440  -8.5395  -8.5341
    -8.5220  -8.5152  -8.5094  -8.4952  -8.4818  -8.4760  -8.4604  -8.4525
    -8.4458  -8.4338  -8.4177  -8.4153  -8.4117  -8.3972  -8.3852  -8.3708
    -8.3645  -8.3521  -8.3420  -8.3256  -8.3203  -8.3121  -8.2946  -8.2900
    -8.2888  -8.2771  -8.2573  -8.2389  -8.2316  -8.2200  -8.2125  -8.1976
    -8.1864  -8.1839  -8.1769  -8.1683  -8.1672  -8.1539  -8.1450  -8.1368
    -8.1292  -8.1076  -8.0983  -8.0922  -8.0884  -8.0655  -8.0608  -8.0570
    -8.0340  -8.0302  -8.0175  -8.0067  -7.9996  -7.9877  -7.9834  -7.9714
    -7.9704  -7.9549  -7.9491  -7.9402  -7.9263  -7.9221  -7.9118  -7.8982
    -7.8947  -7.8882  -7.8820  -7.8665  -7.8646  -7.8509  -7.8425  -7.8286
    -7.8217  -7.8210  -7.8018  -7.7948  -7.7895  -7.7750  -7.7704  -7.7622
    -7.7472  -7.7449  -7.7332  -7.7223  -7.7204  -7.7021  -7.6996  -7.6865
    -7.6843  -7.6611  -7.6538  -7.6494  -7.6419  -7.6306  -7.6165  -7.6149
    -7.5990  -7.5945  -7.5893  -7.5739  -7.5672  -7.5623  -7.5557  -7.5492
    -7.5336  -7.5265  -7.5206  -7.5121  -7.5064  -7.4766  -7.4627  -7.4480
    -7.4413  -7.4390  -7.4343  -7.4232  -7.4107  -7.4041  -7.3955  -7.3802
    -7.3727  -7.3595  -7.3520  -7.3361  -7.3330  -7.3309  -7.3222  -7.3116
    -7.3012  -7.2885  -7.2785  -7.2680  -7.2614  -7.2427  -7.2328  -7.2247
    -7.2123  -7.2085  -7.1968  -7.1873  -7.1762  -7.1691  -7.1567  -7.1530
    -7.1424  -7.1378  -7.1298  -7.1140  -7.1062  -7.1010  -7.0855  -7.0719
    -7.0548  -7.0467  -7.0360  -7.0235  -7.0126  -7.0024  -6.9932  -6.9896
    -6.9778  -6.9746  -6.9570  -6.9394  -6.9322  -6.9253  -6.9140  -6.9035
    -6.8921  -6.8832  -6.8717  -6.8651  -6.8540  -6.8445  -6.8349  -6.8296
    -6.8224  -6.8082  -6.8006  -6.7858  -6.7750  -6.7702  -6.7663  -6.7559
    -6.7461  -6.7387  -6.7382  -6.7318  -6.7034  -6.7018  -6.6812  -6.6628
    -6.6549  -6.6418  -6.6409  -6.6345  -6.6292  -6.6179  -6.6168  -6.6018
    -6.5973  -6.5842  -6.5805  -6.5689  -6.5550  -6.5503  -6.5368  -6.5281
    -6.5223  -6.5052  -6.4990  -6.4955  -6.4773  -6.4686  -6.4544  -6.4462
    -6.4311  -6.4283  -6.4147  -6.4022  -6.3953  -6.3874  -6.3727  -6.3681
    -6.3605  -6.3421  -6.3293  -6.3255  -6.3145  -6.2932  -6.2905  -6.2563
    -6.2456  -6.2318  -6.2250  -6.2110  -6.2056  -6.1847  -6.1813  -6.1597
    -6.1418  -6.1361  -6.1216  -6.1050  -6.0992  -6.0885  -6.0854  -6.0734
    -6.0660  -6.0561  -6.0345  -6.0275  -6.0160  -5.9959  -5.9931  -5.9872
    -5.9769  -5.9594  -5.9459  -5.9304  -5.9245  -5.9161  -5.8954  -5.8794
    -5.8733  -5.8691  -5.8652  -5.8501  -5.8352  -5.8317  -5.8250  -5.8013
    -5.7973  -5.7782  -5.7704  -5.7569  -5.7491  -5.7348  -5.7224  -5.7153
    -5.6943  -5.6665  -5.6456  -5.6287  -5.6144  -5.6039  -5.5954  -5.5861
    -5.5617  -5.5495  -5.5374  -5.5257  -5.4920  -5.4886  -5.4839  -5.4820
    -5.4733  -5.4631  -5.4234  -5.4156  -5.3990  -5.3755  -5.3742  -5.3651
    -5.3203  -5.3033  -5.2864  -5.2598  -5.2131  -5.2085  -5.2023  -5.1788
    -5.1531  -5.1191  -5.0162  -5.0016  -4.9880  -4.9819  -4.9759  -4.9636
    -4.9173  -4.9104  -4.8717  -4.8628  -4.8333  -4.8130  -4.7587  -4.7539
    -4.7355  -4.6571  -4.6286  -4.6076  -4.6043  -4.5949  -4.5891  -4.5766
    -4.4940  -4.4010  -4.3551  -4.3540  -4.2964  -4.2601  -4.1933  -4.1885
    -4.1810  -4.1710  -4.1582  -4.1246  -4.1046  -4.0849  -4.0692  -4.0603
    -4.0509  -4.0463  -4.0339  -4.0004  -3.9972  -3.9913  -3.9870  -3.9824
    -3.9759  -3.9669  -3.9617  -3.9533  -3.9494  -3.9460  -3.9383  -3.9353
    -3.9315  -3.9267  -3.9116  -3.8969  -3.8921  -3.8840  -3.8743  -3.8702
    -3.8611  -3.8609  -3.8268  -3.8177  -3.7990  -3.7810  -3.7801  -3.7674
    -3.6848  -3.6016  -3.5369  -3.4892  -3.4694  -3.4306  -3.3300  -3.2588
    -2.8767  -2.7778  -2.3785  -2.1479  -1.7250  -0.7925  -0.7699  -0.6284
    -0.5729  -0.5548  -0.4226  -0.3932  -0.3159  -0.2609  -0.1796  -0.1580
    -0.1076  -0.0007   0.1005   0.1652   0.2420   0.3162   0.3807   0.4755
     0.5296   0.5629   0.5884   0.6206   0.6736   0.7300   0.7823   0.7902
     0.8296   0.8722   0.9083   0.9391   0.9777   0.9914   0.9993   1.0589
     1.0652   1.0938   1.1349   1.1477   1.1971   1.2135   1.2236   1.2441
     1.2731   1.2881   1.3068   1.3340   1.3469   1.3582   1.3712   1.3923
     1.4162   1.4714   1.4743   1.5008   1.5280   1.5470   1.5787   1.5923
     1.6033   1.6283   1.6409   1.6522   1.6746   1.6862   1.7164   1.7280
     1.7529   1.7680   1.7802   1.8065   1.8181   1.8371   1.8649   1.8824
     1.8888   1.9050   1.9185   1.9412   1.9630   1.9742   1.9826   2.0143
     2.0216   2.0296   2.0372   2.0510   2.0608   2.0644   2.0682   2.0820
     2.0897   2.1238   2.1349   2.1561   2.1673   2.1707   2.1867   2.1910
     2.2091   2.2176   2.2251   2.2318   2.2613   2.2746   2.2886   2.3176
     2.3269   2.3347   2.3499   2.3703   2.3792   2.3914   2.4043   2.4093
     2.4174   2.4303   2.4391   2.4479   2.4647   2.4741   2.4793   2.4908
     2.4987   2.5104   2.5168   2.5200   2.5437   2.5565   2.5672   2.5730
     2.5792   2.5930   2.6049   2.6133   2.6168   2.6179   2.6262   2.6403
     2.6457   2.6511   2.6548   2.6664   2.6809   2.6883   2.6959   2.7051
     2.7113   2.7251   2.7390   2.7430   2.7535   2.7661   2.7677   2.7710
     2.7784   2.8045   2.8135   2.8180   2.8290   2.8325   2.8406   2.8492
     2.8597   2.8627   2.8784

     the Fermi energy is    -3.8354 ev

!    total energy              =  -11682.10473394 Ry
     estimated scf accuracy    <          8.4E-09 Ry
     smearing contrib. (-TS)   =      -0.11095703 Ry
     internal energy E=F+TS    =  -11681.99377691 Ry

     The total energy is F=E-TS. E is the sum of the following terms:
     one-electron contribution = -363029.20670991 Ry
     hartree contribution      =  181967.37092804 Ry
     xc contribution           =   -2470.89610829 Ry
     ewald contribution        =  174210.44306413 Ry
     one-center paw contrib.   =   -2359.70495088 Ry

     convergence has been achieved in 247 iterations

     negative rho (up, down):  5.923E-02 0.000E+00

     Forces acting on atoms (cartesian axes, Ry/au):

     atom    1 type  1   force =     0.01199451    0.01350984    0.05505542
     atom    2 type  1   force =     0.02830105    0.02473658   -0.00012723
     atom    3 type  1   force =     0.00760216    0.00108153   -0.00348251
     atom    4 type  1   force =    -0.01246042   -0.01522919   -0.01031267
     atom    5 type  1   force =     0.01479441   -0.02244405   -0.02704772
     atom    6 type  1   force =     0.00349576   -0.00149363    0.00474814
     atom    7 type  1   force =    -0.00851194    0.01188778    0.01211106
     atom    8 type  1   force =    -0.01215243   -0.03111134    0.00343883
     atom    9 type  1   force =    -0.00149543    0.00641343    0.01348682
     atom   10 type  1   force =     0.01822953   -0.00180737    0.01768294
     atom   11 type  1   force =    -0.01120435   -0.00523303   -0.01232024
     atom   12 type  2   force =     0.00696802    0.12282742   -0.04037287
     atom   13 type  2   force =     0.13682075    0.10058487   -0.00111925
     atom   14 type  2   force =     0.08062202    0.03194753   -0.06289837
     atom   15 type  2   force =     0.14699307   -0.03951472   -0.15272573
     atom   16 type  2   force =     0.02148653    0.03840758    0.04013168
     atom   17 type  2   force =     0.15428110    0.01506078    0.25444637
     atom   18 type  2   force =    -0.01247535   -0.04664572   -0.04945869
     atom   19 type  2   force =    -0.01070580    0.03864588   -0.10068774
     atom   20 type  2   force =    -0.02586068   -0.01329522   -0.04179143
     atom   21 type  2   force =    -0.05465515    0.13496442   -0.03938767
     atom   22 type  2   force =     0.03561880   -0.13297298    0.09243665
     atom   23 type  2   force =    -0.03934059   -0.06824709   -0.05871192
     atom   24 type  2   force =     0.03247567    0.02647360    0.01012864
     atom   25 type  2   force =     0.06550116    0.00678880    0.07209322
     atom   26 type  2   force =    -0.01642705   -0.00955472   -0.01105342
     atom   27 type  2   force =     0.04181661    0.11796646   -0.07345673
     atom   28 type  2   force =    -0.00193856   -0.05840289   -0.01137185
     atom   29 type  2   force =    -0.03140619   -0.05047612    0.08153342
     atom   30 type  2   force =     0.03232933   -0.03167490   -0.03952658
     atom   31 type  2   force =     0.03575427    0.02200792    0.00225110
     atom   32 type  2   force =    -0.00990982   -0.06580572    0.08801651
     atom   33 type  2   force =    -0.05573427    0.01800895   -0.05539552
     atom   34 type  2   force =     0.06104934   -0.02693422   -0.02229668
     atom   35 type  3   force =    -0.01331422   -0.07802287    0.00316665
     atom   36 type  3   force =    -0.16441835    0.08797663   -0.04858761
     atom   37 type  3   force =    -0.06763651    0.03586759   -0.01400908
     atom   38 type  3   force =    -0.05433149   -0.00011295   -0.00933041
     atom   39 type  3   force =     0.07404867    0.00716276    0.01036951
     atom   40 type  3   force =     0.08667325    0.02283461   -0.04332496
     atom   41 type  3   force =    -0.10899177   -0.09030470   -0.13255258
     atom   42 type  3   force =     0.01191162   -0.06045312    0.06467365
     atom   43 type  3   force =     0.01844584   -0.02228459   -0.04845838
     atom   44 type  3   force =     0.06109087    0.10575184    0.04122444
     atom   45 type  3   force =    -0.03238968   -0.00091164   -0.03153644
     atom   46 type  3   force =    -0.03633570    0.12448124    0.05981614
     atom   47 type  3   force =    -0.05594902    0.00756848   -0.14730018
     atom   48 type  3   force =    -0.02875701   -0.12204869   -0.13758147
     atom   49 type  3   force =     0.06189063    0.18235758    0.05228192
     atom   50 type  3   force =     0.04377102   -0.02206370   -0.09767851
     atom   51 type  3   force =    -0.01916254    0.04788172    0.07062296
     atom   52 type  3   force =    -0.12115093   -0.10574993    0.11945459
     atom   53 type  3   force =    -0.12317115   -0.10992664   -0.05465638
     atom   54 type  3   force =    -0.03653386   -0.02308094    0.10033800
     atom   55 type  3   force =    -0.14987924    0.03088823    0.03097877
     atom   56 type  3   force =    -0.02262720    0.01122802    0.12158220
     atom   57 type  3   force =     0.00706169   -0.09506425   -0.04893703
     atom   58 type  3   force =     0.06101021   -0.00843961    0.04777865
     atom   59 type  3   force =    -0.03557445   -0.01076542    0.03897982
     atom   60 type  3   force =     0.07904127   -0.07455148   -0.00355354
     atom   61 type  3   force =     0.01542827    0.19123051    0.03558019
     atom   62 type  3   force =    -0.01925676   -0.01656143   -0.00614931
     atom   63 type  3   force =     0.01625664    0.01189848   -0.00637107
     atom   64 type  3   force =     0.00300550    0.05905531    0.08278937
     atom   65 type  3   force =    -0.00796227    0.02317585    0.02023193
     atom   66 type  3   force =    -0.01590059    0.00338810   -0.01872702
     atom   67 type  3   force =     0.03145895    0.00056531    0.10200405
     atom   68 type  3   force =    -0.06483532   -0.03465852    0.07981902
     atom   69 type  3   force =     0.04496351    0.03724151    0.03187132
     atom   70 type  3   force =    -0.05034214   -0.06710528   -0.05576723
     atom   71 type  3   force =     0.04846998   -0.03741896    0.05250450
     atom   72 type  3   force =     0.01423654    0.11139532    0.19923700
     atom   73 type  3   force =    -0.07868967    0.05105261   -0.07639599
     atom   74 type  3   force =     0.00533545   -0.06456011   -0.04794925
     atom   75 type  3   force =    -0.06311856    0.00863555   -0.00229444
     atom   76 type  3   force =     0.04453004   -0.10614421   -0.06057202
     atom   77 type  3   force =    -0.03078991    0.07739830    0.03347067
     atom   78 type  3   force =    -0.09862846   -0.02063495   -0.06888545
     atom   79 type  3   force =    -0.00397931   -0.04280500    0.03498217
     atom   80 type  3   force =    -0.03157382    0.03985066   -0.00619137
     atom   81 type  3   force =     0.03051847    0.01865034   -0.03974280
     atom   82 type  3   force =    -0.04202166    0.01741998   -0.05422615
     atom   83 type  3   force =    -0.05123556    0.09451346    0.02438035
     atom   84 type  3   force =    -0.02490410    0.04022992   -0.04042416
     atom   85 type  3   force =    -0.01127055   -0.09864607    0.07704199
     atom   86 type  3   force =    -0.02853638   -0.07921270   -0.10455538
     atom   87 type  3   force =     0.02216323   -0.00716408   -0.06809488
     atom   88 type  3   force =    -0.00062849    0.05375416   -0.11882326
     atom   89 type  3   force =    -0.04867077   -0.02053011    0.06482108
     atom   90 type  3   force =     0.05368509   -0.04774203   -0.04652315
     atom   91 type  3   force =     0.06646277    0.04065679   -0.01538707
     atom   92 type  3   force =    -0.00909022   -0.00582161   -0.02088858
     atom   93 type  3   force =    -0.08709359   -0.10490687   -0.00534506
     atom   94 type  3   force =     0.07176383    0.08987325    0.05022329
     atom   95 type  3   force =    -0.01086082   -0.01076574   -0.06892317
     atom   96 type  3   force =    -0.09370326   -0.01180546    0.15325962
     atom   97 type  3   force =    -0.02818432   -0.04657594   -0.00174961
     atom   98 type  3   force =     0.10435388    0.01082645    0.09550158
     atom   99 type  3   force =    -0.05541292   -0.00677568    0.03651191
     atom  100 type  3   force =     0.02258777   -0.07807773    0.07966289
     atom  101 type  3   force =    -0.06015529    0.02731600   -0.01091043
     atom  102 type  3   force =     0.03021043    0.01708947    0.03127952
     atom  103 type  3   force =     0.04697390    0.03112779    0.09744807
     atom  104 type  3   force =    -0.08244415   -0.07741732   -0.00517038
     atom  105 type  3   force =     0.02909320    0.05417410   -0.00658544
     atom  106 type  3   force =     0.03826524    0.11426592   -0.01547136
     atom  107 type  3   force =    -0.02836630   -0.00301425    0.02821907
     atom  108 type  3   force =     0.04675695   -0.01019138    0.04573981
     atom  109 type  3   force =     0.10908042    0.02060091   -0.03995534
     atom  110 type  3   force =     0.13934544    0.00801624   -0.06093221
     atom  111 type  3   force =    -0.02035281   -0.01790226    0.01776069
     atom  112 type  3   force =    -0.06696720    0.09518748   -0.01068304
     atom  113 type  3   force =     0.02128547   -0.01983155   -0.05616631
     atom  114 type  3   force =    -0.03897450    0.02175195    0.08107724
     atom  115 type  3   force =     0.01333966   -0.02841301    0.07657951
     atom  116 type  3   force =     0.08473821    0.00791345   -0.04835255
     atom  117 type  3   force =    -0.06882156    0.00330339    0.03777365
     atom  118 type  3   force =    -0.11816299    0.11162987    0.02568335
     atom  119 type  3   force =     0.07046312   -0.00672962    0.03244673
     atom  120 type  3   force =     0.00918372    0.02808173    0.10531148
     atom  121 type  3   force =     0.12993217    0.07611179    0.01647883
     atom  122 type  4   force =     0.03930547    0.01292068    0.02858705
     atom  123 type  4   force =    -0.06150375   -0.04008666   -0.00948917
     atom  124 type  4   force =     0.00360799    0.02432330   -0.04631209
     atom  125 type  4   force =     0.01813072   -0.00578561   -0.00429877
     atom  126 type  4   force =    -0.13135952   -0.14924217   -0.01140074
     atom  127 type  4   force =    -0.09950733   -0.12885868   -0.07374047
     atom  128 type  4   force =     0.01054762   -0.04946169    0.05951843
     atom  129 type  4   force =     0.00881138   -0.06146719   -0.01154484
     atom  130 type  4   force =     0.00890036   -0.02172614    0.00935203
     atom  131 type  4   force =     0.00672883   -0.01824561   -0.01304319
     atom  132 type  4   force =     0.04931836   -0.03836497   -0.01677454
     atom  133 type  4   force =    -0.03659095   -0.05918470    0.03629823
     atom  134 type  4   force =    -0.09349512    0.00757432   -0.04010536
     atom  135 type  4   force =     0.02241096   -0.02688311    0.12453051
     atom  136 type  4   force =     0.01794393   -0.01015371   -0.01839509
     atom  137 type  4   force =     0.05384025    0.04126759   -0.03420733
     atom  138 type  4   force =     0.01576712    0.00198558   -0.01532221
     atom  139 type  4   force =    -0.00674797    0.02803284   -0.02078101
     atom  140 type  4   force =     0.02154304   -0.06866674    0.02200594
     atom  141 type  4   force =     0.05844555   -0.01197996    0.00212241
     atom  142 type  4   force =    -0.10497110   -0.05310183    0.04674429
     atom  143 type  4   force =    -0.15045270   -0.03714580   -0.09755038
     atom  144 type  4   force =    -0.00562874   -0.01755284    0.02992520
     atom  145 type  4   force =    -0.04010363    0.03667396    0.01599949
     atom  146 type  4   force =    -0.02192714    0.01688517   -0.02251341
     atom  147 type  4   force =    -0.13172036   -0.04974915    0.03207172
     atom  148 type  4   force =     0.01368669   -0.02071743   -0.01296804
     atom  149 type  4   force =     0.06869566    0.03542917    0.01729010
     atom  150 type  4   force =    -0.06351653   -0.05299126   -0.02002709
     atom  151 type  4   force =     0.05092508    0.03694813    0.02447075
     atom  152 type  4   force =    -0.05808153    0.02464191    0.01510310
     atom  153 type  4   force =     0.07627989    0.01869467    0.07641354
     atom  154 type  4   force =    -0.09645997    0.00591189    0.00664935
     atom  155 type  4   force =    -0.01246005   -0.01451698   -0.00924015
     atom  156 type  4   force =    -0.05024306    0.04124098   -0.02248923
     atom  157 type  4   force =     0.04245008   -0.01055847   -0.00374152
     atom  158 type  4   force =     0.01334906    0.01209251   -0.02431253
     atom  159 type  4   force =     0.06700886    0.00747908   -0.05884741
     atom  160 type  4   force =     0.03930195   -0.08922694    0.01382816
     atom  161 type  4   force =     0.00299914   -0.02877519    0.07140795
     atom  162 type  4   force =     0.05271334    0.09511411    0.01491980
     atom  163 type  4   force =    -0.01543704    0.05817376   -0.01561541
     atom  164 type  4   force =     0.02452134    0.02904165    0.06696775
     atom  165 type  4   force =    -0.07481927    0.00937939    0.04935582
     atom  166 type  4   force =    -0.00155706   -0.10197115    0.00500676
     atom  167 type  4   force =    -0.03916891   -0.04007879   -0.01522048
     atom  168 type  4   force =     0.01689882   -0.18431560    0.05839940
     atom  169 type  4   force =     0.05232252    0.04495586   -0.09520261
     atom  170 type  4   force =     0.02789234   -0.04777343   -0.03584079
     atom  171 type  4   force =     0.01258231   -0.01692238    0.00344332
     atom  172 type  4   force =    -0.07005186    0.01229313   -0.04396108
     atom  173 type  4   force =    -0.03891721    0.00704293   -0.02548333
     atom  174 type  4   force =     0.05690010    0.08616909    0.01851741
     atom  175 type  4   force =     0.01310852    0.04180021    0.00303800
     atom  176 type  4   force =     0.03803535   -0.00538045    0.02573960
     atom  177 type  4   force =     0.06433120   -0.00471473   -0.00858548
     atom  178 type  4   force =    -0.00357044    0.03678533    0.04533044
     atom  179 type  4   force =    -0.01188300    0.02841721    0.00297460
     atom  180 type  4   force =    -0.05734703    0.00564305   -0.00722385
     atom  181 type  4   force =    -0.00000050   -0.00052870    0.09592364
     atom  182 type  4   force =    -0.02452792   -0.06135627    0.05014393
     atom  183 type  4   force =    -0.03308985    0.10669190   -0.05860121
     atom  184 type  4   force =     0.01826838   -0.01126993    0.05175668
     atom  185 type  4   force =     0.04934257   -0.03493662   -0.01726811
     atom  186 type  4   force =    -0.01141164   -0.01733518    0.00165318
     atom  187 type  4   force =    -0.02756363   -0.01186298    0.05025804
     atom  188 type  4   force =    -0.02038377   -0.01787276   -0.04715916
     atom  189 type  4   force =    -0.01987206    0.03536757   -0.00034816
     atom  190 type  4   force =     0.05861072   -0.03610487    0.00663576
     atom  191 type  4   force =    -0.01851425   -0.00335189   -0.00670580
     atom  192 type  4   force =    -0.03514489    0.02414493   -0.03100195
     atom  193 type  4   force =     0.03626601   -0.06462145    0.02162845
     atom  194 type  4   force =    -0.04962924    0.00127179   -0.00628936
     atom  195 type  4   force =    -0.01022497   -0.00651970    0.01842369
     atom  196 type  4   force =     0.00242727   -0.02551593   -0.06109796
     atom  197 type  4   force =     0.00927143    0.01571620   -0.00013832
     atom  198 type  4   force =    -0.03842914    0.04138486   -0.01355535
     atom  199 type  4   force =     0.00813384   -0.02589047    0.00624415
     atom  200 type  4   force =    -0.00958946   -0.03603751    0.05783471
     atom  201 type  4   force =    -0.01078453   -0.04759007   -0.02854594
     atom  202 type  4   force =     0.01619539    0.01501696    0.04153734
     atom  203 type  4   force =    -0.05688584   -0.05915150   -0.10309249
     atom  204 type  4   force =    -0.00238778    0.01815973    0.06244000
     atom  205 type  4   force =     0.01019007    0.07388371   -0.01371360
     atom  206 type  4   force =    -0.04069701   -0.03140004   -0.04467741
     atom  207 type  4   force =    -0.00466944   -0.03032946    0.03531856
     atom  208 type  4   force =    -0.00081511    0.01181106   -0.01006721
     atom  209 type  4   force =    -0.04447048    0.03169153   -0.05088456
     atom  210 type  4   force =    -0.01136096    0.01308118   -0.05118766
     atom  211 type  4   force =    -0.00048604   -0.03480712   -0.05647068
     atom  212 type  4   force =     0.04249055   -0.03953297   -0.03322323
     atom  213 type  4   force =     0.04284414   -0.14884219   -0.08362191
     atom  214 type  4   force =     0.05167879    0.06497734   -0.05763163
     atom  215 type  4   force =    -0.02678190   -0.02905912    0.00518665
     atom  216 type  4   force =    -0.02211693    0.07576001    0.04091139
     atom  217 type  4   force =    -0.02413885    0.03766242   -0.04189428
     atom  218 type  4   force =     0.01495820    0.02513442   -0.00789268
     atom  219 type  4   force =    -0.04401759   -0.04014426   -0.00919694
     atom  220 type  4   force =     0.01252346   -0.04160161    0.02307506
     atom  221 type  4   force =    -0.00426777    0.03038305    0.06497857
     atom  222 type  4   force =     0.10391598   -0.01656279    0.00584958
     atom  223 type  4   force =     0.02182307    0.08581323   -0.05093832
     atom  224 type  4   force =     0.03971297    0.02492690   -0.01339108
     atom  225 type  4   force =     0.06108029    0.04951427   -0.00338934
     atom  226 type  4   force =     0.02006039   -0.02508638    0.02080941
     atom  227 type  4   force =    -0.02257482    0.05200593    0.04177019
     atom  228 type  4   force =     0.00322162   -0.01708951   -0.02723064
     atom  229 type  4   force =     0.01369750    0.00003532    0.05415218
     atom  230 type  4   force =     0.05286897    0.04914442   -0.00147639
     atom  231 type  4   force =     0.04244353   -0.02098581    0.07126129
     atom  232 type  4   force =     0.04274591   -0.06426271   -0.00879759
     atom  233 type  4   force =     0.03888261    0.05820164    0.02902107
     atom  234 type  4   force =    -0.03304476   -0.05983724   -0.11439438
     atom  235 type  4   force =    -0.01907136    0.15897326   -0.01450950
     atom  236 type  4   force =     0.08808678   -0.01639174   -0.04575591
     atom  237 type  4   force =     0.00620204    0.00678535    0.01214132
     atom  238 type  4   force =    -0.01093630   -0.01289727    0.04262185
     atom  239 type  4   force =     0.01910739   -0.03604379    0.00734896
     atom  240 type  4   force =     0.07764998    0.03085588    0.02820759
     atom  241 type  4   force =     0.03139157   -0.01973801   -0.00498983
     atom  242 type  4   force =    -0.20431538   -0.02978069    0.07891177
     atom  243 type  4   force =     0.02975030    0.00104478    0.02043147
     atom  244 type  4   force =    -0.05117697   -0.00158988   -0.04531802
     atom  245 type  4   force =    -0.01912474   -0.02914648   -0.09481310
     atom  246 type  4   force =     0.02448531   -0.00895552   -0.03126086
     atom  247 type  4   force =    -0.00635921   -0.01715156   -0.06720038
     atom  248 type  4   force =    -0.01645709    0.03018534    0.05873359
     atom  249 type  4   force =     0.03809107    0.02613863   -0.06222354
     atom  250 type  4   force =    -0.08195335   -0.01671318    0.00421533
     atom  251 type  4   force =    -0.00777644   -0.00391820   -0.01948787
     atom  252 type  4   force =    -0.07092812    0.01902845   -0.05219760
     atom  253 type  4   force =     0.00126026   -0.04522592   -0.11037181
     atom  254 type  4   force =    -0.09102052    0.01338091   -0.01476692
     atom  255 type  4   force =     0.01623492   -0.01882338    0.02038663
     atom  256 type  4   force =     0.03194655   -0.00800743    0.03524906
     atom  257 type  4   force =     0.02693197   -0.02500876    0.03378866
     atom  258 type  4   force =     0.00067435    0.01269737   -0.02909428
     atom  259 type  4   force =     0.04802039    0.01503130   -0.00891313
     atom  260 type  4   force =    -0.04570187   -0.01159251   -0.06093640
     atom  261 type  4   force =     0.04154616    0.02785966   -0.03933804
     atom  262 type  4   force =    -0.05480848   -0.01076655    0.04593286
     atom  263 type  4   force =     0.09634132   -0.02623987    0.01765202
     atom  264 type  4   force =    -0.04573623    0.04262719   -0.02251507
     atom  265 type  4   force =     0.02498832    0.01549253   -0.03979960
     atom  266 type  4   force =     0.02701006    0.02036652   -0.04800259
     atom  267 type  4   force =     0.07741051   -0.00410093   -0.04260020
     atom  268 type  4   force =     0.02718955   -0.04396489   -0.03136808
     atom  269 type  4   force =    -0.01663323   -0.06671555    0.00510989
     atom  270 type  4   force =    -0.07175157   -0.01326722   -0.02964077
     atom  271 type  4   force =     0.06961544    0.01180994    0.00867570
     atom  272 type  4   force =     0.02761055    0.05490436   -0.01276770
     atom  273 type  4   force =     0.00244200   -0.00628417    0.04766702
     atom  274 type  4   force =    -0.02440434    0.00276034    0.02711264
     atom  275 type  4   force =    -0.01179882   -0.02054517    0.01817276
     atom  276 type  4   force =     0.04365390    0.07911721    0.06965530
     atom  277 type  4   force =     0.02661219   -0.01173380   -0.07657648
     atom  278 type  4   force =    -0.02163825    0.06301295    0.04433598
     atom  279 type  4   force =    -0.01201465   -0.02156270    0.00405706
     atom  280 type  4   force =    -0.02690034    0.05669176    0.00942491
     atom  281 type  4   force =     0.04153510    0.03159712    0.04327831
     atom  282 type  4   force =     0.03678195   -0.05140302    0.01537000
     atom  283 type  4   force =     0.00388503   -0.06518963   -0.03214174
     atom  284 type  4   force =     0.07177383   -0.05365149   -0.03052442
     atom  285 type  4   force =     0.01850515   -0.01659288    0.01459493
     atom  286 type  4   force =    -0.11831883   -0.02981631   -0.06917136
     atom  287 type  4   force =    -0.01600793   -0.00145082    0.04441380
     atom  288 type  4   force =     0.06710874   -0.00397583   -0.05574115
     atom  289 type  4   force =     0.02102691    0.09116395   -0.02694908
     atom  290 type  4   force =     0.10198892   -0.05835983   -0.11031863
     atom  291 type  4   force =    -0.03027944    0.01406688   -0.01560737
     atom  292 type  4   force =    -0.01961034   -0.01139957    0.01442223
     atom  293 type  4   force =    -0.00649192   -0.02628506   -0.04963082
     atom  294 type  4   force =     0.08007230   -0.02996288    0.16774445
     atom  295 type  4   force =    -0.05388207    0.06401927    0.06796981
     atom  296 type  4   force =    -0.05990415    0.01921006    0.03731495
     atom  297 type  4   force =    -0.01790641    0.01395762   -0.02436856
     atom  298 type  4   force =     0.01299975    0.01343343    0.01804998
     atom  299 type  4   force =    -0.06669241   -0.14467277   -0.02718162
     atom  300 type  4   force =    -0.01170282   -0.05288999   -0.03412271
     atom  301 type  4   force =    -0.07375623    0.03965710    0.02584767
     atom  302 type  4   force =     0.00579070    0.12645984    0.11048680
     atom  303 type  4   force =    -0.01421280   -0.02295533   -0.03986902
     atom  304 type  4   force =    -0.03900502   -0.00163994    0.01125409
     atom  305 type  4   force =    -0.03630271   -0.01653079    0.00697006
     atom  306 type  4   force =     0.00812156    0.01577108   -0.05869852
     atom  307 type  4   force =     0.02342451    0.02015748    0.04235501
     atom  308 type  4   force =     0.00975298    0.00088612   -0.05118812
     atom  309 type  4   force =     0.00197299   -0.02056999    0.01389534
     atom  310 type  4   force =     0.09237388   -0.00427329    0.11082673
     atom  311 type  4   force =    -0.03279759   -0.01345032    0.01143109
     atom  312 type  4   force =    -0.02337877    0.02160200    0.01457975
     atom  313 type  4   force =     0.01446331   -0.08751391    0.01935723
     atom  314 type  4   force =    -0.04557631    0.01303079   -0.02396899
     atom  315 type  4   force =    -0.01721096   -0.00381470   -0.02791409
     atom  316 type  4   force =    -0.00560004   -0.00390678    0.01814161
     atom  317 type  4   force =    -0.00161618    0.06902938    0.04012940
     atom  318 type  4   force =     0.04039456    0.00254267   -0.01762163
     atom  319 type  4   force =    -0.02970973   -0.01473238   -0.06109781
     atom  320 type  4   force =     0.04268547   -0.01855746   -0.02679093
     atom  321 type  4   force =    -0.02612104    0.12888763    0.03818029
     atom  322 type  4   force =     0.02390944    0.01095749   -0.06530517
     atom  323 type  4   force =     0.03521937   -0.03551127    0.04974873
     atom  324 type  4   force =     0.05184380    0.00480635   -0.02337613
     atom  325 type  4   force =     0.03439743   -0.02324661   -0.02835215
     atom  326 type  4   force =    -0.00823922    0.11665816    0.05597854
     atom  327 type  4   force =     0.04740869    0.04959789   -0.03981957
     atom  328 type  4   force =     0.02044884    0.00100902   -0.01989036
     atom  329 type  4   force =     0.10557976    0.01069055    0.01854980
     atom  330 type  4   force =     0.02364035   -0.03642048   -0.05436223
     atom  331 type  4   force =     0.03238830    0.04217501   -0.00806768
     atom  332 type  4   force =     0.02199307    0.05078033   -0.01242847
     atom  333 type  4   force =    -0.05390447   -0.05586387    0.02738556
     atom  334 type  4   force =     0.02372789    0.04554842   -0.02801014
     atom  335 type  4   force =     0.06795140    0.02174744   -0.02188473
     atom  336 type  4   force =    -0.03959315   -0.03105129   -0.04413314
     atom  337 type  4   force =    -0.00499485   -0.00465149   -0.02308148
     atom  338 type  4   force =    -0.05723474    0.04313665   -0.01901933
     atom  339 type  5   force =    -0.02047742    0.02372320    0.03467696
     atom  340 type  5   force =     0.00636115   -0.02889384    0.02843307
     atom  341 type  6   force =     0.02477656    0.00369673    0.00431623
     atom  342 type  6   force =    -0.02467316   -0.00362765   -0.00413960
     atom  343 type  6   force =     0.00299897   -0.04247434    0.00342034
     atom  344 type  6   force =     0.00765444   -0.04196082    0.00448424
     atom  345 type  6   force =    -0.00728337    0.04200696   -0.00409964
     atom  346 type  6   force =    -0.00359194    0.04243152   -0.00356237
     atom  347 type  6   force =     0.02932302    0.02302695    0.00385438
     atom  348 type  6   force =    -0.03414793    0.01402276   -0.00738418
     atom  349 type  6   force =     0.03413024   -0.01392412    0.00733898
     atom  350 type  6   force =    -0.02941796   -0.02312303   -0.00390716
     atom  351 type  7   force =     0.00297319    0.00580209    0.00008227
     atom  352 type  7   force =    -0.00418327    0.00474348   -0.00123624
     atom  353 type  7   force =     0.00415623   -0.00468487    0.00107986
     atom  354 type  7   force =    -0.00273025   -0.00574392   -0.00021676
     atom  355 type  7   force =     0.00387141   -0.00336241    0.00089844
     atom  356 type  7   force =    -0.00282823   -0.00423294   -0.00030571
     atom  357 type  7   force =     0.00294445    0.00423813    0.00027943
     atom  358 type  7   force =    -0.00380438    0.00322768   -0.00099407

     Total force =     1.686617     Total SCF correction =     0.000156


     Computing stress (Cartesian axis) and pressure


     negative rho (up, down):  5.923E-02 0.000E+00
          total   stress  (Ry/bohr**3)                   (kbar)     P=        7.98
   0.00005256   0.00000157  -0.00000259            7.73        0.23       -0.38
   0.00000157   0.00006095   0.00000342            0.23        8.97        0.50
  -0.00000259   0.00000342   0.00004925           -0.38        0.50        7.25


     Writing all to output data dir ./outputs/pwscf.save/ :
     XML data file, charge density, pseudopotentials, collected wavefunctions
 
     init_run     :    145.53s CPU    148.71s WALL (       1 calls)
     electrons    :  70540.97s CPU  71767.07s WALL (       1 calls)
     forces       :     93.24s CPU     96.28s WALL (       1 calls)
     stress       :    350.93s CPU    355.79s WALL (       1 calls)

     Called by init_run:
     wfcinit      :    129.59s CPU    131.50s WALL (       1 calls)
     potinit      :      1.20s CPU      1.28s WALL (       1 calls)
     hinit0       :      1.47s CPU      1.52s WALL (       1 calls)

     Called by electrons:
     c_bands      :  59136.44s CPU  59845.86s WALL (     247 calls)
     sum_band     :  10240.32s CPU  10528.89s WALL (     247 calls)
     v_of_rho     :    112.54s CPU    116.76s WALL (     248 calls)
     newd         :    836.02s CPU   1054.02s WALL (     248 calls)
     PAW_pot      :    139.32s CPU    140.75s WALL (     248 calls)
     mix_rho      :     61.55s CPU     64.85s WALL (     247 calls)

     Called by c_bands:
     init_us_2    :    542.20s CPU    549.85s WALL (     496 calls)
     cegterg      :  58351.45s CPU  59046.38s WALL (     247 calls)

     Called by *egterg:
     cdiaghg      :    836.45s CPU    843.41s WALL (     538 calls)
     h_psi        :  32178.81s CPU  32500.11s WALL (     539 calls)
     s_psi        :   9555.60s CPU   9641.28s WALL (     539 calls)
     g_psi        :     38.09s CPU     38.57s WALL (     291 calls)

     Called by h_psi:
     h_psi:calbec :   9600.07s CPU   9661.97s WALL (     539 calls)
     vloc_psi     :  12976.52s CPU  13105.28s WALL (     539 calls)
                                        0.00s GPU  (     539 calls)
     add_vuspsi   :   9541.67s CPU   9613.41s WALL (     539 calls)

     General routines
     calbec       :  14675.18s CPU  14769.41s WALL (     803 calls)
     fft          :    111.63s CPU    116.83s WALL (    3247 calls)
     ffts         :     10.79s CPU     11.19s WALL (     495 calls)
     fftw         :  12582.52s CPU  12696.45s WALL ( 1394787 calls)
     interpolate  :     14.17s CPU     14.69s WALL (     248 calls)
 
     Parallel routines
 
     PWSCF        :     19h46m CPU     20h 7m WALL

 
   This run was terminated on:   3:29:11   7Mar2026            

=------------------------------------------------------------------------------=
   JOB DONE.
=------------------------------------------------------------------------------=
