
     Program PWSCF v.7.5 starts on  8Mar2026 at  4:13:20 

     This program is part of the open-source Quantum ESPRESSO suite
     for quantum simulation of materials; please cite
         "P. Giannozzi et al., J. Phys.:Condens. Matter 21 395502 (2009);
         "P. Giannozzi et al., J. Phys.:Condens. Matter 29 465901 (2017);
         "P. Giannozzi et al., J. Chem. Phys. 152 154105 (2020);
          URL http://www.quantum-espresso.org", 
     in publications or presentations arising from this work. More details at
     http://www.quantum-espresso.org/quote

     Parallel version (MPI), running on    80 processors

     MPI processes distributed on     4 nodes
     77238 MiB available memory on the printing compute node when the environment starts
 
     Reading input from NaphthaleneOnGlassSite2Snapshot22.in
Warning: card &CELL ignored
Warning: card &FCP ignored
Warning: card &RISM ignored

     Current dimensions of program PWSCF are:
     Max number of different atomic species (ntypx) = 10
     Max number of k-points (npk) =  40000
     Max angular momentum in pseudopotentials (lmaxx) =  4
     file Na.paw.z_9.ld1.psl.v1.0.0-low.upf: wavefunction(s)  2P renormalized
     file O.pbe-n-kjpaw_psl.0.1.UPF: wavefunction(s)  2P renormalized
     file Al.pbe-n-kjpaw_psl.1.0.0.UPF: wavefunction(s)  3S 3P renormalized
     file C.pbe-n-kjpaw_psl.1.0.0.UPF: wavefunction(s)  2S 2P renormalized
 
     R & G space division:  proc/nbgrp/npool/nimage =      80
     Subspace diagonalization in iterative solution of the eigenvalue problem:
     one sub-group per band group will be used
     custom distributed-memory algorithm (size of sub-group:  8*  8 procs)

 
     Parallelization info
     --------------------
     sticks:   dense  smooth     PW     G-vecs:    dense   smooth      PW
     Min         450     400    100               199276   167008   20874
     Max         451     401    101               199303   167021   20885
     Sum       36073   32057   8021             15943719 13361281 1670237
 
     Using Slab Decomposition
 


     bravais-lattice index     =            0
     lattice parameter (alat)  =      35.4885  a.u.
     unit-cell volume          =  138228.4306 (a.u.)^3
     number of atoms/cell      =          358
     number of atomic types    =            7
     number of electrons       =      1872.00
     number of Kohn-Sham states=         1123
     kinetic-energy cutoff     =      80.0000  Ry
     charge density cutoff     =     360.0000  Ry
     scf convergence threshold =      1.0E-08
     mixing beta               =       0.1000
     number of iterations used =            8  plain     mixing
     Exchange-correlation= PBE
                           (   1   4   3   4   0   0   0)

     celldm(1)=  35.488539  celldm(2)=   0.000000  celldm(3)=   0.000000
     celldm(4)=   0.000000  celldm(5)=   0.000000  celldm(6)=   0.000000

     crystal axes: (cart. coord. in units of alat)
               a(1) = (   1.000000   0.000000   0.000000 )  
               a(2) = (   0.000000   1.000000   0.000000 )  
               a(3) = (   0.000000   0.000000   3.092666 )  

     reciprocal axes: (cart. coord. in units 2 pi/alat)
               b(1) = (  1.000000  0.000000  0.000000 )  
               b(2) = (  0.000000  1.000000  0.000000 )  
               b(3) = (  0.000000  0.000000  0.323346 )  


     PseudoPot. # 1 for Na read from file:
     /home/sabeel/VOCC_Simulation/pseudopotentials/SSSP_Precision/Na.paw.z_9.ld1.psl.v1.0.0-low.upf
     MD5 check sum: 32bccecb13d7399e6c7dae6fe6685ff0
     Pseudo is Projector augmented-wave + core cor, Zval =  9.0
     Generated using &quot;atomic&quot; code by A. Dal Corso  v.6.3MaX
     Shape of augmentation charge: PSQ
     Using radial grid of 1121 points,  4 beta functions with: 
                l(1) =   0
                l(2) =   0
                l(3) =   1
                l(4) =   1
     Q(r) pseudized with 0 coefficients 


     PseudoPot. # 2 for B  read from file:
     /home/sabeel/VOCC_Simulation/pseudopotentials/SSSP_Precision/B_pbe_v1.01.uspp.F.UPF
     MD5 check sum: d081ebb89d0c768e112975f650467a00
     Pseudo is Ultrasoft + core correction, Zval =  3.0
     Generated by new atomic code, or converted to UPF format
     Using radial grid of  781 points,  4 beta functions with: 
                l(1) =   0
                l(2) =   0
                l(3) =   1
                l(4) =   1
     Q(r) pseudized with  8 coefficients,  rinner =    1.100   1.100   1.100


     PseudoPot. # 3 for Si read from file:
     /home/sabeel/VOCC_Simulation/pseudopotentials/SSSP_Precision/Si.pbe-n-rrkjus_psl.1.0.0.UPF
     MD5 check sum: 0b0bb1205258b0d07b9f9672cf965d36
     Pseudo is Ultrasoft + core correction, Zval =  4.0
     Generated using "atomic" code by A. Dal Corso  v.5.1
     Using radial grid of 1141 points,  6 beta functions with: 
                l(1) =   0
                l(2) =   0
                l(3) =   1
                l(4) =   1
                l(5) =   2
                l(6) =   2
     Q(r) pseudized with 0 coefficients 


     PseudoPot. # 4 for O  read from file:
     /home/sabeel/VOCC_Simulation/pseudopotentials/SSSP_Precision/O.pbe-n-kjpaw_psl.0.1.UPF
     MD5 check sum: 0234752ac141de4415c5fc33072bef88
     Pseudo is Projector augmented-wave + core cor, Zval =  6.0
     Generated using "atomic" code by A. Dal Corso  v.5.0.99 svn rev. 10869
     Shape of augmentation charge: BESSEL
     Using radial grid of 1095 points,  4 beta functions with: 
                l(1) =   0
                l(2) =   0
                l(3) =   1
                l(4) =   1
     Q(r) pseudized with 0 coefficients 


     PseudoPot. # 5 for Al read from file:
     /home/sabeel/VOCC_Simulation/pseudopotentials/SSSP_Precision/Al.pbe-n-kjpaw_psl.1.0.0.UPF
     MD5 check sum: cfc449ca30b5f3223ec38ddd88ac046d
     Pseudo is Projector augmented-wave + core cor, Zval =  3.0
     Generated using "atomic" code by A. Dal Corso  v.5.1
     Shape of augmentation charge: PSQ
     Using radial grid of 1135 points,  6 beta functions with: 
                l(1) =   0
                l(2) =   0
                l(3) =   1
                l(4) =   1
                l(5) =   2
                l(6) =   2
     Q(r) pseudized with 0 coefficients 


     PseudoPot. # 6 for C  read from file:
     /home/sabeel/VOCC_Simulation/pseudopotentials/SSSP_Precision/C.pbe-n-kjpaw_psl.1.0.0.UPF
     MD5 check sum: 5d2aebdfa2cae82b50a7e79e9516da0f
     Pseudo is Projector augmented-wave + core cor, Zval =  4.0
     Generated using "atomic" code by A. Dal Corso  v.5.1
     Shape of augmentation charge: PSQ
     Using radial grid of 1073 points,  4 beta functions with: 
                l(1) =   0
                l(2) =   0
                l(3) =   1
                l(4) =   1
     Q(r) pseudized with 0 coefficients 


     PseudoPot. # 7 for H  read from file:
     /home/sabeel/VOCC_Simulation/pseudopotentials/SSSP_Precision/H_ONCV_PBE-1.0.oncvpsp.upf
     MD5 check sum: 1790becc920ee074925cf490c71280fe
     Pseudo is Norm-conserving, Zval =  1.0
     Generated using ONCVPSP code by D. R. Hamann
     Using radial grid of 1166 points,  2 beta functions with: 
                l(1) =   0
                l(2) =   0

     atomic species   valence    mass     pseudopotential
     Na                9.00    22.98977     Na( 1.00)
     B                 3.00    10.81000     B ( 1.00)
     Si                4.00    28.08500     Si( 1.00)
     O                 6.00    15.99900     O ( 1.00)
     Al                3.00    26.98154     Al( 1.00)
     C                 4.00    12.01100     C ( 1.00)
     H                 1.00     1.00800     H ( 1.00)

     No symmetry found



   Cartesian axes

     site n.     atom                  positions (alat units)
         1        Na     tau(   1) = (   0.2476327   0.1287261   1.4401902  )
         2        Na     tau(   2) = (   0.2347070   0.3964799   1.8357059  )
         3        Na     tau(   3) = (   0.2580766   0.4457236   1.6551511  )
         4        Na     tau(   4) = (   0.0484944   0.0277893   1.6277847  )
         5        Na     tau(   5) = (   0.2352313   0.0813062   1.2863150  )
         6        Na     tau(   6) = (   0.0747243   0.2371463   1.1982473  )
         7        Na     tau(   7) = (   0.1133306   0.7698962   1.8611434  )
         8        Na     tau(   8) = (   0.9037110   0.1954209   1.2700780  )
         9        Na     tau(   9) = (   0.5181841   0.1014052   1.4940734  )
        10        Na     tau(  10) = (   0.3803624   0.0140251   1.8302637  )
        11        Na     tau(  11) = (   0.3545179   0.4989222   1.3772145  )
        12        B      tau(  12) = (   0.9565860   0.6559989   1.4661680  )
        13        B      tau(  13) = (   0.3779039   0.3190213   1.8506233  )
        14        B      tau(  14) = (   0.6357433   0.7757670   1.3375748  )
        15        B      tau(  15) = (   0.9958362   0.0827877   1.8476266  )
        16        B      tau(  16) = (   0.6987179   0.5586979   1.3943070  )
        17        B      tau(  17) = (   0.0903279   0.5997535   1.2200041  )
        18        B      tau(  18) = (   0.9460845   0.5017876   1.4754679  )
        19        B      tau(  19) = (   0.0032347   0.0527127   1.2839437  )
        20        B      tau(  20) = (   0.1241012   0.5940167   1.6016841  )
        21        B      tau(  21) = (   0.4174729   0.9198072   1.5541475  )
        22        B      tau(  22) = (   0.4638227   0.9107282   1.2322731  )
        23        B      tau(  23) = (   0.5096053   0.7092947   1.5000083  )
        24        B      tau(  24) = (   0.4035376   0.9367665   1.6900270  )
        25        B      tau(  25) = (   0.7132674   0.8560217   1.2558196  )
        26        B      tau(  26) = (   0.2579773   0.4217781   1.2874388  )
        27        B      tau(  27) = (   0.1862793   0.2338812   1.3576537  )
        28        B      tau(  28) = (   0.2134919   0.3664862   1.5073156  )
        29        B      tau(  29) = (   0.3546252   0.0462610   1.5293894  )
        30        B      tau(  30) = (   0.8082206   0.9504483   1.6218439  )
        31        B      tau(  31) = (   0.4915043   0.5408159   1.2913026  )
        32        B      tau(  32) = (   0.2471486   0.9450605   1.4099193  )
        33        B      tau(  33) = (   0.7089246   0.1566090   1.6669558  )
        34        B      tau(  34) = (   0.4858908   0.1745693   1.3498737  )
        35        Si     tau(  35) = (   0.5740761   0.3686341   1.4981594  )
        36        Si     tau(  36) = (   0.9600416   0.6521543   1.2713743  )
        37        Si     tau(  37) = (   0.8029666   0.9237355   1.4090604  )
        38        Si     tau(  38) = (   0.6589027   0.0111466   1.4303706  )
        39        Si     tau(  39) = (   0.7148031   0.8518694   1.6658713  )
        40        Si     tau(  40) = (   0.4062844   0.4370669   1.7000479  )
        41        Si     tau(  41) = (   0.8652299   0.0194200   1.2866760  )
        42        Si     tau(  42) = (   0.8792462   0.4724358   1.3313926  )
        43        Si     tau(  43) = (   0.9761010   0.8191325   1.3004490  )
        44        Si     tau(  44) = (   0.0927580   0.6000365   1.4532062  )
        45        Si     tau(  45) = (   0.8492038   0.6801733   1.8429896  )
        46        Si     tau(  46) = (   0.7648638   0.9759642   1.8781504  )
        47        Si     tau(  47) = (   0.8282769   0.9005504   1.7531841  )
        48        Si     tau(  48) = (   0.2400871   0.2615564   1.6009290  )
        49        Si     tau(  49) = (   0.0782160   0.8578516   1.7113893  )
        50        Si     tau(  50) = (   0.1793983   0.5421597   1.3229395  )
        51        Si     tau(  51) = (   0.3045589   0.3154693   1.3856788  )
        52        Si     tau(  52) = (   0.1868342   0.9496617   1.8144358  )
        53        Si     tau(  53) = (   0.5597482   0.9942014   1.8563540  )
        54        Si     tau(  54) = (   0.3283405   0.8654915   1.7979255  )
        55        Si     tau(  55) = (   0.3944303   0.1342286   1.2558232  )
        56        Si     tau(  56) = (   0.5556116   0.4029995   1.7688172  )
        57        Si     tau(  57) = (   0.8886951   0.0519111   1.5515978  )
        58        Si     tau(  58) = (   0.9177874   0.8266438   1.8602018  )
        59        Si     tau(  59) = (   0.5141592   0.7513592   1.7304853  )
        60        Si     tau(  60) = (   0.6200680   0.7296116   1.5975635  )
        61        Si     tau(  61) = (   0.4531771   0.2653855   1.4551164  )
        62        Si     tau(  62) = (   0.9530092   0.1910999   1.6203079  )
        63        Si     tau(  63) = (   0.9806318   0.2594417   1.4695044  )
        64        Si     tau(  64) = (   0.1810221   0.5658568   1.7318917  )
        65        Si     tau(  65) = (   0.2276537   0.6624309   1.2309086  )
        66        Si     tau(  66) = (   0.7086066   0.3068958   1.4624957  )
        67        Si     tau(  67) = (   0.7573617   0.5008676   1.2102682  )
        68        Si     tau(  68) = (   0.0630774   0.5052222   1.8068999  )
        69        Si     tau(  69) = (   0.9531780   0.4208941   1.7332624  )
        70        Si     tau(  70) = (   0.8429520   0.6341042   1.3864806  )
        71        Si     tau(  71) = (   0.8255070   0.2513717   1.7092992  )
        72        Si     tau(  72) = (   0.4660404   0.3166643   1.5999861  )
        73        Si     tau(  73) = (   0.3218087   0.1696541   1.7095271  )
        74        Si     tau(  74) = (   0.6054871   0.0864265   1.2929813  )
        75        Si     tau(  75) = (   0.4402609   0.0821865   1.6559030  )
        76        Si     tau(  76) = (   0.3770531   0.0317907   1.3941734  )
        77        Si     tau(  77) = (   0.5059912   0.8072476   1.3243503  )
        78        Si     tau(  78) = (   0.6069382   0.5044701   1.6609957  )
        79        Si     tau(  79) = (   0.6370349   0.4244534   1.3741369  )
        80        Si     tau(  80) = (   0.6855674   0.7078304   1.8645318  )
        81        Si     tau(  81) = (   0.0765130   0.9298841   1.2314627  )
        82        Si     tau(  82) = (   0.9863684   0.4054382   1.2235204  )
        83        Si     tau(  83) = (   0.4950631   0.2585395   1.7548401  )
        84        Si     tau(  84) = (   0.5719431   0.1160579   1.7357262  )
        85        Si     tau(  85) = (   0.3566442   0.7389475   1.7027041  )
        86        Si     tau(  86) = (   0.5887626   0.6478135   1.7482870  )
        87        Si     tau(  87) = (   0.3778403   0.4701707   1.1981005  )
        88        Si     tau(  88) = (   0.7705746   0.7745811   1.3546535  )
        89        Si     tau(  89) = (   0.6353056   0.3899359   1.2194797  )
        90        Si     tau(  90) = (   0.3199297   0.6027545   1.8036004  )
        91        Si     tau(  91) = (   0.6901246   0.5787282   1.5496775  )
        92        Si     tau(  92) = (   0.1108815   0.9857043   1.4484254  )
        93        Si     tau(  93) = (   0.0087222   0.8101075   1.4596435  )
        94        Si     tau(  94) = (   0.4662737   0.5842118   1.4387730  )
        95        Si     tau(  95) = (   0.1497603   0.1150345   1.8191784  )
        96        Si     tau(  96) = (   0.9119816   0.9073773   1.5284091  )
        97        Si     tau(  97) = (   0.5081777   0.9347421   1.4393654  )
        98        Si     tau(  98) = (   0.9733658   0.9480751   1.7929925  )
        99        Si     tau(  99) = (   0.2449909   0.7736475   1.5958723  )
       100        Si     tau( 100) = (   0.2568298   0.7840856   1.3334763  )
       101        Si     tau( 101) = (   0.1600543   0.7576293   1.4557816  )
       102        Si     tau( 102) = (   0.9190690   0.2974838   1.8287833  )
       103        Si     tau( 103) = (   0.8499270   0.3745654   1.6104514  )
       104        Si     tau( 104) = (   0.8444491   0.5369054   1.7673517  )
       105        Si     tau( 105) = (   0.1203187   0.1732756   1.6597012  )
       106        Si     tau( 106) = (   0.6321686   0.6005607   1.2681838  )
       107        Si     tau( 107) = (   0.6235724   0.8470731   1.8048529  )
       108        Si     tau( 108) = (   0.7501132   0.1202716   1.2309056  )
       109        Si     tau( 109) = (   0.2746484   0.2046900   1.8670863  )
       110        Si     tau( 110) = (   0.2273259   0.0646953   1.6216725  )
       111        Si     tau( 111) = (   0.0729274   0.4042159   1.4579120  )
       112        Si     tau( 112) = (   0.6640697   0.1601480   1.5162335  )
       113        Si     tau( 113) = (   0.1226817   0.7031938   1.6887692  )
       114        Si     tau( 114) = (   0.8406300   0.5276586   1.5875131  )
       115        Si     tau( 115) = (   0.8389500   0.3149315   1.3901795  )
       116        Si     tau( 116) = (   0.1722727   0.9211130   1.5953570  )
       117        Si     tau( 117) = (   0.0763504   0.1375521   1.3930086  )
       118        Si     tau( 118) = (   0.3256209   0.9115638   1.2548481  )
       119        Si     tau( 119) = (   0.3955849   0.7224945   1.4035300  )
       120        Si     tau( 120) = (   0.4652418   0.5499611   1.5942954  )
       121        Si     tau( 121) = (   0.1212618   0.3651412   1.3045003  )
       122        O      tau( 122) = (   0.0295168   0.4481121   1.8630498  )
       123        O      tau( 123) = (   0.8632305   0.7660730   1.8351295  )
       124        O      tau( 124) = (   0.7865379   0.5198677   1.8292109  )
       125        O      tau( 125) = (   0.7687039   0.8065522   1.2712216  )
       126        O      tau( 126) = (   0.2613316   0.2462125   1.3627201  )
       127        O      tau( 127) = (   0.4383841   0.2721051   1.5384261  )
       128        O      tau( 128) = (   0.4075804   0.9041606   1.6244717  )
       129        O      tau( 129) = (   0.2891632   0.9821156   1.2266374  )
       130        O      tau( 130) = (   0.3003666   0.1796727   1.7902854  )
       131        O      tau( 131) = (   0.5973279   0.4225163   1.2949590  )
       132        O      tau( 132) = (   0.5334428   0.5020140   1.6146071  )
       133        O      tau( 133) = (   0.2755656   0.1058719   1.6786020  )
       134        O      tau( 134) = (   0.1545595   0.1075181   1.6150265  )
       135        O      tau( 135) = (   0.1198242   0.5723265   1.5291309  )
       136        O      tau( 136) = (   0.5826608   0.7211316   1.6806210  )
       137        O      tau( 137) = (   0.4384820   0.7620469   1.6969890  )
       138        O      tau( 138) = (   0.3813441   0.2977472   1.4178316  )
       139        O      tau( 139) = (   0.9518571   0.2429557   1.5505285  )
       140        O      tau( 140) = (   0.6668767   0.5177678   1.6031137  )
       141        O      tau( 141) = (   0.1520770   0.1695411   1.3620472  )
       142        O      tau( 142) = (   0.6925009   0.7509516   1.3753791  )
       143        O      tau( 143) = (   0.1434568   0.6580895   1.2139172  )
       144        O      tau( 144) = (   0.4761486   0.9028411   1.5138988  )
       145        O      tau( 145) = (   0.0631356   0.5782061   1.8492954  )
       146        O      tau( 146) = (   0.5876332   0.4146284   1.8503125  )
       147        O      tau( 147) = (   0.1071621   0.8902567   1.6361869  )
       148        O      tau( 148) = (   0.0331486   0.1967754   1.4407710  )
       149        O      tau( 149) = (   0.9443941   0.9810288   1.5588672  )
       150        O      tau( 150) = (   0.5485694   0.5774714   1.2625723  )
       151        O      tau( 151) = (   0.6090489   0.9225244   1.8421140  )
       152        O      tau( 152) = (   0.3184350   0.7927686   1.7545505  )
       153        O      tau( 153) = (   0.2965868   0.2359092   1.6579206  )
       154        O      tau( 154) = (   0.3399948   0.4149078   1.7451441  )
       155        O      tau( 155) = (   0.6583099   0.3076783   1.2358723  )
       156        O      tau( 156) = (   0.5620926   0.7442927   1.5385442  )
       157        O      tau( 157) = (   0.5556976   0.3175372   1.7688381  )
       158        O      tau( 158) = (   0.3525972   0.6632019   1.7471104  )
       159        O      tau( 159) = (   0.9620412   0.3446718   1.7697440  )
       160        O      tau( 160) = (   0.5313272   0.1848172   1.7709556  )
       161        O      tau( 161) = (   0.9429693   0.0183272   1.3239474  )
       162        O      tau( 162) = (   0.4858005   0.9533180   1.8755890  )
       163        O      tau( 163) = (   0.3657073   0.5328581   1.8345358  )
       164        O      tau( 164) = (   0.4406081   0.5066782   1.2484323  )
       165        O      tau( 165) = (   0.3135028   0.2834622   1.8690668  )
       166        O      tau( 166) = (   0.7907911   0.8360261   1.7119523  )
       167        O      tau( 167) = (   0.7289290   0.9234833   1.2340123  )
       168        O      tau( 168) = (   0.1454692   0.2885690   1.3267456  )
       169        O      tau( 169) = (   0.3914991   0.9066251   1.7575926  )
       170        O      tau( 170) = (   0.7079875   0.2222935   1.4707635  )
       171        O      tau( 171) = (   0.9743698   0.8515159   1.5269402  )
       172        O      tau( 172) = (   0.1330105   0.5361140   1.2470617  )
       173        O      tau( 173) = (   0.5827735   0.0420994   1.2254729  )
       174        O      tau( 174) = (   0.8602910   0.6220068   1.7811976  )
       175        O      tau( 175) = (   0.5252483   0.6418342   1.4684534  )
       176        O      tau( 176) = (   0.6556139   0.6691234   1.7930720  )
       177        O      tau( 177) = (   0.9478947   0.4555202   1.2814895  )
       178        O      tau( 178) = (   0.9699578   0.0766966   1.2188133  )
       179        O      tau( 179) = (   0.5480526   0.8088247   1.7836236  )
       180        O      tau( 180) = (   0.3152477   0.7447790   1.3880620  )
       181        O      tau( 181) = (   0.1477991   0.6460434   1.7450578  )
       182        O      tau( 182) = (   0.4226375   0.0083615   1.6949577  )
       183        O      tau( 183) = (   0.5004654   0.8461638   1.2447985  )
       184        O      tau( 184) = (   0.7864920   0.8423242   1.4036977  )
       185        O      tau( 185) = (   0.9046070   0.6136339   1.3286598  )
       186        O      tau( 186) = (   0.1308852   0.5564651   1.3912596  )
       187        O      tau( 187) = (   0.0181193   0.9388870   1.8632981  )
       188        O      tau( 188) = (   0.5236768   0.3172741   1.4469420  )
       189        O      tau( 189) = (   0.6771903   0.1363695   1.2729556  )
       190        O      tau( 190) = (   0.5668565   0.7520726   1.3411952  )
       191        O      tau( 191) = (   0.4390184   0.1054952   1.8920128  )
       192        O      tau( 192) = (   0.2801127   0.0556319   1.5537880  )
       193        O      tau( 193) = (   0.9517833   0.2240015   1.8530263  )
       194        O      tau( 194) = (   0.4078786   0.5134087   1.6517908  )
       195        O      tau( 195) = (   0.6735166   0.7941076   1.8547702  )
       196        O      tau( 196) = (   0.7896414   0.2674110   1.3392843  )
       197        O      tau( 197) = (   0.9136500   0.5214282   1.5392122  )
       198        O      tau( 198) = (   0.5881526   0.4350093   1.4460280  )
       199        O      tau( 199) = (   0.7745755   0.5842257   1.3844862  )
       200        O      tau( 200) = (   0.2034896   0.9862494   1.6415920  )
       201        O      tau( 201) = (   0.1233221   0.6813655   1.4530684  )
       202        O      tau( 202) = (   0.7937827   0.3272627   1.4639956  )
       203        O      tau( 203) = (   0.4473563   0.5396589   1.5104804  )
       204        O      tau( 204) = (   0.6542799   0.3403998   1.5182787  )
       205        O      tau( 205) = (   0.8234572   0.7113307   1.3622509  )
       206        O      tau( 206) = (   0.8127487   0.4431771   1.5824090  )
       207        O      tau( 207) = (   0.5134106   0.6764784   1.7758121  )
       208        O      tau( 208) = (   0.1836556   0.7783442   1.3761575  )
       209        O      tau( 209) = (   0.8104766   0.3105590   1.6473803  )
       210        O      tau( 210) = (   0.3044033   0.9850075   1.3843284  )
       211        O      tau( 211) = (   0.1301504   0.8965179   1.7717389  )
       212        O      tau( 212) = (   0.3197141   0.1653364   1.2298596  )
       213        O      tau( 213) = (   0.4699233   0.1934200   1.4196372  )
       214        O      tau( 214) = (   0.2809558   0.8612246   1.3097159  )
       215        O      tau( 215) = (   0.4264163   0.2824703   1.8051299  )
       216        O      tau( 216) = (   0.6599679   0.6539216   1.5790006  )
       217        O      tau( 217) = (   0.7349642   0.9291111   1.6364595  )
       218        O      tau( 218) = (   0.0099961   0.4612132   1.4800917  )
       219        O      tau( 219) = (   0.5892025   0.1978638   1.5290320  )
       220        O      tau( 220) = (   0.0485841   0.8646896   1.2765110  )
       221        O      tau( 221) = (   0.9732948   0.8322736   1.3845405  )
       222        O      tau( 222) = (   0.4005127   0.1467648   1.7001924  )
       223        O      tau( 223) = (   0.8561165   0.3880932   1.3551362  )
       224        O      tau( 224) = (   0.1908703   0.7320545   1.6493092  )
       225        O      tau( 225) = (   0.5316561   0.3624401   1.5720686  )
       226        O      tau( 226) = (   0.6407674   0.0341441   1.3503554  )
       227        O      tau( 227) = (   0.2507360   0.3493753   1.4464087  )
       228        O      tau( 228) = (   0.5138994   0.8709061   1.3834646  )
       229        O      tau( 229) = (   0.9079300   0.5013233   1.4088368  )
       230        O      tau( 230) = (   0.4395504   0.1937154   1.2966161  )
       231        O      tau( 231) = (   0.2308999   0.6103161   1.2990312  )
       232        O      tau( 232) = (   0.3685013   0.9700313   1.5258447  )
       233        O      tau( 233) = (   0.8514985   0.9494698   1.6877232  )
       234        O      tau( 234) = (   0.0187499   0.4824011   1.7364241  )
       235        O      tau( 235) = (   0.2414021   0.3421124   1.5740169  )
       236        O      tau( 236) = (   0.6097970   0.4413714   1.7163163  )
       237        O      tau( 237) = (   0.4788214   0.4352721   1.7472383  )
       238        O      tau( 238) = (   0.1395403   0.9630524   1.5257738  )
       239        O      tau( 239) = (   0.3787358   0.0784353   1.3203646  )
       240        O      tau( 240) = (   0.5839692   0.9685892   1.4551464  )
       241        O      tau( 241) = (   0.9110607   0.6557788   1.2003494  )
       242        O      tau( 242) = (   0.0686474   0.1043740   1.8437037  )
       243        O      tau( 243) = (   0.1460976   0.3999842   1.5060950  )
       244        O      tau( 244) = (   0.4166165   0.3782170   1.6358330  )
       245        O      tau( 245) = (   0.0075933   0.9084354   1.7265037  )
       246        O      tau( 246) = (   0.8482460   0.9888286   1.2074661  )
       247        O      tau( 247) = (   0.6787187   0.3475581   1.3906861  )
       248        O      tau( 248) = (   0.2793975   0.6318760   1.8700688  )
       249        O      tau( 249) = (   0.1753735   0.9662414   1.3957977  )
       250        O      tau( 250) = (   0.0079684   0.6039592   1.4520956  )
       251        O      tau( 251) = (   0.6799702   0.7916690   1.6137563  )
       252        O      tau( 252) = (   0.8228944   0.4963375   1.2716413  )
       253        O      tau( 253) = (   0.1652982   0.5553089   1.6491463  )
       254        O      tau( 254) = (   0.6527640   0.8346788   1.2935381  )
       255        O      tau( 255) = (   0.0358116   0.1810737   1.6422342  )
       256        O      tau( 256) = (   0.5638762   0.0484964   1.7892635  )
       257        O      tau( 257) = (   0.7314789   0.9670683   1.4359075  )
       258        O      tau( 258) = (   0.2559548   0.8899428   1.4535926  )
       259        O      tau( 259) = (   0.7774448   0.5773609   1.5598674  )
       260        O      tau( 260) = (   0.0868638   0.6515873   1.6288983  )
       261        O      tau( 261) = (   0.2614827   0.9212168   1.7891965  )
       262        O      tau( 262) = (   0.1954831   0.1735609   1.8664394  )
       263        O      tau( 263) = (   0.9906684   0.7948073   1.8435173  )
       264        O      tau( 264) = (   0.4575167   0.9955248   1.4051103  )
       265        O      tau( 265) = (   0.7735858   0.2011661   1.2118609  )
       266        O      tau( 266) = (   0.8814090   0.9281431   1.4499689  )
       267        O      tau( 267) = (   0.4072071   0.9256292   1.2771435  )
       268        O      tau( 268) = (   0.8399764   0.8937974   1.5751596  )
       269        O      tau( 269) = (   0.9802476   0.7272430   1.4739436  )
       270        O      tau( 270) = (   0.4029974   0.6353892   1.4077172  )
       271        O      tau( 271) = (   0.5236271   0.0940762   1.6637713  )
       272        O      tau( 272) = (   0.2291142   0.8566340   1.6031926  )
       273        O      tau( 273) = (   0.1369597   0.1529802   1.7410824  )
       274        O      tau( 274) = (   0.8956842   0.4684356   1.7728116  )
       275        O      tau( 275) = (   0.0304714   0.3296381   1.4668483  )
       276        O      tau( 276) = (   0.9261533   0.1126670   1.5937994  )
       277        O      tau( 277) = (   0.3196110   0.7473434   1.6269653  )
       278        O      tau( 278) = (   0.2346612   0.4755155   1.3381933  )
       279        O      tau( 279) = (   0.0309321   0.9618656   1.4299785  )
       280        O      tau( 280) = (   0.1026240   0.4047238   1.3770124  )
       281        O      tau( 281) = (   0.0996948   0.0720356   1.4419196  )
       282        O      tau( 282) = (   0.9796419   0.7336502   1.2951357  )
       283        O      tau( 283) = (   0.4798587   0.2721799   1.6719849  )
       284        O      tau( 284) = (   0.1447462   0.5042309   1.7791641  )
       285        O      tau( 285) = (   0.6584207   0.0850578   1.4744274  )
       286        O      tau( 286) = (   0.8447302   0.2856675   1.7867899  )
       287        O      tau( 287) = (   0.9236456   0.3532967   1.8933803  )
       288        O      tau( 288) = (   0.7131244   0.4260542   1.2089447  )
       289        O      tau( 289) = (   0.1815374   0.0351118   1.8104616  )
       290        O      tau( 290) = (   0.0329975   0.6097415   1.2681351  )
       291        O      tau( 291) = (   0.8998275   0.8951096   1.8045433  )
       292        O      tau( 292) = (   0.3016404   0.4593341   1.2337882  )
       293        O      tau( 293) = (   0.2631331   0.5633327   1.7490475  )
       294        O      tau( 294) = (   0.7023044   0.1539457   1.5910141  )
       295        O      tau( 295) = (   0.5450848   0.1349270   1.3303906  )
       296        O      tau( 296) = (   0.1632620   0.2443342   1.6379519  )
       297        O      tau( 297) = (   0.1916640   0.3894955   1.2601897  )
       298        O      tau( 298) = (   0.0615898   0.0043928   1.2718305  )
       299        O      tau( 299) = (   0.3967139   0.3875856   1.8762703  )
       300        O      tau( 300) = (   0.4846187   0.5410669   1.3666698  )
       301        O      tau( 301) = (   0.8186424   0.0168112   1.5820830  )
       302        O      tau( 302) = (   0.5974300   0.5762403   1.7036424  )
       303        O      tau( 303) = (   0.4323575   0.7667648   1.3386386  )
       304        O      tau( 304) = (   0.7719883   0.9374236   1.8028857  )
       305        O      tau( 305) = (   0.7672182   0.1900179   1.6976508  )
       306        O      tau( 306) = (   0.8994379   0.0650389   1.4672678  )
       307        O      tau( 307) = (   0.4462121   0.7426137   1.4731770  )
       308        O      tau( 308) = (   0.9211726   0.3961581   1.6533343  )
       309        O      tau( 309) = (   0.2420202   0.2200105   1.5251544  )
       310        O      tau( 310) = (   0.8842963   0.6436934   1.4589679  )
       311        O      tau( 311) = (   0.6482991   0.6785877   1.2330670  )
       312        O      tau( 312) = (   0.4832983   0.6325017   1.6039613  )
       313        O      tau( 313) = (   0.7361349   0.0571749   1.8732737  )
       314        O      tau( 314) = (   0.6649925   0.8590630   1.7336776  )
       315        O      tau( 315) = (   0.9130296   0.2721061   1.4159943  )
       316        O      tau( 316) = (   0.6511009   0.5989696   1.3506902  )
       317        O      tau( 317) = (   0.8131240   0.0898692   1.2825970  )
       318        O      tau( 318) = (   0.6524595   0.1336951   1.7108949  )
       319        O      tau( 319) = (   0.6784211   0.5695802   1.4690337  )
       320        O      tau( 320) = (   0.9018920   0.2183548   1.6834522  )
       321        O      tau( 321) = (   0.9678130   0.0358255   1.7940055  )
       322        O      tau( 322) = (   0.8368182   0.5391156   1.6776043  )
       323        O      tau( 323) = (   0.7668768   0.6856661   1.8697035  )
       324        O      tau( 324) = (   0.1531671   0.9301796   1.8945654  )
       325        O      tau( 325) = (   0.2178402   0.7542098   1.5177838  )
       326        O      tau( 326) = (   0.3614324   0.0782581   1.4600024  )
       327        O      tau( 327) = (   0.4053368   0.0766386   1.5793453  )
       328        O      tau( 328) = (   0.3320739   0.8564650   1.8828345  )
       329        O      tau( 329) = (   0.0914304   0.8126101   1.4681485  )
       330        O      tau( 330) = (   0.2416337   0.7445048   1.2588964  )
       331        O      tau( 331) = (   0.8232583   0.9617889   1.3373563  )
       332        O      tau( 332) = (   0.0224173   0.1103921   1.3331986  )
       333        O      tau( 333) = (   0.0827261   0.7743688   1.7158336  )
       334        O      tau( 334) = (   0.3058372   0.3697607   1.3216954  )
       335        O      tau( 335) = (   0.6940744   0.4843818   1.3763524  )
       336        O      tau( 336) = (   0.0505520   0.3569640   1.2588409  )
       337        O      tau( 337) = (   0.6956442   0.5556100   1.2255199  )
       338        O      tau( 338) = (   0.9205918   0.8444316   1.2442634  )
       339        Al     tau( 339) = (   0.9474166   0.9984982   1.4171699  )
       340        Al     tau( 340) = (   0.7317137   0.2651324   1.2660316  )
       341        C      tau( 341) = (   0.5214378   0.4015461   0.5285444  )
       342        C      tau( 342) = (   0.4479569   0.3909766   0.5155965  )
       343        C      tau( 343) = (   0.5653175   0.3422400   0.5407820  )
       344        C      tau( 344) = (   0.4205128   0.3214128   0.5152824  )
       345        C      tau( 345) = (   0.5488767   0.4711092   0.5288577  )
       346        C      tau( 346) = (   0.4040833   0.4502831   0.5033546  )
       347        C      tau( 347) = (   0.5371518   0.2734980   0.5402662  )
       348        C      tau( 348) = (   0.4648892   0.2631047   0.5275437  )
       349        C      tau( 349) = (   0.5045065   0.5294176   0.5165921  )
       350        C      tau( 350) = (   0.4322510   0.5190244   0.5038600  )
       351        H      tau( 351) = (   0.6219558   0.3491057   0.5508406  )
       352        H      tau( 352) = (   0.3641909   0.3120316   0.5054503  )
       353        H      tau( 353) = (   0.6051969   0.4804959   0.5386945  )
       354        H      tau( 354) = (   0.3474366   0.4434151   0.4932838  )
       355        H      tau( 355) = (   0.5716658   0.2280845   0.5498112  )
       356        H      tau( 356) = (   0.4429953   0.2095720   0.5271483  )
       357        H      tau( 357) = (   0.5264020   0.5829447   0.5169827  )
       358        H      tau( 358) = (   0.3977363   0.5644431   0.4943146  )

     number of k points=     1  Gaussian smearing, width (Ry)=  0.0100
                       cart. coord. in units 2pi/alat
        k(    1) = (   0.0000000   0.0000000   0.0000000), wk =   2.0000000

     Dense  grid: 15943719 G-vectors     FFT dimensions: ( 216, 216, 675)

     Smooth grid: 13361281 G-vectors     FFT dimensions: ( 216, 216, 625)

     Estimated max dynamical RAM per process >       4.14 GB

     Estimated total dynamical RAM >     331.13 GB

     Check: negative core charge=   -0.000001

     Initial potential from superposition of free atoms

     starting charge    1871.8703, renormalised to    1872.0000

     negative rho (up, down):  4.165E-02 0.000E+00
     Starting wfcs are 1419 randomized atomic wfcs
     Checking if some PAW data can be deallocated... 

     total cpu time spent up to now is      148.6 secs

     per-process dynamical memory:  1754.0 Mb

     Self-consistent Calculation

     iteration #  1     ecut=    80.00 Ry     beta= 0.10
     Davidson diagonalization with overlap
     ethr =  1.00E-02,  avg # of iterations =  3.0

     negative rho (up, down):  4.371E-02 0.000E+00

     total cpu time spent up to now is      632.3 secs

     total energy              =  -11693.37299793 Ry
     estimated scf accuracy    <     115.60960063 Ry

     iteration #  2     ecut=    80.00 Ry     beta= 0.10
     Davidson diagonalization with overlap
     ethr =  6.18E-03,  avg # of iterations =  1.0

     negative rho (up, down):  4.542E-02 0.000E+00

     total cpu time spent up to now is      916.2 secs

     total energy              =  -11688.10851007 Ry
     estimated scf accuracy    <      84.83981294 Ry

     iteration #  3     ecut=    80.00 Ry     beta= 0.10
     Davidson diagonalization with overlap
     ethr =  4.53E-03,  avg # of iterations =  1.0

     negative rho (up, down):  4.727E-02 0.000E+00

     total cpu time spent up to now is     1200.7 secs

     total energy              =  -11681.50198276 Ry
     estimated scf accuracy    <      59.19931443 Ry

     iteration #  4     ecut=    80.00 Ry     beta= 0.10
     Davidson diagonalization with overlap
     ethr =  3.16E-03,  avg # of iterations =  2.0

     negative rho (up, down):  4.836E-02 0.000E+00

     total cpu time spent up to now is     1521.2 secs

     total energy              =  -11682.82265867 Ry
     estimated scf accuracy    <      60.36897085 Ry

     iteration #  5     ecut=    80.00 Ry     beta= 0.10
     Davidson diagonalization with overlap
     ethr =  3.16E-03,  avg # of iterations =  1.0

     negative rho (up, down):  4.949E-02 0.000E+00

     total cpu time spent up to now is     1807.3 secs

     total energy              =  -11682.19875367 Ry
     estimated scf accuracy    <      39.49174783 Ry

     iteration #  6     ecut=    80.00 Ry     beta= 0.10
     Davidson diagonalization with overlap
     ethr =  2.11E-03,  avg # of iterations =  1.0

     negative rho (up, down):  5.035E-02 0.000E+00

     total cpu time spent up to now is     2091.7 secs

     total energy              =  -11682.42801293 Ry
     estimated scf accuracy    <      26.84273474 Ry

     iteration #  7     ecut=    80.00 Ry     beta= 0.10
     Davidson diagonalization with overlap
     ethr =  1.43E-03,  avg # of iterations =  2.0

     negative rho (up, down):  5.117E-02 0.000E+00

     total cpu time spent up to now is     2409.6 secs

     total energy              =  -11682.17324301 Ry
     estimated scf accuracy    <      34.78625149 Ry

     iteration #  8     ecut=    80.00 Ry     beta= 0.10
     Davidson diagonalization with overlap
     ethr =  1.43E-03,  avg # of iterations =  1.0

     negative rho (up, down):  5.175E-02 0.000E+00

     total cpu time spent up to now is     2693.3 secs

     total energy              =  -11682.31174019 Ry
     estimated scf accuracy    <      18.92054291 Ry

     iteration #  9     ecut=    80.00 Ry     beta= 0.10
     Davidson diagonalization with overlap
     ethr =  1.01E-03,  avg # of iterations =  2.0

     negative rho (up, down):  5.235E-02 0.000E+00

     total cpu time spent up to now is     3010.8 secs

     total energy              =  -11682.13473192 Ry
     estimated scf accuracy    <      18.53180807 Ry

     iteration # 10     ecut=    80.00 Ry     beta= 0.10
     Davidson diagonalization with overlap
     ethr =  9.90E-04,  avg # of iterations =  1.0

     negative rho (up, down):  5.286E-02 0.000E+00

     total cpu time spent up to now is     3294.1 secs

     total energy              =  -11682.14892749 Ry
     estimated scf accuracy    <      12.80398898 Ry

     iteration # 11     ecut=    80.00 Ry     beta= 0.10
     Davidson diagonalization with overlap
     ethr =  6.84E-04,  avg # of iterations =  2.0

     negative rho (up, down):  5.321E-02 0.000E+00

     total cpu time spent up to now is     3612.2 secs

     total energy              =  -11682.04583587 Ry
     estimated scf accuracy    <      21.71518925 Ry

     iteration # 12     ecut=    80.00 Ry     beta= 0.10
     Davidson diagonalization with overlap
     ethr =  6.84E-04,  avg # of iterations =  2.0

     negative rho (up, down):  5.350E-02 0.000E+00

     total cpu time spent up to now is     3929.8 secs

     total energy              =  -11682.31757381 Ry
     estimated scf accuracy    <       4.88514796 Ry

     iteration # 13     ecut=    80.00 Ry     beta= 0.10
     Davidson diagonalization with overlap
     ethr =  2.61E-04,  avg # of iterations = 16.0

     negative rho (up, down):  5.392E-02 0.000E+00

     total cpu time spent up to now is     4369.5 secs

     total energy              =  -11682.21188799 Ry
     estimated scf accuracy    <       5.64327474 Ry

     iteration # 14     ecut=    80.00 Ry     beta= 0.10
     Davidson diagonalization with overlap
     ethr =  2.61E-04,  avg # of iterations =  1.0

     negative rho (up, down):  5.447E-02 0.000E+00

     total cpu time spent up to now is     4652.4 secs

     total energy              =  -11682.10081534 Ry
     estimated scf accuracy    <       4.71342309 Ry

     iteration # 15     ecut=    80.00 Ry     beta= 0.10
     Davidson diagonalization with overlap
     ethr =  2.52E-04,  avg # of iterations =  1.0

     negative rho (up, down):  5.445E-02 0.000E+00

     total cpu time spent up to now is     4936.4 secs

     total energy              =  -11681.89614006 Ry
     estimated scf accuracy    <      18.61703831 Ry

     iteration # 16     ecut=    80.00 Ry     beta= 0.10
     Davidson diagonalization with overlap
     ethr =  2.52E-04,  avg # of iterations =  2.0

     negative rho (up, down):  5.482E-02 0.000E+00

     total cpu time spent up to now is     5254.1 secs

     total energy              =  -11682.13158079 Ry
     estimated scf accuracy    <       3.66227131 Ry

     iteration # 17     ecut=    80.00 Ry     beta= 0.10
     Davidson diagonalization with overlap
     ethr =  1.96E-04,  avg # of iterations =  1.0

     negative rho (up, down):  5.537E-02 0.000E+00

     total cpu time spent up to now is     5538.0 secs

     total energy              =  -11682.07157305 Ry
     estimated scf accuracy    <       3.56140240 Ry

     iteration # 18     ecut=    80.00 Ry     beta= 0.10
     Davidson diagonalization with overlap
     ethr =  1.90E-04,  avg # of iterations =  2.0

     negative rho (up, down):  5.534E-02 0.000E+00

     total cpu time spent up to now is     5855.6 secs

     total energy              =  -11681.94510980 Ry
     estimated scf accuracy    <       8.62068970 Ry

     iteration # 19     ecut=    80.00 Ry     beta= 0.10
     Davidson diagonalization with overlap
     ethr =  1.90E-04,  avg # of iterations =  2.0

     negative rho (up, down):  5.560E-02 0.000E+00

     total cpu time spent up to now is     6172.2 secs

     total energy              =  -11682.11772303 Ry
     estimated scf accuracy    <       2.84295397 Ry

     iteration # 20     ecut=    80.00 Ry     beta= 0.10
     Davidson diagonalization with overlap
     ethr =  1.52E-04,  avg # of iterations =  1.0

     negative rho (up, down):  5.603E-02 0.000E+00

     total cpu time spent up to now is     6456.2 secs

     total energy              =  -11682.06898401 Ry
     estimated scf accuracy    <       2.98330500 Ry

     iteration # 21     ecut=    80.00 Ry     beta= 0.10
     Davidson diagonalization with overlap
     ethr =  1.52E-04,  avg # of iterations =  1.0

     negative rho (up, down):  5.622E-02 0.000E+00

     total cpu time spent up to now is     6739.2 secs

     total energy              =  -11681.99339671 Ry
     estimated scf accuracy    <      10.19673979 Ry

     iteration # 22     ecut=    80.00 Ry     beta= 0.10
     Davidson diagonalization with overlap
     ethr =  1.52E-04,  avg # of iterations =  1.0

     negative rho (up, down):  5.628E-02 0.000E+00

     total cpu time spent up to now is     7022.9 secs

     total energy              =  -11682.03050547 Ry
     estimated scf accuracy    <       9.95769900 Ry

     iteration # 23     ecut=    80.00 Ry     beta= 0.10
     Davidson diagonalization with overlap
     ethr =  1.52E-04,  avg # of iterations =  1.0

     negative rho (up, down):  5.631E-02 0.000E+00

     total cpu time spent up to now is     7306.6 secs

     total energy              =  -11682.08404733 Ry
     estimated scf accuracy    <       3.33283557 Ry

     iteration # 24     ecut=    80.00 Ry     beta= 0.10
     Davidson diagonalization with overlap
     ethr =  1.52E-04,  avg # of iterations =  1.0

     negative rho (up, down):  5.682E-02 0.000E+00

     total cpu time spent up to now is     7590.5 secs

     total energy              =  -11682.06720597 Ry
     estimated scf accuracy    <       4.07017908 Ry

     iteration # 25     ecut=    80.00 Ry     beta= 0.10
     Davidson diagonalization with overlap
     ethr =  1.52E-04,  avg # of iterations =  1.0

     negative rho (up, down):  5.686E-02 0.000E+00

     total cpu time spent up to now is     7874.0 secs

     total energy              =  -11682.07055167 Ry
     estimated scf accuracy    <       2.79975797 Ry

     iteration # 26     ecut=    80.00 Ry     beta= 0.10
     Davidson diagonalization with overlap
     ethr =  1.50E-04,  avg # of iterations =  1.0

     negative rho (up, down):  5.698E-02 0.000E+00

     total cpu time spent up to now is     8157.0 secs

     total energy              =  -11682.08105360 Ry
     estimated scf accuracy    <       1.75549824 Ry

     iteration # 27     ecut=    80.00 Ry     beta= 0.10
     Davidson diagonalization with overlap
     ethr =  9.38E-05,  avg # of iterations =  1.0

     negative rho (up, down):  5.776E-02 0.000E+00

     total cpu time spent up to now is     8440.3 secs

     total energy              =  -11682.06592576 Ry
     estimated scf accuracy    <       1.89060162 Ry

     iteration # 28     ecut=    80.00 Ry     beta= 0.10
     Davidson diagonalization with overlap
     ethr =  9.38E-05,  avg # of iterations =  1.0

     negative rho (up, down):  5.717E-02 0.000E+00

     total cpu time spent up to now is     8723.4 secs

     total energy              =  -11681.98797221 Ry
     estimated scf accuracy    <       6.22312772 Ry

     iteration # 29     ecut=    80.00 Ry     beta= 0.10
     Davidson diagonalization with overlap
     ethr =  9.38E-05,  avg # of iterations =  1.0

     negative rho (up, down):  5.737E-02 0.000E+00

     total cpu time spent up to now is     9006.9 secs

     total energy              =  -11682.08003767 Ry
     estimated scf accuracy    <       3.63353901 Ry

     iteration # 30     ecut=    80.00 Ry     beta= 0.10
     Davidson diagonalization with overlap
     ethr =  9.38E-05,  avg # of iterations =  1.0

     negative rho (up, down):  5.759E-02 0.000E+00

     total cpu time spent up to now is     9291.3 secs

     total energy              =  -11682.09356042 Ry
     estimated scf accuracy    <       0.76895462 Ry

     iteration # 31     ecut=    80.00 Ry     beta= 0.10
     Davidson diagonalization with overlap
     ethr =  4.11E-05,  avg # of iterations =  1.0

     negative rho (up, down):  5.777E-02 0.000E+00

     total cpu time spent up to now is     9574.7 secs

     total energy              =  -11682.08825743 Ry
     estimated scf accuracy    <       1.70650065 Ry

     iteration # 32     ecut=    80.00 Ry     beta= 0.10
     Davidson diagonalization with overlap
     ethr =  4.11E-05,  avg # of iterations =  1.0

     negative rho (up, down):  5.798E-02 0.000E+00

     total cpu time spent up to now is     9858.0 secs

     total energy              =  -11682.08081033 Ry
     estimated scf accuracy    <       1.15215651 Ry

     iteration # 33     ecut=    80.00 Ry     beta= 0.10
     Davidson diagonalization with overlap
     ethr =  4.11E-05,  avg # of iterations =  1.0

     negative rho (up, down):  5.776E-02 0.000E+00

     total cpu time spent up to now is    10141.3 secs

     total energy              =  -11682.05873036 Ry
     estimated scf accuracy    <       4.93610345 Ry

     iteration # 34     ecut=    80.00 Ry     beta= 0.10
     Davidson diagonalization with overlap
     ethr =  4.11E-05,  avg # of iterations =  1.0

     negative rho (up, down):  5.805E-02 0.000E+00

     total cpu time spent up to now is    10425.6 secs

     total energy              =  -11682.08592829 Ry
     estimated scf accuracy    <       1.49687558 Ry

     iteration # 35     ecut=    80.00 Ry     beta= 0.10
     Davidson diagonalization with overlap
     ethr =  4.11E-05,  avg # of iterations =  1.0

     negative rho (up, down):  5.808E-02 0.000E+00

     total cpu time spent up to now is    10709.7 secs

     total energy              =  -11682.08465264 Ry
     estimated scf accuracy    <       1.89666489 Ry

     iteration # 36     ecut=    80.00 Ry     beta= 0.10
     Davidson diagonalization with overlap
     ethr =  4.11E-05,  avg # of iterations =  1.0

     negative rho (up, down):  5.818E-02 0.000E+00

     total cpu time spent up to now is    10993.6 secs

     total energy              =  -11682.09533196 Ry
     estimated scf accuracy    <       0.69391811 Ry

     iteration # 37     ecut=    80.00 Ry     beta= 0.10
     Davidson diagonalization with overlap
     ethr =  3.71E-05,  avg # of iterations =  2.0

     negative rho (up, down):  5.884E-02 0.000E+00

     total cpu time spent up to now is    11310.4 secs

     total energy              =  -11682.09269983 Ry
     estimated scf accuracy    <       0.37170227 Ry

     iteration # 38     ecut=    80.00 Ry     beta= 0.10
     Davidson diagonalization with overlap
     c_bands:  2 eigenvalues not converged
     ethr =  1.99E-05,  avg # of iterations = 20.0

     negative rho (up, down):  5.828E-02 0.000E+00

     total cpu time spent up to now is    11739.4 secs

     total energy              =  -11682.06108178 Ry
     estimated scf accuracy    <       2.07925782 Ry

     iteration # 39     ecut=    80.00 Ry     beta= 0.10
     Davidson diagonalization with overlap
     ethr =  1.99E-05,  avg # of iterations =  1.0

     negative rho (up, down):  5.839E-02 0.000E+00

     total cpu time spent up to now is    12022.8 secs

     total energy              =  -11682.08523643 Ry
     estimated scf accuracy    <       2.16587843 Ry

     iteration # 40     ecut=    80.00 Ry     beta= 0.10
     Davidson diagonalization with overlap
     ethr =  1.99E-05,  avg # of iterations =  1.0

     negative rho (up, down):  5.846E-02 0.000E+00

     total cpu time spent up to now is    12306.8 secs

     total energy              =  -11682.09799422 Ry
     estimated scf accuracy    <       0.33302224 Ry

     iteration # 41     ecut=    80.00 Ry     beta= 0.10
     Davidson diagonalization with overlap
     ethr =  1.78E-05,  avg # of iterations =  1.0

     negative rho (up, down):  5.856E-02 0.000E+00

     total cpu time spent up to now is    12590.7 secs

     total energy              =  -11682.09953440 Ry
     estimated scf accuracy    <       0.33013378 Ry

     iteration # 42     ecut=    80.00 Ry     beta= 0.10
     Davidson diagonalization with overlap
     ethr =  1.76E-05,  avg # of iterations =  1.0

     negative rho (up, down):  5.879E-02 0.000E+00

     total cpu time spent up to now is    12874.8 secs

     total energy              =  -11682.10034764 Ry
     estimated scf accuracy    <       0.23825463 Ry

     iteration # 43     ecut=    80.00 Ry     beta= 0.10
     Davidson diagonalization with overlap
     ethr =  1.27E-05,  avg # of iterations =  1.0

     negative rho (up, down):  5.860E-02 0.000E+00

     total cpu time spent up to now is    13159.0 secs

     total energy              =  -11682.09541769 Ry
     estimated scf accuracy    <       0.37691294 Ry

     iteration # 44     ecut=    80.00 Ry     beta= 0.10
     Davidson diagonalization with overlap
     ethr =  1.27E-05,  avg # of iterations =  1.0

     negative rho (up, down):  5.893E-02 0.000E+00

     total cpu time spent up to now is    13442.2 secs

     total energy              =  -11682.09545247 Ry
     estimated scf accuracy    <       1.04431345 Ry

     iteration # 45     ecut=    80.00 Ry     beta= 0.10
     Davidson diagonalization with overlap
     ethr =  1.27E-05,  avg # of iterations =  1.0

     negative rho (up, down):  5.876E-02 0.000E+00

     total cpu time spent up to now is    13725.1 secs

     total energy              =  -11682.09554891 Ry
     estimated scf accuracy    <       0.42859383 Ry

     iteration # 46     ecut=    80.00 Ry     beta= 0.10
     Davidson diagonalization with overlap
     ethr =  1.27E-05,  avg # of iterations =  1.0

     negative rho (up, down):  5.883E-02 0.000E+00

     total cpu time spent up to now is    14008.6 secs

     total energy              =  -11682.09792556 Ry
     estimated scf accuracy    <       0.58723959 Ry

     iteration # 47     ecut=    80.00 Ry     beta= 0.10
     Davidson diagonalization with overlap
     ethr =  1.27E-05,  avg # of iterations =  1.0

     negative rho (up, down):  5.924E-02 0.000E+00

     total cpu time spent up to now is    14292.2 secs

     total energy              =  -11682.10072987 Ry
     estimated scf accuracy    <       0.16163212 Ry

     iteration # 48     ecut=    80.00 Ry     beta= 0.10
     Davidson diagonalization with overlap
     ethr =  8.63E-06,  avg # of iterations =  1.0

     negative rho (up, down):  5.917E-02 0.000E+00

     total cpu time spent up to now is    14575.6 secs

     total energy              =  -11682.09322359 Ry
     estimated scf accuracy    <       0.67935682 Ry

     iteration # 49     ecut=    80.00 Ry     beta= 0.10
     Davidson diagonalization with overlap
     ethr =  8.63E-06,  avg # of iterations =  1.0

     negative rho (up, down):  5.904E-02 0.000E+00

     total cpu time spent up to now is    14858.7 secs

     total energy              =  -11682.09238041 Ry
     estimated scf accuracy    <       1.34988757 Ry

     iteration # 50     ecut=    80.00 Ry     beta= 0.10
     Davidson diagonalization with overlap
     ethr =  8.63E-06,  avg # of iterations =  1.0

     negative rho (up, down):  5.901E-02 0.000E+00

     total cpu time spent up to now is    15142.1 secs

     total energy              =  -11682.09736760 Ry
     estimated scf accuracy    <       0.52419816 Ry

     iteration # 51     ecut=    80.00 Ry     beta= 0.10
     Davidson diagonalization with overlap
     ethr =  8.63E-06,  avg # of iterations =  1.0

     negative rho (up, down):  5.904E-02 0.000E+00

     total cpu time spent up to now is    15425.8 secs

     total energy              =  -11682.10002250 Ry
     estimated scf accuracy    <       0.39292306 Ry

     iteration # 52     ecut=    80.00 Ry     beta= 0.10
     Davidson diagonalization with overlap
     ethr =  8.63E-06,  avg # of iterations =  1.0

     negative rho (up, down):  5.913E-02 0.000E+00

     total cpu time spent up to now is    15709.6 secs

     total energy              =  -11682.10242468 Ry
     estimated scf accuracy    <       0.08093817 Ry

     iteration # 53     ecut=    80.00 Ry     beta= 0.10
     Davidson diagonalization with overlap
     ethr =  4.32E-06,  avg # of iterations =  1.0

     negative rho (up, down):  5.913E-02 0.000E+00

     total cpu time spent up to now is    15992.9 secs

     total energy              =  -11682.10191250 Ry
     estimated scf accuracy    <       0.10907996 Ry

     iteration # 54     ecut=    80.00 Ry     beta= 0.10
     Davidson diagonalization with overlap
     ethr =  4.32E-06,  avg # of iterations =  1.0

     negative rho (up, down):  5.919E-02 0.000E+00

     total cpu time spent up to now is    16275.4 secs

     total energy              =  -11682.10216563 Ry
     estimated scf accuracy    <       0.14695718 Ry

     iteration # 55     ecut=    80.00 Ry     beta= 0.10
     Davidson diagonalization with overlap
     ethr =  4.32E-06,  avg # of iterations =  1.0

     negative rho (up, down):  5.919E-02 0.000E+00

     total cpu time spent up to now is    16558.7 secs

     total energy              =  -11682.10182164 Ry
     estimated scf accuracy    <       0.22286058 Ry

     iteration # 56     ecut=    80.00 Ry     beta= 0.10
     Davidson diagonalization with overlap
     ethr =  4.32E-06,  avg # of iterations =  1.0

     negative rho (up, down):  5.920E-02 0.000E+00

     total cpu time spent up to now is    16841.9 secs

     total energy              =  -11682.10300119 Ry
     estimated scf accuracy    <       0.06918476 Ry

     iteration # 57     ecut=    80.00 Ry     beta= 0.10
     Davidson diagonalization with overlap
     ethr =  3.70E-06,  avg # of iterations =  1.0

     negative rho (up, down):  5.927E-02 0.000E+00

     total cpu time spent up to now is    17125.7 secs

     total energy              =  -11682.10308584 Ry
     estimated scf accuracy    <       0.02065311 Ry

     iteration # 58     ecut=    80.00 Ry     beta= 0.10
     Davidson diagonalization with overlap
     ethr =  1.10E-06,  avg # of iterations =  2.0

     negative rho (up, down):  5.932E-02 0.000E+00

     total cpu time spent up to now is    17443.0 secs

     total energy              =  -11682.10190260 Ry
     estimated scf accuracy    <       0.18090911 Ry

     iteration # 59     ecut=    80.00 Ry     beta= 0.10
     Davidson diagonalization with overlap
     ethr =  1.10E-06,  avg # of iterations =  2.0

     negative rho (up, down):  5.936E-02 0.000E+00

     total cpu time spent up to now is    17760.3 secs

     total energy              =  -11682.10371390 Ry
     estimated scf accuracy    <       0.01953163 Ry

     iteration # 60     ecut=    80.00 Ry     beta= 0.10
     Davidson diagonalization with overlap
     ethr =  1.04E-06,  avg # of iterations =  1.0

     negative rho (up, down):  5.935E-02 0.000E+00

     total cpu time spent up to now is    18043.7 secs

     total energy              =  -11682.10318830 Ry
     estimated scf accuracy    <       0.04647808 Ry

     iteration # 61     ecut=    80.00 Ry     beta= 0.10
     Davidson diagonalization with overlap
     ethr =  1.04E-06,  avg # of iterations =  1.0

     negative rho (up, down):  5.932E-02 0.000E+00

     total cpu time spent up to now is    18327.3 secs

     total energy              =  -11682.10194941 Ry
     estimated scf accuracy    <       0.22068633 Ry

     iteration # 62     ecut=    80.00 Ry     beta= 0.10
     Davidson diagonalization with overlap
     ethr =  1.04E-06,  avg # of iterations =  1.0

     negative rho (up, down):  5.936E-02 0.000E+00

     total cpu time spent up to now is    18611.3 secs

     total energy              =  -11682.10285929 Ry
     estimated scf accuracy    <       0.12477133 Ry

     iteration # 63     ecut=    80.00 Ry     beta= 0.10
     Davidson diagonalization with overlap
     ethr =  1.04E-06,  avg # of iterations =  1.0

     negative rho (up, down):  5.939E-02 0.000E+00

     total cpu time spent up to now is    18895.7 secs

     total energy              =  -11682.10357404 Ry
     estimated scf accuracy    <       0.07775841 Ry

     iteration # 64     ecut=    80.00 Ry     beta= 0.10
     Davidson diagonalization with overlap
     ethr =  1.04E-06,  avg # of iterations =  1.0

     negative rho (up, down):  5.946E-02 0.000E+00

     total cpu time spent up to now is    19178.9 secs

     total energy              =  -11682.10384783 Ry
     estimated scf accuracy    <       0.05092261 Ry

     iteration # 65     ecut=    80.00 Ry     beta= 0.10
     Davidson diagonalization with overlap
     ethr =  1.04E-06,  avg # of iterations =  1.0

     negative rho (up, down):  5.943E-02 0.000E+00

     total cpu time spent up to now is    19461.9 secs

     total energy              =  -11682.10348532 Ry
     estimated scf accuracy    <       0.09957364 Ry

     iteration # 66     ecut=    80.00 Ry     beta= 0.10
     Davidson diagonalization with overlap
     ethr =  1.04E-06,  avg # of iterations =  1.0

     negative rho (up, down):  5.941E-02 0.000E+00

     total cpu time spent up to now is    19746.4 secs

     total energy              =  -11682.10371828 Ry
     estimated scf accuracy    <       0.05924661 Ry

     iteration # 67     ecut=    80.00 Ry     beta= 0.10
     Davidson diagonalization with overlap
     ethr =  1.04E-06,  avg # of iterations =  1.0

     negative rho (up, down):  5.946E-02 0.000E+00

     total cpu time spent up to now is    20029.9 secs

     total energy              =  -11682.10424328 Ry
     estimated scf accuracy    <       0.00913966 Ry

     iteration # 68     ecut=    80.00 Ry     beta= 0.10
     Davidson diagonalization with overlap
     ethr =  4.88E-07,  avg # of iterations =  1.0

     negative rho (up, down):  5.947E-02 0.000E+00

     total cpu time spent up to now is    20313.9 secs

     total energy              =  -11682.10419017 Ry
     estimated scf accuracy    <       0.01506863 Ry

     iteration # 69     ecut=    80.00 Ry     beta= 0.10
     Davidson diagonalization with overlap
     ethr =  4.88E-07,  avg # of iterations =  1.0

     negative rho (up, down):  5.950E-02 0.000E+00

     total cpu time spent up to now is    20598.0 secs

     total energy              =  -11682.10433424 Ry
     estimated scf accuracy    <       0.00775736 Ry

     iteration # 70     ecut=    80.00 Ry     beta= 0.10
     Davidson diagonalization with overlap
     ethr =  4.14E-07,  avg # of iterations =  1.0

     negative rho (up, down):  5.955E-02 0.000E+00

     total cpu time spent up to now is    20882.2 secs

     total energy              =  -11682.10444976 Ry
     estimated scf accuracy    <       0.00739598 Ry

     iteration # 71     ecut=    80.00 Ry     beta= 0.10
     Davidson diagonalization with overlap
     ethr =  3.95E-07,  avg # of iterations =  1.0

     negative rho (up, down):  5.954E-02 0.000E+00

     total cpu time spent up to now is    21165.6 secs

     total energy              =  -11682.10405020 Ry
     estimated scf accuracy    <       0.04964338 Ry

     iteration # 72     ecut=    80.00 Ry     beta= 0.10
     Davidson diagonalization with overlap
     ethr =  3.95E-07,  avg # of iterations =  1.0

     negative rho (up, down):  5.953E-02 0.000E+00

     total cpu time spent up to now is    21451.2 secs

     total energy              =  -11682.10408115 Ry
     estimated scf accuracy    <       0.04042130 Ry

     iteration # 73     ecut=    80.00 Ry     beta= 0.10
     Davidson diagonalization with overlap
     ethr =  3.95E-07,  avg # of iterations =  1.0

     negative rho (up, down):  5.956E-02 0.000E+00

     total cpu time spent up to now is    21736.0 secs

     total energy              =  -11682.10427050 Ry
     estimated scf accuracy    <       0.04414085 Ry

     iteration # 74     ecut=    80.00 Ry     beta= 0.10
     Davidson diagonalization with overlap
     ethr =  3.95E-07,  avg # of iterations =  1.0

     negative rho (up, down):  5.962E-02 0.000E+00

     total cpu time spent up to now is    22019.7 secs

     total energy              =  -11682.10448815 Ry
     estimated scf accuracy    <       0.02521966 Ry

     iteration # 75     ecut=    80.00 Ry     beta= 0.10
     Davidson diagonalization with overlap
     ethr =  3.95E-07,  avg # of iterations =  1.0

     negative rho (up, down):  5.959E-02 0.000E+00

     total cpu time spent up to now is    22303.1 secs

     total energy              =  -11682.10433727 Ry
     estimated scf accuracy    <       0.03184636 Ry

     iteration # 76     ecut=    80.00 Ry     beta= 0.10
     Davidson diagonalization with overlap
     ethr =  3.95E-07,  avg # of iterations =  1.0

     negative rho (up, down):  5.955E-02 0.000E+00

     total cpu time spent up to now is    22586.6 secs

     total energy              =  -11682.10424203 Ry
     estimated scf accuracy    <       0.03568187 Ry

     iteration # 77     ecut=    80.00 Ry     beta= 0.10
     Davidson diagonalization with overlap
     ethr =  3.95E-07,  avg # of iterations =  1.0

     negative rho (up, down):  5.962E-02 0.000E+00

     total cpu time spent up to now is    22872.4 secs

     total energy              =  -11682.10455032 Ry
     estimated scf accuracy    <       0.01377495 Ry

     iteration # 78     ecut=    80.00 Ry     beta= 0.10
     Davidson diagonalization with overlap
     ethr =  3.95E-07,  avg # of iterations =  1.0

     negative rho (up, down):  5.961E-02 0.000E+00

     total cpu time spent up to now is    23155.9 secs

     total energy              =  -11682.10454878 Ry
     estimated scf accuracy    <       0.00854008 Ry

     iteration # 79     ecut=    80.00 Ry     beta= 0.10
     Davidson diagonalization with overlap
     ethr =  3.95E-07,  avg # of iterations =  1.0

     negative rho (up, down):  5.962E-02 0.000E+00

     total cpu time spent up to now is    23439.6 secs

     total energy              =  -11682.10463462 Ry
     estimated scf accuracy    <       0.00554715 Ry

     iteration # 80     ecut=    80.00 Ry     beta= 0.10
     Davidson diagonalization with overlap
     ethr =  2.96E-07,  avg # of iterations =  1.0

     negative rho (up, down):  5.966E-02 0.000E+00

     total cpu time spent up to now is    23723.2 secs

     total energy              =  -11682.10473411 Ry
     estimated scf accuracy    <       0.00362384 Ry

     iteration # 81     ecut=    80.00 Ry     beta= 0.10
     Davidson diagonalization with overlap
     ethr =  1.94E-07,  avg # of iterations =  1.0

     negative rho (up, down):  5.967E-02 0.000E+00

     total cpu time spent up to now is    24006.4 secs

     total energy              =  -11682.10468954 Ry
     estimated scf accuracy    <       0.00646055 Ry

     iteration # 82     ecut=    80.00 Ry     beta= 0.10
     Davidson diagonalization with overlap
     ethr =  1.94E-07,  avg # of iterations =  1.0

     negative rho (up, down):  5.966E-02 0.000E+00

     total cpu time spent up to now is    24290.3 secs

     total energy              =  -11682.10460663 Ry
     estimated scf accuracy    <       0.01525336 Ry

     iteration # 83     ecut=    80.00 Ry     beta= 0.10
     Davidson diagonalization with overlap
     ethr =  1.94E-07,  avg # of iterations =  1.0

     negative rho (up, down):  5.967E-02 0.000E+00

     total cpu time spent up to now is    24574.2 secs

     total energy              =  -11682.10466183 Ry
     estimated scf accuracy    <       0.01709649 Ry

     iteration # 84     ecut=    80.00 Ry     beta= 0.10
     Davidson diagonalization with overlap
     ethr =  1.94E-07,  avg # of iterations =  1.0

     negative rho (up, down):  5.971E-02 0.000E+00

     total cpu time spent up to now is    24857.1 secs

     total energy              =  -11682.10478640 Ry
     estimated scf accuracy    <       0.00529634 Ry

     iteration # 85     ecut=    80.00 Ry     beta= 0.10
     Davidson diagonalization with overlap
     ethr =  1.94E-07,  avg # of iterations =  1.0

     negative rho (up, down):  5.969E-02 0.000E+00

     total cpu time spent up to now is    25140.5 secs

     total energy              =  -11682.10472322 Ry
     estimated scf accuracy    <       0.01030870 Ry

     iteration # 86     ecut=    80.00 Ry     beta= 0.10
     Davidson diagonalization with overlap
     ethr =  1.94E-07,  avg # of iterations =  1.0

     negative rho (up, down):  5.968E-02 0.000E+00

     total cpu time spent up to now is    25426.2 secs

     total energy              =  -11682.10460449 Ry
     estimated scf accuracy    <       0.02502601 Ry

     iteration # 87     ecut=    80.00 Ry     beta= 0.10
     Davidson diagonalization with overlap
     ethr =  1.94E-07,  avg # of iterations =  1.0

     negative rho (up, down):  5.971E-02 0.000E+00

     total cpu time spent up to now is    25709.9 secs

     total energy              =  -11682.10472260 Ry
     estimated scf accuracy    <       0.01236956 Ry

     iteration # 88     ecut=    80.00 Ry     beta= 0.10
     Davidson diagonalization with overlap
     ethr =  1.94E-07,  avg # of iterations =  1.0

     negative rho (up, down):  5.972E-02 0.000E+00

     total cpu time spent up to now is    25993.4 secs

     total energy              =  -11682.10478143 Ry
     estimated scf accuracy    <       0.00546617 Ry

     iteration # 89     ecut=    80.00 Ry     beta= 0.10
     Davidson diagonalization with overlap
     ethr =  1.94E-07,  avg # of iterations =  1.0

     negative rho (up, down):  5.971E-02 0.000E+00

     total cpu time spent up to now is    26277.1 secs

     total energy              =  -11682.10479936 Ry
     estimated scf accuracy    <       0.00327931 Ry

     iteration # 90     ecut=    80.00 Ry     beta= 0.10
     Davidson diagonalization with overlap
     ethr =  1.75E-07,  avg # of iterations =  1.0

     negative rho (up, down):  5.974E-02 0.000E+00

     total cpu time spent up to now is    26560.9 secs

     total energy              =  -11682.10486297 Ry
     estimated scf accuracy    <       0.00199092 Ry

     iteration # 91     ecut=    80.00 Ry     beta= 0.10
     Davidson diagonalization with overlap
     ethr =  1.06E-07,  avg # of iterations =  1.0

     negative rho (up, down):  5.975E-02 0.000E+00

     total cpu time spent up to now is    26844.9 secs

     total energy              =  -11682.10486815 Ry
     estimated scf accuracy    <       0.00183814 Ry

     iteration # 92     ecut=    80.00 Ry     beta= 0.10
     Davidson diagonalization with overlap
     ethr =  9.82E-08,  avg # of iterations =  1.0

     negative rho (up, down):  5.974E-02 0.000E+00

     total cpu time spent up to now is    27128.1 secs

     total energy              =  -11682.10483802 Ry
     estimated scf accuracy    <       0.00391751 Ry

     iteration # 93     ecut=    80.00 Ry     beta= 0.10
     Davidson diagonalization with overlap
     ethr =  9.82E-08,  avg # of iterations =  1.0

     negative rho (up, down):  5.975E-02 0.000E+00

     total cpu time spent up to now is    27412.3 secs

     total energy              =  -11682.10484498 Ry
     estimated scf accuracy    <       0.00572233 Ry

     iteration # 94     ecut=    80.00 Ry     beta= 0.10
     Davidson diagonalization with overlap
     ethr =  9.82E-08,  avg # of iterations =  1.0

     negative rho (up, down):  5.977E-02 0.000E+00

     total cpu time spent up to now is    27695.5 secs

     total energy              =  -11682.10489441 Ry
     estimated scf accuracy    <       0.00188865 Ry

     iteration # 95     ecut=    80.00 Ry     beta= 0.10
     Davidson diagonalization with overlap
     ethr =  9.82E-08,  avg # of iterations =  1.0

     negative rho (up, down):  5.977E-02 0.000E+00

     total cpu time spent up to now is    27979.1 secs

     total energy              =  -11682.10489094 Ry
     estimated scf accuracy    <       0.00284634 Ry

     iteration # 96     ecut=    80.00 Ry     beta= 0.10
     Davidson diagonalization with overlap
     ethr =  9.82E-08,  avg # of iterations =  1.0

     negative rho (up, down):  5.979E-02 0.000E+00

     total cpu time spent up to now is    28262.7 secs

     total energy              =  -11682.10486592 Ry
     estimated scf accuracy    <       0.00963421 Ry

     iteration # 97     ecut=    80.00 Ry     beta= 0.10
     Davidson diagonalization with overlap
     ethr =  9.82E-08,  avg # of iterations =  1.0

     negative rho (up, down):  5.980E-02 0.000E+00

     total cpu time spent up to now is    28546.6 secs

     total energy              =  -11682.10485521 Ry
     estimated scf accuracy    <       0.00858472 Ry

     iteration # 98     ecut=    80.00 Ry     beta= 0.10
     Davidson diagonalization with overlap
     ethr =  9.82E-08,  avg # of iterations =  1.0

     negative rho (up, down):  5.979E-02 0.000E+00

     total cpu time spent up to now is    28830.4 secs

     total energy              =  -11682.10489952 Ry
     estimated scf accuracy    <       0.00276144 Ry

     iteration # 99     ecut=    80.00 Ry     beta= 0.10
     Davidson diagonalization with overlap
     ethr =  9.82E-08,  avg # of iterations =  1.0

     negative rho (up, down):  5.978E-02 0.000E+00

     total cpu time spent up to now is    29114.1 secs

     total energy              =  -11682.10489137 Ry
     estimated scf accuracy    <       0.00210887 Ry

     iteration #100     ecut=    80.00 Ry     beta= 0.10
     Davidson diagonalization with overlap
     ethr =  9.82E-08,  avg # of iterations =  1.0

     negative rho (up, down):  5.980E-02 0.000E+00

     total cpu time spent up to now is    29397.9 secs

     total energy              =  -11682.10493046 Ry
     estimated scf accuracy    <       0.00219511 Ry

     iteration #101     ecut=    80.00 Ry     beta= 0.10
     Davidson diagonalization with overlap
     ethr =  9.82E-08,  avg # of iterations =  1.0

     negative rho (up, down):  5.981E-02 0.000E+00

     total cpu time spent up to now is    29681.8 secs

     total energy              =  -11682.10494434 Ry
     estimated scf accuracy    <       0.00115168 Ry

     iteration #102     ecut=    80.00 Ry     beta= 0.10
     Davidson diagonalization with overlap
     ethr =  6.15E-08,  avg # of iterations =  1.0

     negative rho (up, down):  5.981E-02 0.000E+00

     total cpu time spent up to now is    29965.8 secs

     total energy              =  -11682.10493604 Ry
     estimated scf accuracy    <       0.00160457 Ry

     iteration #103     ecut=    80.00 Ry     beta= 0.10
     Davidson diagonalization with overlap
     ethr =  6.15E-08,  avg # of iterations =  1.0

     negative rho (up, down):  5.981E-02 0.000E+00

     total cpu time spent up to now is    30248.9 secs

     total energy              =  -11682.10492691 Ry
     estimated scf accuracy    <       0.00341512 Ry

     iteration #104     ecut=    80.00 Ry     beta= 0.10
     Davidson diagonalization with overlap
     ethr =  6.15E-08,  avg # of iterations =  1.0

     negative rho (up, down):  5.982E-02 0.000E+00

     total cpu time spent up to now is    30532.7 secs

     total energy              =  -11682.10495270 Ry
     estimated scf accuracy    <       0.00110337 Ry

     iteration #105     ecut=    80.00 Ry     beta= 0.10
     Davidson diagonalization with overlap
     ethr =  5.89E-08,  avg # of iterations =  1.0

     negative rho (up, down):  5.983E-02 0.000E+00

     total cpu time spent up to now is    30816.2 secs

     total energy              =  -11682.10496149 Ry
     estimated scf accuracy    <       0.00090787 Ry

     iteration #106     ecut=    80.00 Ry     beta= 0.10
     Davidson diagonalization with overlap
     ethr =  4.85E-08,  avg # of iterations =  1.0

     negative rho (up, down):  5.985E-02 0.000E+00

     total cpu time spent up to now is    31098.8 secs

     total energy              =  -11682.10496945 Ry
     estimated scf accuracy    <       0.00239410 Ry

     iteration #107     ecut=    80.00 Ry     beta= 0.10
     Davidson diagonalization with overlap
     ethr =  4.85E-08,  avg # of iterations =  1.0

     negative rho (up, down):  5.985E-02 0.000E+00

     total cpu time spent up to now is    31382.2 secs

     total energy              =  -11682.10496429 Ry
     estimated scf accuracy    <       0.00175704 Ry

     iteration #108     ecut=    80.00 Ry     beta= 0.10
     Davidson diagonalization with overlap
     ethr =  4.85E-08,  avg # of iterations =  1.0

     negative rho (up, down):  5.985E-02 0.000E+00

     total cpu time spent up to now is    31665.4 secs

     total energy              =  -11682.10496871 Ry
     estimated scf accuracy    <       0.00093294 Ry

     iteration #109     ecut=    80.00 Ry     beta= 0.10
     Davidson diagonalization with overlap
     ethr =  4.85E-08,  avg # of iterations =  1.0

     negative rho (up, down):  5.984E-02 0.000E+00

     total cpu time spent up to now is    31948.1 secs

     total energy              =  -11682.10495569 Ry
     estimated scf accuracy    <       0.00117788 Ry

     iteration #110     ecut=    80.00 Ry     beta= 0.10
     Davidson diagonalization with overlap
     ethr =  4.85E-08,  avg # of iterations =  1.0

     negative rho (up, down):  5.986E-02 0.000E+00

     total cpu time spent up to now is    32231.9 secs

     total energy              =  -11682.10496532 Ry
     estimated scf accuracy    <       0.00263337 Ry

     iteration #111     ecut=    80.00 Ry     beta= 0.10
     Davidson diagonalization with overlap
     ethr =  4.85E-08,  avg # of iterations =  1.0

     negative rho (up, down):  5.987E-02 0.000E+00

     total cpu time spent up to now is    32515.3 secs

     total energy              =  -11682.10498706 Ry
     estimated scf accuracy    <       0.00086598 Ry

     iteration #112     ecut=    80.00 Ry     beta= 0.10
     Davidson diagonalization with overlap
     ethr =  4.63E-08,  avg # of iterations =  1.0

     negative rho (up, down):  5.987E-02 0.000E+00

     total cpu time spent up to now is    32799.0 secs

     total energy              =  -11682.10498492 Ry
     estimated scf accuracy    <       0.00109697 Ry

     iteration #113     ecut=    80.00 Ry     beta= 0.10
     Davidson diagonalization with overlap
     ethr =  4.63E-08,  avg # of iterations =  1.0

     negative rho (up, down):  5.986E-02 0.000E+00

     total cpu time spent up to now is    33082.6 secs

     total energy              =  -11682.10497333 Ry
     estimated scf accuracy    <       0.00245203 Ry

     iteration #114     ecut=    80.00 Ry     beta= 0.10
     Davidson diagonalization with overlap
     ethr =  4.63E-08,  avg # of iterations =  1.0

     negative rho (up, down):  5.986E-02 0.000E+00

     total cpu time spent up to now is    33366.9 secs

     total energy              =  -11682.10498403 Ry
     estimated scf accuracy    <       0.00099537 Ry

     iteration #115     ecut=    80.00 Ry     beta= 0.10
     Davidson diagonalization with overlap
     ethr =  4.63E-08,  avg # of iterations =  1.0

     negative rho (up, down):  5.987E-02 0.000E+00

     total cpu time spent up to now is    33652.2 secs

     total energy              =  -11682.10499422 Ry
     estimated scf accuracy    <       0.00061680 Ry

     iteration #116     ecut=    80.00 Ry     beta= 0.10
     Davidson diagonalization with overlap
     ethr =  3.29E-08,  avg # of iterations =  1.0

     negative rho (up, down):  5.988E-02 0.000E+00

     total cpu time spent up to now is    33935.6 secs

     total energy              =  -11682.10500135 Ry
     estimated scf accuracy    <       0.00046166 Ry

     iteration #117     ecut=    80.00 Ry     beta= 0.10
     Davidson diagonalization with overlap
     ethr =  2.47E-08,  avg # of iterations =  1.0

     negative rho (up, down):  5.988E-02 0.000E+00

     total cpu time spent up to now is    34219.5 secs

     total energy              =  -11682.10499901 Ry
     estimated scf accuracy    <       0.00044312 Ry

     iteration #118     ecut=    80.00 Ry     beta= 0.10
     Davidson diagonalization with overlap
     ethr =  2.37E-08,  avg # of iterations =  1.0

     negative rho (up, down):  5.988E-02 0.000E+00

     total cpu time spent up to now is    34502.7 secs

     total energy              =  -11682.10500120 Ry
     estimated scf accuracy    <       0.00034952 Ry

     iteration #119     ecut=    80.00 Ry     beta= 0.10
     Davidson diagonalization with overlap
     ethr =  1.87E-08,  avg # of iterations =  1.0

     negative rho (up, down):  5.989E-02 0.000E+00

     total cpu time spent up to now is    34786.5 secs

     total energy              =  -11682.10500114 Ry
     estimated scf accuracy    <       0.00035974 Ry

     iteration #120     ecut=    80.00 Ry     beta= 0.10
     Davidson diagonalization with overlap
     ethr =  1.87E-08,  avg # of iterations =  1.0

     negative rho (up, down):  5.989E-02 0.000E+00

     total cpu time spent up to now is    35069.4 secs

     total energy              =  -11682.10499758 Ry
     estimated scf accuracy    <       0.00119775 Ry

     iteration #121     ecut=    80.00 Ry     beta= 0.10
     Davidson diagonalization with overlap
     ethr =  1.87E-08,  avg # of iterations =  1.0

     negative rho (up, down):  5.990E-02 0.000E+00

     total cpu time spent up to now is    35352.1 secs

     total energy              =  -11682.10500892 Ry
     estimated scf accuracy    <       0.00050902 Ry

     iteration #122     ecut=    80.00 Ry     beta= 0.10
     Davidson diagonalization with overlap
     ethr =  1.87E-08,  avg # of iterations =  1.0

     negative rho (up, down):  5.991E-02 0.000E+00

     total cpu time spent up to now is    35635.5 secs

     total energy              =  -11682.10501092 Ry
     estimated scf accuracy    <       0.00049375 Ry

     iteration #123     ecut=    80.00 Ry     beta= 0.10
     Davidson diagonalization with overlap
     ethr =  1.87E-08,  avg # of iterations =  1.0

     negative rho (up, down):  5.990E-02 0.000E+00

     total cpu time spent up to now is    35918.6 secs

     total energy              =  -11682.10500376 Ry
     estimated scf accuracy    <       0.00121367 Ry

     iteration #124     ecut=    80.00 Ry     beta= 0.10
     Davidson diagonalization with overlap
     ethr =  1.87E-08,  avg # of iterations =  1.0

     negative rho (up, down):  5.989E-02 0.000E+00

     total cpu time spent up to now is    36201.7 secs

     total energy              =  -11682.10500140 Ry
     estimated scf accuracy    <       0.00077978 Ry

     iteration #125     ecut=    80.00 Ry     beta= 0.10
     Davidson diagonalization with overlap
     ethr =  1.87E-08,  avg # of iterations =  1.0

     negative rho (up, down):  5.990E-02 0.000E+00

     total cpu time spent up to now is    36485.1 secs

     total energy              =  -11682.10500968 Ry
     estimated scf accuracy    <       0.00071793 Ry

     iteration #126     ecut=    80.00 Ry     beta= 0.10
     Davidson diagonalization with overlap
     ethr =  1.87E-08,  avg # of iterations =  1.0

     negative rho (up, down):  5.991E-02 0.000E+00

     total cpu time spent up to now is    36769.1 secs

     total energy              =  -11682.10501478 Ry
     estimated scf accuracy    <       0.00029880 Ry

     iteration #127     ecut=    80.00 Ry     beta= 0.10
     Davidson diagonalization with overlap
     ethr =  1.60E-08,  avg # of iterations =  1.0

     negative rho (up, down):  5.991E-02 0.000E+00

     total cpu time spent up to now is    37052.3 secs

     total energy              =  -11682.10501446 Ry
     estimated scf accuracy    <       0.00022660 Ry

     iteration #128     ecut=    80.00 Ry     beta= 0.10
     Davidson diagonalization with overlap
     ethr =  1.21E-08,  avg # of iterations =  1.0

     negative rho (up, down):  5.991E-02 0.000E+00

     total cpu time spent up to now is    37335.4 secs

     total energy              =  -11682.10501549 Ry
     estimated scf accuracy    <       0.00017947 Ry

     iteration #129     ecut=    80.00 Ry     beta= 0.10
     Davidson diagonalization with overlap
     ethr =  9.59E-09,  avg # of iterations =  1.0

     negative rho (up, down):  5.992E-02 0.000E+00

     total cpu time spent up to now is    37617.6 secs

     total energy              =  -11682.10501857 Ry
     estimated scf accuracy    <       0.00012122 Ry

     iteration #130     ecut=    80.00 Ry     beta= 0.10
     Davidson diagonalization with overlap
     ethr =  6.48E-09,  avg # of iterations =  1.0

     negative rho (up, down):  5.992E-02 0.000E+00

     total cpu time spent up to now is    37901.2 secs

     total energy              =  -11682.10501640 Ry
     estimated scf accuracy    <       0.00031789 Ry

     iteration #131     ecut=    80.00 Ry     beta= 0.10
     Davidson diagonalization with overlap
     ethr =  6.48E-09,  avg # of iterations =  1.0

     negative rho (up, down):  5.992E-02 0.000E+00

     total cpu time spent up to now is    38185.0 secs

     total energy              =  -11682.10502002 Ry
     estimated scf accuracy    <       0.00022898 Ry

     iteration #132     ecut=    80.00 Ry     beta= 0.10
     Davidson diagonalization with overlap
     ethr =  6.48E-09,  avg # of iterations =  1.0

     negative rho (up, down):  5.993E-02 0.000E+00

     total cpu time spent up to now is    38468.7 secs

     total energy              =  -11682.10502193 Ry
     estimated scf accuracy    <       0.00017776 Ry

     iteration #133     ecut=    80.00 Ry     beta= 0.10
     Davidson diagonalization with overlap
     ethr =  6.48E-09,  avg # of iterations =  1.0

     negative rho (up, down):  5.993E-02 0.000E+00

     total cpu time spent up to now is    38751.6 secs

     total energy              =  -11682.10502042 Ry
     estimated scf accuracy    <       0.00041676 Ry

     iteration #134     ecut=    80.00 Ry     beta= 0.10
     Davidson diagonalization with overlap
     ethr =  6.48E-09,  avg # of iterations =  1.0

     negative rho (up, down):  5.992E-02 0.000E+00

     total cpu time spent up to now is    39035.4 secs

     total energy              =  -11682.10501420 Ry
     estimated scf accuracy    <       0.00037567 Ry

     iteration #135     ecut=    80.00 Ry     beta= 0.10
     Davidson diagonalization with overlap
     ethr =  6.48E-09,  avg # of iterations =  1.0

     negative rho (up, down):  5.993E-02 0.000E+00

     total cpu time spent up to now is    39318.8 secs

     total energy              =  -11682.10501748 Ry
     estimated scf accuracy    <       0.00100037 Ry

     iteration #136     ecut=    80.00 Ry     beta= 0.10
     Davidson diagonalization with overlap
     ethr =  6.48E-09,  avg # of iterations =  1.0

     negative rho (up, down):  5.993E-02 0.000E+00

     total cpu time spent up to now is    39602.2 secs

     total energy              =  -11682.10502222 Ry
     estimated scf accuracy    <       0.00030644 Ry

     iteration #137     ecut=    80.00 Ry     beta= 0.10
     Davidson diagonalization with overlap
     ethr =  6.48E-09,  avg # of iterations =  1.0

     negative rho (up, down):  5.993E-02 0.000E+00

     total cpu time spent up to now is    39885.8 secs

     total energy              =  -11682.10502277 Ry
     estimated scf accuracy    <       0.00015104 Ry

     iteration #138     ecut=    80.00 Ry     beta= 0.10
     Davidson diagonalization with overlap
     ethr =  6.48E-09,  avg # of iterations =  1.0

     negative rho (up, down):  5.993E-02 0.000E+00

     total cpu time spent up to now is    40168.7 secs

     total energy              =  -11682.10502308 Ry
     estimated scf accuracy    <       0.00011962 Ry

     iteration #139     ecut=    80.00 Ry     beta= 0.10
     Davidson diagonalization with overlap
     ethr =  6.39E-09,  avg # of iterations =  1.0

     negative rho (up, down):  5.994E-02 0.000E+00

     total cpu time spent up to now is    40452.0 secs

     total energy              =  -11682.10502536 Ry
     estimated scf accuracy    <       0.00006422 Ry

     iteration #140     ecut=    80.00 Ry     beta= 0.10
     Davidson diagonalization with overlap
     ethr =  3.43E-09,  avg # of iterations =  1.0

     negative rho (up, down):  5.994E-02 0.000E+00

     total cpu time spent up to now is    40736.0 secs

     total energy              =  -11682.10502442 Ry
     estimated scf accuracy    <       0.00009449 Ry

     iteration #141     ecut=    80.00 Ry     beta= 0.10
     Davidson diagonalization with overlap
     ethr =  3.43E-09,  avg # of iterations =  1.0

     negative rho (up, down):  5.994E-02 0.000E+00

     total cpu time spent up to now is    41018.3 secs

     total energy              =  -11682.10502557 Ry
     estimated scf accuracy    <       0.00010557 Ry

     iteration #142     ecut=    80.00 Ry     beta= 0.10
     Davidson diagonalization with overlap
     ethr =  3.43E-09,  avg # of iterations =  1.0

     negative rho (up, down):  5.994E-02 0.000E+00

     total cpu time spent up to now is    41302.2 secs

     total energy              =  -11682.10502689 Ry
     estimated scf accuracy    <       0.00005254 Ry

     iteration #143     ecut=    80.00 Ry     beta= 0.10
     Davidson diagonalization with overlap
     ethr =  2.81E-09,  avg # of iterations =  1.0

     negative rho (up, down):  5.995E-02 0.000E+00

     total cpu time spent up to now is    41585.3 secs

     total energy              =  -11682.10502706 Ry
     estimated scf accuracy    <       0.00011447 Ry

     iteration #144     ecut=    80.00 Ry     beta= 0.10
     Davidson diagonalization with overlap
     ethr =  2.81E-09,  avg # of iterations =  1.0

     negative rho (up, down):  5.994E-02 0.000E+00

     total cpu time spent up to now is    41869.9 secs

     total energy              =  -11682.10502411 Ry
     estimated scf accuracy    <       0.00012113 Ry

     iteration #145     ecut=    80.00 Ry     beta= 0.10
     Davidson diagonalization with overlap
     ethr =  2.81E-09,  avg # of iterations =  1.0

     negative rho (up, down):  5.994E-02 0.000E+00

     total cpu time spent up to now is    42153.7 secs

     total energy              =  -11682.10502259 Ry
     estimated scf accuracy    <       0.00100122 Ry

     iteration #146     ecut=    80.00 Ry     beta= 0.10
     Davidson diagonalization with overlap
     ethr =  2.81E-09,  avg # of iterations =  1.0

     negative rho (up, down):  5.995E-02 0.000E+00

     total cpu time spent up to now is    42436.9 secs

     total energy              =  -11682.10502661 Ry
     estimated scf accuracy    <       0.00022637 Ry

     iteration #147     ecut=    80.00 Ry     beta= 0.10
     Davidson diagonalization with overlap
     ethr =  2.81E-09,  avg # of iterations =  1.0

     negative rho (up, down):  5.995E-02 0.000E+00

     total cpu time spent up to now is    42720.2 secs

     total energy              =  -11682.10502746 Ry
     estimated scf accuracy    <       0.00008649 Ry

     iteration #148     ecut=    80.00 Ry     beta= 0.10
     Davidson diagonalization with overlap
     ethr =  2.81E-09,  avg # of iterations =  1.0

     negative rho (up, down):  5.995E-02 0.000E+00

     total cpu time spent up to now is    43003.6 secs

     total energy              =  -11682.10502727 Ry
     estimated scf accuracy    <       0.00007561 Ry

     iteration #149     ecut=    80.00 Ry     beta= 0.10
     Davidson diagonalization with overlap
     ethr =  2.81E-09,  avg # of iterations =  1.0

     negative rho (up, down):  5.995E-02 0.000E+00

     total cpu time spent up to now is    43286.7 secs

     total energy              =  -11682.10502874 Ry
     estimated scf accuracy    <       0.00004287 Ry

     iteration #150     ecut=    80.00 Ry     beta= 0.10
     Davidson diagonalization with overlap
     ethr =  2.29E-09,  avg # of iterations =  1.0

     negative rho (up, down):  5.995E-02 0.000E+00

     total cpu time spent up to now is    43569.6 secs

     total energy              =  -11682.10502827 Ry
     estimated scf accuracy    <       0.00004157 Ry

     iteration #151     ecut=    80.00 Ry     beta= 0.10
     Davidson diagonalization with overlap
     ethr =  2.22E-09,  avg # of iterations =  1.0

     negative rho (up, down):  5.995E-02 0.000E+00

     total cpu time spent up to now is    43853.5 secs

     total energy              =  -11682.10502857 Ry
     estimated scf accuracy    <       0.00006157 Ry

     iteration #152     ecut=    80.00 Ry     beta= 0.10
     Davidson diagonalization with overlap
     ethr =  2.22E-09,  avg # of iterations =  1.0

     negative rho (up, down):  5.995E-02 0.000E+00

     total cpu time spent up to now is    44136.3 secs

     total energy              =  -11682.10502932 Ry
     estimated scf accuracy    <       0.00002101 Ry

     iteration #153     ecut=    80.00 Ry     beta= 0.10
     Davidson diagonalization with overlap
     ethr =  1.12E-09,  avg # of iterations =  1.0

     negative rho (up, down):  5.996E-02 0.000E+00

     total cpu time spent up to now is    44421.1 secs

     total energy              =  -11682.10502969 Ry
     estimated scf accuracy    <       0.00003135 Ry

     iteration #154     ecut=    80.00 Ry     beta= 0.10
     Davidson diagonalization with overlap
     ethr =  1.12E-09,  avg # of iterations =  1.0

     negative rho (up, down):  5.996E-02 0.000E+00

     total cpu time spent up to now is    44704.7 secs

     total energy              =  -11682.10502941 Ry
     estimated scf accuracy    <       0.00003336 Ry

     iteration #155     ecut=    80.00 Ry     beta= 0.10
     Davidson diagonalization with overlap
     ethr =  1.12E-09,  avg # of iterations =  1.0

     negative rho (up, down):  5.996E-02 0.000E+00

     total cpu time spent up to now is    44988.5 secs

     total energy              =  -11682.10502756 Ry
     estimated scf accuracy    <       0.00048625 Ry

     iteration #156     ecut=    80.00 Ry     beta= 0.10
     Davidson diagonalization with overlap
     ethr =  1.12E-09,  avg # of iterations =  1.0

     negative rho (up, down):  5.996E-02 0.000E+00

     total cpu time spent up to now is    45271.7 secs

     total energy              =  -11682.10502938 Ry
     estimated scf accuracy    <       0.00010236 Ry

     iteration #157     ecut=    80.00 Ry     beta= 0.10
     Davidson diagonalization with overlap
     ethr =  1.12E-09,  avg # of iterations =  1.0

     negative rho (up, down):  5.996E-02 0.000E+00

     total cpu time spent up to now is    45554.4 secs

     total energy              =  -11682.10502992 Ry
     estimated scf accuracy    <       0.00004239 Ry

     iteration #158     ecut=    80.00 Ry     beta= 0.10
     Davidson diagonalization with overlap
     ethr =  1.12E-09,  avg # of iterations =  1.0

     negative rho (up, down):  5.996E-02 0.000E+00

     total cpu time spent up to now is    45837.8 secs

     total energy              =  -11682.10502974 Ry
     estimated scf accuracy    <       0.00004161 Ry

     iteration #159     ecut=    80.00 Ry     beta= 0.10
     Davidson diagonalization with overlap
     ethr =  1.12E-09,  avg # of iterations =  1.0

     negative rho (up, down):  5.996E-02 0.000E+00

     total cpu time spent up to now is    46121.7 secs

     total energy              =  -11682.10503048 Ry
     estimated scf accuracy    <       0.00003256 Ry

     iteration #160     ecut=    80.00 Ry     beta= 0.10
     Davidson diagonalization with overlap
     ethr =  1.12E-09,  avg # of iterations =  1.0

     negative rho (up, down):  5.996E-02 0.000E+00

     total cpu time spent up to now is    46405.0 secs

     total energy              =  -11682.10503036 Ry
     estimated scf accuracy    <       0.00002255 Ry

     iteration #161     ecut=    80.00 Ry     beta= 0.10
     Davidson diagonalization with overlap
     ethr =  1.12E-09,  avg # of iterations =  1.0

     negative rho (up, down):  5.996E-02 0.000E+00

     total cpu time spent up to now is    46688.8 secs

     total energy              =  -11682.10503019 Ry
     estimated scf accuracy    <       0.00004875 Ry

     iteration #162     ecut=    80.00 Ry     beta= 0.10
     Davidson diagonalization with overlap
     ethr =  1.12E-09,  avg # of iterations =  1.0

     negative rho (up, down):  5.996E-02 0.000E+00

     total cpu time spent up to now is    46971.9 secs

     total energy              =  -11682.10503070 Ry
     estimated scf accuracy    <       0.00001515 Ry

     iteration #163     ecut=    80.00 Ry     beta= 0.10
     Davidson diagonalization with overlap
     ethr =  8.09E-10,  avg # of iterations =  1.0

     negative rho (up, down):  5.996E-02 0.000E+00

     total cpu time spent up to now is    47255.6 secs

     total energy              =  -11682.10503094 Ry
     estimated scf accuracy    <       0.00001327 Ry

     iteration #164     ecut=    80.00 Ry     beta= 0.10
     Davidson diagonalization with overlap
     ethr =  7.09E-10,  avg # of iterations =  1.0

     negative rho (up, down):  5.997E-02 0.000E+00

     total cpu time spent up to now is    47538.9 secs

     total energy              =  -11682.10503123 Ry
     estimated scf accuracy    <       0.00001161 Ry

     iteration #165     ecut=    80.00 Ry     beta= 0.10
     Davidson diagonalization with overlap
     ethr =  6.20E-10,  avg # of iterations =  1.0

     negative rho (up, down):  5.997E-02 0.000E+00

     total cpu time spent up to now is    47822.3 secs

     total energy              =  -11682.10503059 Ry
     estimated scf accuracy    <       0.00010935 Ry

     iteration #166     ecut=    80.00 Ry     beta= 0.10
     Davidson diagonalization with overlap
     ethr =  6.20E-10,  avg # of iterations =  1.0

     negative rho (up, down):  5.997E-02 0.000E+00

     total cpu time spent up to now is    48106.8 secs

     total energy              =  -11682.10503088 Ry
     estimated scf accuracy    <       0.00003952 Ry

     iteration #167     ecut=    80.00 Ry     beta= 0.10
     Davidson diagonalization with overlap
     ethr =  6.20E-10,  avg # of iterations =  1.0

     negative rho (up, down):  5.997E-02 0.000E+00

     total cpu time spent up to now is    48391.0 secs

     total energy              =  -11682.10503118 Ry
     estimated scf accuracy    <       0.00002029 Ry

     iteration #168     ecut=    80.00 Ry     beta= 0.10
     Davidson diagonalization with overlap
     ethr =  6.20E-10,  avg # of iterations =  1.0

     negative rho (up, down):  5.997E-02 0.000E+00

     total cpu time spent up to now is    48676.4 secs

     total energy              =  -11682.10503116 Ry
     estimated scf accuracy    <       0.00001954 Ry

     iteration #169     ecut=    80.00 Ry     beta= 0.10
     Davidson diagonalization with overlap
     ethr =  6.20E-10,  avg # of iterations =  1.0

     negative rho (up, down):  5.997E-02 0.000E+00

     total cpu time spent up to now is    48959.7 secs

     total energy              =  -11682.10503141 Ry
     estimated scf accuracy    <       0.00002081 Ry

     iteration #170     ecut=    80.00 Ry     beta= 0.10
     Davidson diagonalization with overlap
     ethr =  6.20E-10,  avg # of iterations =  1.0

     negative rho (up, down):  5.997E-02 0.000E+00

     total cpu time spent up to now is    49245.9 secs

     total energy              =  -11682.10503150 Ry
     estimated scf accuracy    <       0.00001114 Ry

     iteration #171     ecut=    80.00 Ry     beta= 0.10
     Davidson diagonalization with overlap
     ethr =  5.95E-10,  avg # of iterations =  1.0

     negative rho (up, down):  5.997E-02 0.000E+00

     total cpu time spent up to now is    49529.7 secs

     total energy              =  -11682.10503120 Ry
     estimated scf accuracy    <       0.00003295 Ry

     iteration #172     ecut=    80.00 Ry     beta= 0.10
     Davidson diagonalization with overlap
     ethr =  5.95E-10,  avg # of iterations =  1.0

     negative rho (up, down):  5.997E-02 0.000E+00

     total cpu time spent up to now is    49813.7 secs

     total energy              =  -11682.10503145 Ry
     estimated scf accuracy    <       0.00001505 Ry

     iteration #173     ecut=    80.00 Ry     beta= 0.10
     Davidson diagonalization with overlap
     ethr =  5.95E-10,  avg # of iterations =  1.0

     negative rho (up, down):  5.997E-02 0.000E+00

     total cpu time spent up to now is    50097.0 secs

     total energy              =  -11682.10503162 Ry
     estimated scf accuracy    <       0.00001195 Ry

     iteration #174     ecut=    80.00 Ry     beta= 0.10
     Davidson diagonalization with overlap
     ethr =  5.95E-10,  avg # of iterations =  1.0

     negative rho (up, down):  5.997E-02 0.000E+00

     total cpu time spent up to now is    50380.3 secs

     total energy              =  -11682.10503187 Ry
     estimated scf accuracy    <       0.00000661 Ry

     iteration #175     ecut=    80.00 Ry     beta= 0.10
     Davidson diagonalization with overlap
     ethr =  3.53E-10,  avg # of iterations =  1.0

     negative rho (up, down):  5.997E-02 0.000E+00

     total cpu time spent up to now is    50663.9 secs

     total energy              =  -11682.10503165 Ry
     estimated scf accuracy    <       0.00002298 Ry

     iteration #176     ecut=    80.00 Ry     beta= 0.10
     Davidson diagonalization with overlap
     ethr =  3.53E-10,  avg # of iterations =  1.0

     negative rho (up, down):  5.997E-02 0.000E+00

     total cpu time spent up to now is    50947.8 secs

     total energy              =  -11682.10503163 Ry
     estimated scf accuracy    <       0.00002252 Ry

     iteration #177     ecut=    80.00 Ry     beta= 0.10
     Davidson diagonalization with overlap
     ethr =  3.53E-10,  avg # of iterations =  1.0

     negative rho (up, down):  5.997E-02 0.000E+00

     total cpu time spent up to now is    51230.7 secs

     total energy              =  -11682.10503177 Ry
     estimated scf accuracy    <       0.00001292 Ry

     iteration #178     ecut=    80.00 Ry     beta= 0.10
     Davidson diagonalization with overlap
     ethr =  3.53E-10,  avg # of iterations =  1.0

     negative rho (up, down):  5.997E-02 0.000E+00

     total cpu time spent up to now is    51514.6 secs

     total energy              =  -11682.10503191 Ry
     estimated scf accuracy    <       0.00000561 Ry

     iteration #179     ecut=    80.00 Ry     beta= 0.10
     Davidson diagonalization with overlap
     ethr =  3.00E-10,  avg # of iterations =  1.0

     negative rho (up, down):  5.997E-02 0.000E+00

     total cpu time spent up to now is    51800.3 secs

     total energy              =  -11682.10503192 Ry
     estimated scf accuracy    <       0.00000924 Ry

     iteration #180     ecut=    80.00 Ry     beta= 0.10
     Davidson diagonalization with overlap
     ethr =  3.00E-10,  avg # of iterations =  1.0

     negative rho (up, down):  5.998E-02 0.000E+00

     total cpu time spent up to now is    52083.8 secs

     total energy              =  -11682.10503205 Ry
     estimated scf accuracy    <       0.00000473 Ry

     iteration #181     ecut=    80.00 Ry     beta= 0.10
     Davidson diagonalization with overlap
     ethr =  2.53E-10,  avg # of iterations =  1.0

     negative rho (up, down):  5.997E-02 0.000E+00

     total cpu time spent up to now is    52366.9 secs

     total energy              =  -11682.10503189 Ry
     estimated scf accuracy    <       0.00001428 Ry

     iteration #182     ecut=    80.00 Ry     beta= 0.10
     Davidson diagonalization with overlap
     ethr =  2.53E-10,  avg # of iterations =  1.0

     negative rho (up, down):  5.997E-02 0.000E+00

     total cpu time spent up to now is    52650.9 secs

     total energy              =  -11682.10503190 Ry
     estimated scf accuracy    <       0.00001201 Ry

     iteration #183     ecut=    80.00 Ry     beta= 0.10
     Davidson diagonalization with overlap
     ethr =  2.53E-10,  avg # of iterations =  1.0

     negative rho (up, down):  5.998E-02 0.000E+00

     total cpu time spent up to now is    52933.1 secs

     total energy              =  -11682.10503198 Ry
     estimated scf accuracy    <       0.00001240 Ry

     iteration #184     ecut=    80.00 Ry     beta= 0.10
     Davidson diagonalization with overlap
     ethr =  2.53E-10,  avg # of iterations =  1.0

     negative rho (up, down):  5.998E-02 0.000E+00

     total cpu time spent up to now is    53217.2 secs

     total energy              =  -11682.10503217 Ry
     estimated scf accuracy    <       0.00000516 Ry

     iteration #185     ecut=    80.00 Ry     beta= 0.10
     Davidson diagonalization with overlap
     ethr =  2.53E-10,  avg # of iterations =  1.0

     negative rho (up, down):  5.998E-02 0.000E+00

     total cpu time spent up to now is    53499.6 secs

     total energy              =  -11682.10503208 Ry
     estimated scf accuracy    <       0.00000945 Ry

     iteration #186     ecut=    80.00 Ry     beta= 0.10
     Davidson diagonalization with overlap
     ethr =  2.53E-10,  avg # of iterations =  1.0

     negative rho (up, down):  5.998E-02 0.000E+00

     total cpu time spent up to now is    53783.6 secs

     total energy              =  -11682.10503205 Ry
     estimated scf accuracy    <       0.00001218 Ry

     iteration #187     ecut=    80.00 Ry     beta= 0.10
     Davidson diagonalization with overlap
     ethr =  2.53E-10,  avg # of iterations =  1.0

     negative rho (up, down):  5.998E-02 0.000E+00

     total cpu time spent up to now is    54067.8 secs

     total energy              =  -11682.10503210 Ry
     estimated scf accuracy    <       0.00000836 Ry

     iteration #188     ecut=    80.00 Ry     beta= 0.10
     Davidson diagonalization with overlap
     ethr =  2.53E-10,  avg # of iterations =  1.0

     negative rho (up, down):  5.998E-02 0.000E+00

     total cpu time spent up to now is    54350.5 secs

     total energy              =  -11682.10503220 Ry
     estimated scf accuracy    <       0.00000290 Ry

     iteration #189     ecut=    80.00 Ry     beta= 0.10
     Davidson diagonalization with overlap
     ethr =  1.55E-10,  avg # of iterations =  1.0

     negative rho (up, down):  5.998E-02 0.000E+00

     total cpu time spent up to now is    54633.9 secs

     total energy              =  -11682.10503219 Ry
     estimated scf accuracy    <       0.00000362 Ry

     iteration #190     ecut=    80.00 Ry     beta= 0.10
     Davidson diagonalization with overlap
     ethr =  1.55E-10,  avg # of iterations =  1.0

     negative rho (up, down):  5.998E-02 0.000E+00

     total cpu time spent up to now is    54917.1 secs

     total energy              =  -11682.10503227 Ry
     estimated scf accuracy    <       0.00000190 Ry

     iteration #191     ecut=    80.00 Ry     beta= 0.10
     Davidson diagonalization with overlap
     ethr =  1.01E-10,  avg # of iterations =  1.0

     negative rho (up, down):  5.998E-02 0.000E+00

     total cpu time spent up to now is    55200.7 secs

     total energy              =  -11682.10503224 Ry
     estimated scf accuracy    <       0.00000453 Ry

     iteration #192     ecut=    80.00 Ry     beta= 0.10
     Davidson diagonalization with overlap
     ethr =  1.01E-10,  avg # of iterations =  1.0

     negative rho (up, down):  5.998E-02 0.000E+00

     total cpu time spent up to now is    55484.2 secs

     total energy              =  -11682.10503219 Ry
     estimated scf accuracy    <       0.00000573 Ry

     iteration #193     ecut=    80.00 Ry     beta= 0.10
     Davidson diagonalization with overlap
     ethr =  1.01E-10,  avg # of iterations =  1.0

     negative rho (up, down):  5.998E-02 0.000E+00

     total cpu time spent up to now is    55767.7 secs

     total energy              =  -11682.10503219 Ry
     estimated scf accuracy    <       0.00001003 Ry

     iteration #194     ecut=    80.00 Ry     beta= 0.10
     Davidson diagonalization with overlap
     ethr =  1.01E-10,  avg # of iterations =  1.0

     negative rho (up, down):  5.998E-02 0.000E+00

     total cpu time spent up to now is    56050.7 secs

     total energy              =  -11682.10503230 Ry
     estimated scf accuracy    <       0.00000431 Ry

     iteration #195     ecut=    80.00 Ry     beta= 0.10
     Davidson diagonalization with overlap
     ethr =  1.01E-10,  avg # of iterations =  1.0

     negative rho (up, down):  5.998E-02 0.000E+00

     total cpu time spent up to now is    56336.3 secs

     total energy              =  -11682.10503228 Ry
     estimated scf accuracy    <       0.00000415 Ry

     iteration #196     ecut=    80.00 Ry     beta= 0.10
     Davidson diagonalization with overlap
     ethr =  1.01E-10,  avg # of iterations =  1.0

     negative rho (up, down):  5.998E-02 0.000E+00

     total cpu time spent up to now is    56619.7 secs

     total energy              =  -11682.10503226 Ry
     estimated scf accuracy    <       0.00000696 Ry

     iteration #197     ecut=    80.00 Ry     beta= 0.10
     Davidson diagonalization with overlap
     ethr =  1.01E-10,  avg # of iterations =  1.0

     negative rho (up, down):  5.998E-02 0.000E+00

     total cpu time spent up to now is    56901.9 secs

     total energy              =  -11682.10503226 Ry
     estimated scf accuracy    <       0.00000633 Ry

     iteration #198     ecut=    80.00 Ry     beta= 0.10
     Davidson diagonalization with overlap
     ethr =  1.01E-10,  avg # of iterations =  1.0

     negative rho (up, down):  5.998E-02 0.000E+00

     total cpu time spent up to now is    57185.0 secs

     total energy              =  -11682.10503233 Ry
     estimated scf accuracy    <       0.00000194 Ry

     iteration #199     ecut=    80.00 Ry     beta= 0.10
     Davidson diagonalization with overlap
     ethr =  1.01E-10,  avg # of iterations =  1.0

     negative rho (up, down):  5.998E-02 0.000E+00

     total cpu time spent up to now is    57468.4 secs

     total energy              =  -11682.10503232 Ry
     estimated scf accuracy    <       0.00000156 Ry

     iteration #200     ecut=    80.00 Ry     beta= 0.10
     Davidson diagonalization with overlap
     ethr =  8.36E-11,  avg # of iterations =  1.0

     negative rho (up, down):  5.998E-02 0.000E+00

     total cpu time spent up to now is    57751.9 secs

     total energy              =  -11682.10503236 Ry
     estimated scf accuracy    <       0.00000088 Ry

     iteration #201     ecut=    80.00 Ry     beta= 0.10
     Davidson diagonalization with overlap
     ethr =  4.69E-11,  avg # of iterations =  1.0

     negative rho (up, down):  5.998E-02 0.000E+00

     total cpu time spent up to now is    58035.6 secs

     total energy              =  -11682.10503237 Ry
     estimated scf accuracy    <       0.00000117 Ry

     iteration #202     ecut=    80.00 Ry     beta= 0.10
     Davidson diagonalization with overlap
     ethr =  4.69E-11,  avg # of iterations =  1.0

     negative rho (up, down):  5.998E-02 0.000E+00

     total cpu time spent up to now is    58320.6 secs

     total energy              =  -11682.10503234 Ry
     estimated scf accuracy    <       0.00000193 Ry

     iteration #203     ecut=    80.00 Ry     beta= 0.10
     Davidson diagonalization with overlap
     ethr =  4.69E-11,  avg # of iterations =  1.0

     negative rho (up, down):  5.998E-02 0.000E+00

     total cpu time spent up to now is    58604.8 secs

     total energy              =  -11682.10503232 Ry
     estimated scf accuracy    <       0.00000536 Ry

     iteration #204     ecut=    80.00 Ry     beta= 0.10
     Davidson diagonalization with overlap
     ethr =  4.69E-11,  avg # of iterations =  1.0

     negative rho (up, down):  5.998E-02 0.000E+00

     total cpu time spent up to now is    58889.2 secs

     total energy              =  -11682.10503236 Ry
     estimated scf accuracy    <       0.00000315 Ry

     iteration #205     ecut=    80.00 Ry     beta= 0.10
     Davidson diagonalization with overlap
     ethr =  4.69E-11,  avg # of iterations =  1.0

     negative rho (up, down):  5.998E-02 0.000E+00

     total cpu time spent up to now is    59172.6 secs

     total energy              =  -11682.10503237 Ry
     estimated scf accuracy    <       0.00000155 Ry

     iteration #206     ecut=    80.00 Ry     beta= 0.10
     Davidson diagonalization with overlap
     ethr =  4.69E-11,  avg # of iterations =  1.0

     negative rho (up, down):  5.998E-02 0.000E+00

     total cpu time spent up to now is    59456.1 secs

     total energy              =  -11682.10503236 Ry
     estimated scf accuracy    <       0.00000504 Ry

     iteration #207     ecut=    80.00 Ry     beta= 0.10
     Davidson diagonalization with overlap
     ethr =  4.69E-11,  avg # of iterations =  1.0

     negative rho (up, down):  5.998E-02 0.000E+00

     total cpu time spent up to now is    59739.3 secs

     total energy              =  -11682.10503235 Ry
     estimated scf accuracy    <       0.00000376 Ry

     iteration #208     ecut=    80.00 Ry     beta= 0.10
     Davidson diagonalization with overlap
     ethr =  4.69E-11,  avg # of iterations =  1.0

     negative rho (up, down):  5.998E-02 0.000E+00

     total cpu time spent up to now is    60022.6 secs

     total energy              =  -11682.10503239 Ry
     estimated scf accuracy    <       0.00000152 Ry

     iteration #209     ecut=    80.00 Ry     beta= 0.10
     Davidson diagonalization with overlap
     ethr =  4.69E-11,  avg # of iterations =  1.0

     negative rho (up, down):  5.998E-02 0.000E+00

     total cpu time spent up to now is    60315.5 secs

     total energy              =  -11682.10503238 Ry
     estimated scf accuracy    <       0.00000076 Ry

     iteration #210     ecut=    80.00 Ry     beta= 0.10
     Davidson diagonalization with overlap
     ethr =  4.05E-11,  avg # of iterations =  1.0

     negative rho (up, down):  5.998E-02 0.000E+00

     total cpu time spent up to now is    60600.8 secs

     total energy              =  -11682.10503240 Ry
     estimated scf accuracy    <       0.00000063 Ry

     iteration #211     ecut=    80.00 Ry     beta= 0.10
     Davidson diagonalization with overlap
     ethr =  3.35E-11,  avg # of iterations =  1.0

     negative rho (up, down):  5.998E-02 0.000E+00

     total cpu time spent up to now is    60885.2 secs

     total energy              =  -11682.10503241 Ry
     estimated scf accuracy    <       0.00000031 Ry

     iteration #212     ecut=    80.00 Ry     beta= 0.10
     Davidson diagonalization with overlap
     ethr =  1.67E-11,  avg # of iterations =  1.0

     negative rho (up, down):  5.998E-02 0.000E+00

     total cpu time spent up to now is    61169.0 secs

     total energy              =  -11682.10503241 Ry
     estimated scf accuracy    <       0.00000045 Ry

     iteration #213     ecut=    80.00 Ry     beta= 0.10
     Davidson diagonalization with overlap
     ethr =  1.67E-11,  avg # of iterations =  1.0

     negative rho (up, down):  5.998E-02 0.000E+00

     total cpu time spent up to now is    61452.9 secs

     total energy              =  -11682.10503239 Ry
     estimated scf accuracy    <       0.00000174 Ry

     iteration #214     ecut=    80.00 Ry     beta= 0.10
     Davidson diagonalization with overlap
     ethr =  1.67E-11,  avg # of iterations =  1.0

     negative rho (up, down):  5.998E-02 0.000E+00

     total cpu time spent up to now is    61736.8 secs

     total energy              =  -11682.10503240 Ry
     estimated scf accuracy    <       0.00000158 Ry

     iteration #215     ecut=    80.00 Ry     beta= 0.10
     Davidson diagonalization with overlap
     ethr =  1.67E-11,  avg # of iterations =  1.0

     negative rho (up, down):  5.998E-02 0.000E+00

     total cpu time spent up to now is    62021.2 secs

     total energy              =  -11682.10503241 Ry
     estimated scf accuracy    <       0.00000058 Ry

     iteration #216     ecut=    80.00 Ry     beta= 0.10
     Davidson diagonalization with overlap
     ethr =  1.67E-11,  avg # of iterations =  1.0

     negative rho (up, down):  5.998E-02 0.000E+00

     total cpu time spent up to now is    62305.1 secs

     total energy              =  -11682.10503241 Ry
     estimated scf accuracy    <       0.00000221 Ry

     iteration #217     ecut=    80.00 Ry     beta= 0.10
     Davidson diagonalization with overlap
     ethr =  1.67E-11,  avg # of iterations =  1.0

     negative rho (up, down):  5.998E-02 0.000E+00

     total cpu time spent up to now is    62588.8 secs

     total energy              =  -11682.10503240 Ry
     estimated scf accuracy    <       0.00000171 Ry

     iteration #218     ecut=    80.00 Ry     beta= 0.10
     Davidson diagonalization with overlap
     ethr =  1.67E-11,  avg # of iterations =  1.0

     negative rho (up, down):  5.998E-02 0.000E+00

     total cpu time spent up to now is    62871.9 secs

     total energy              =  -11682.10503241 Ry
     estimated scf accuracy    <       0.00000113 Ry

     iteration #219     ecut=    80.00 Ry     beta= 0.10
     Davidson diagonalization with overlap
     ethr =  1.67E-11,  avg # of iterations =  1.0

     negative rho (up, down):  5.998E-02 0.000E+00

     total cpu time spent up to now is    63155.4 secs

     total energy              =  -11682.10503241 Ry
     estimated scf accuracy    <       0.00000044 Ry

     iteration #220     ecut=    80.00 Ry     beta= 0.10
     Davidson diagonalization with overlap
     ethr =  1.67E-11,  avg # of iterations =  1.0

     negative rho (up, down):  5.998E-02 0.000E+00

     total cpu time spent up to now is    63439.4 secs

     total energy              =  -11682.10503242 Ry
     estimated scf accuracy    <       0.00000057 Ry

     iteration #221     ecut=    80.00 Ry     beta= 0.10
     Davidson diagonalization with overlap
     ethr =  1.67E-11,  avg # of iterations =  1.0

     negative rho (up, down):  5.998E-02 0.000E+00

     total cpu time spent up to now is    63723.3 secs

     total energy              =  -11682.10503242 Ry
     estimated scf accuracy    <       0.00000025 Ry

     iteration #222     ecut=    80.00 Ry     beta= 0.10
     Davidson diagonalization with overlap
     ethr =  1.36E-11,  avg # of iterations =  1.0

     negative rho (up, down):  5.998E-02 0.000E+00

     total cpu time spent up to now is    64007.1 secs

     total energy              =  -11682.10503242 Ry
     estimated scf accuracy    <       0.00000024 Ry

     iteration #223     ecut=    80.00 Ry     beta= 0.10
     Davidson diagonalization with overlap
     ethr =  1.26E-11,  avg # of iterations =  1.0

     negative rho (up, down):  5.998E-02 0.000E+00

     total cpu time spent up to now is    64291.0 secs

     total energy              =  -11682.10503242 Ry
     estimated scf accuracy    <       0.00000042 Ry

     iteration #224     ecut=    80.00 Ry     beta= 0.10
     Davidson diagonalization with overlap
     ethr =  1.26E-11,  avg # of iterations =  1.0

     negative rho (up, down):  5.998E-02 0.000E+00

     total cpu time spent up to now is    64574.3 secs

     total energy              =  -11682.10503242 Ry
     estimated scf accuracy    <       0.00000072 Ry

     iteration #225     ecut=    80.00 Ry     beta= 0.10
     Davidson diagonalization with overlap
     ethr =  1.26E-11,  avg # of iterations =  1.0

     negative rho (up, down):  5.998E-02 0.000E+00

     total cpu time spent up to now is    64857.5 secs

     total energy              =  -11682.10503242 Ry
     estimated scf accuracy    <       0.00000024 Ry

     iteration #226     ecut=    80.00 Ry     beta= 0.10
     Davidson diagonalization with overlap
     ethr =  1.26E-11,  avg # of iterations =  1.0

     negative rho (up, down):  5.999E-02 0.000E+00

     total cpu time spent up to now is    65141.4 secs

     total energy              =  -11682.10503242 Ry
     estimated scf accuracy    <       0.00000078 Ry

     iteration #227     ecut=    80.00 Ry     beta= 0.10
     Davidson diagonalization with overlap
     ethr =  1.26E-11,  avg # of iterations =  1.0

     negative rho (up, down):  5.999E-02 0.000E+00

     total cpu time spent up to now is    65425.6 secs

     total energy              =  -11682.10503242 Ry
     estimated scf accuracy    <       0.00000054 Ry

     iteration #228     ecut=    80.00 Ry     beta= 0.10
     Davidson diagonalization with overlap
     ethr =  1.26E-11,  avg # of iterations =  1.0

     negative rho (up, down):  5.999E-02 0.000E+00

     total cpu time spent up to now is    65708.6 secs

     total energy              =  -11682.10503242 Ry
     estimated scf accuracy    <       0.00000058 Ry

     iteration #229     ecut=    80.00 Ry     beta= 0.10
     Davidson diagonalization with overlap
     ethr =  1.26E-11,  avg # of iterations =  1.0

     negative rho (up, down):  5.999E-02 0.000E+00

     total cpu time spent up to now is    65991.7 secs

     total energy              =  -11682.10503242 Ry
     estimated scf accuracy    <       0.00000021 Ry

     iteration #230     ecut=    80.00 Ry     beta= 0.10
     Davidson diagonalization with overlap
     ethr =  1.11E-11,  avg # of iterations =  1.0

     negative rho (up, down):  5.999E-02 0.000E+00

     total cpu time spent up to now is    66275.0 secs

     total energy              =  -11682.10503242 Ry
     estimated scf accuracy    <       0.00000044 Ry

     iteration #231     ecut=    80.00 Ry     beta= 0.10
     Davidson diagonalization with overlap
     ethr =  1.11E-11,  avg # of iterations =  1.0

     negative rho (up, down):  5.999E-02 0.000E+00

     total cpu time spent up to now is    66558.6 secs

     total energy              =  -11682.10503242 Ry
     estimated scf accuracy    <       0.00000023 Ry

     iteration #232     ecut=    80.00 Ry     beta= 0.10
     Davidson diagonalization with overlap
     ethr =  1.11E-11,  avg # of iterations =  1.0

     negative rho (up, down):  5.999E-02 0.000E+00

     total cpu time spent up to now is    66842.1 secs

     total energy              =  -11682.10503243 Ry
     estimated scf accuracy    <       0.00000015 Ry

     iteration #233     ecut=    80.00 Ry     beta= 0.10
     Davidson diagonalization with overlap
     ethr =  8.05E-12,  avg # of iterations =  1.0

     negative rho (up, down):  5.999E-02 0.000E+00

     total cpu time spent up to now is    67125.5 secs

     total energy              =  -11682.10503243 Ry
     estimated scf accuracy    <       0.00000026 Ry

     iteration #234     ecut=    80.00 Ry     beta= 0.10
     Davidson diagonalization with overlap
     ethr =  8.05E-12,  avg # of iterations =  1.0

     negative rho (up, down):  5.999E-02 0.000E+00

     total cpu time spent up to now is    67409.8 secs

     total energy              =  -11682.10503242 Ry
     estimated scf accuracy    <       0.00000035 Ry

     iteration #235     ecut=    80.00 Ry     beta= 0.10
     Davidson diagonalization with overlap
     ethr =  8.05E-12,  avg # of iterations =  1.0

     negative rho (up, down):  5.999E-02 0.000E+00

     total cpu time spent up to now is    67693.6 secs

     total energy              =  -11682.10503243 Ry
     estimated scf accuracy    <       0.00000014 Ry

     iteration #236     ecut=    80.00 Ry     beta= 0.10
     Davidson diagonalization with overlap
     ethr =  7.24E-12,  avg # of iterations =  1.0

     negative rho (up, down):  5.999E-02 0.000E+00

     total cpu time spent up to now is    67976.9 secs

     total energy              =  -11682.10503243 Ry
     estimated scf accuracy    <       0.00000029 Ry

     iteration #237     ecut=    80.00 Ry     beta= 0.10
     Davidson diagonalization with overlap
     ethr =  7.24E-12,  avg # of iterations =  1.0

     negative rho (up, down):  5.999E-02 0.000E+00

     total cpu time spent up to now is    68266.1 secs

     total energy              =  -11682.10503243 Ry
     estimated scf accuracy    <       0.00000017 Ry

     iteration #238     ecut=    80.00 Ry     beta= 0.10
     Davidson diagonalization with overlap
     ethr =  7.24E-12,  avg # of iterations =  1.0

     negative rho (up, down):  5.999E-02 0.000E+00

     total cpu time spent up to now is    68549.5 secs

     total energy              =  -11682.10503242 Ry
     estimated scf accuracy    <       0.00000023 Ry

     iteration #239     ecut=    80.00 Ry     beta= 0.10
     Davidson diagonalization with overlap
     ethr =  7.24E-12,  avg # of iterations =  1.0

     negative rho (up, down):  5.999E-02 0.000E+00

     total cpu time spent up to now is    68833.3 secs

     total energy              =  -11682.10503243 Ry
     estimated scf accuracy    <       0.00000009 Ry

     iteration #240     ecut=    80.00 Ry     beta= 0.10
     Davidson diagonalization with overlap
     ethr =  5.07E-12,  avg # of iterations =  1.0

     negative rho (up, down):  5.999E-02 0.000E+00

     total cpu time spent up to now is    69116.7 secs

     total energy              =  -11682.10503242 Ry
     estimated scf accuracy    <       0.00000022 Ry

     iteration #241     ecut=    80.00 Ry     beta= 0.10
     Davidson diagonalization with overlap
     ethr =  5.07E-12,  avg # of iterations =  1.0

     negative rho (up, down):  5.999E-02 0.000E+00

     total cpu time spent up to now is    69400.6 secs

     total energy              =  -11682.10503243 Ry
     estimated scf accuracy    <       0.00000018 Ry

     iteration #242     ecut=    80.00 Ry     beta= 0.10
     Davidson diagonalization with overlap
     ethr =  5.07E-12,  avg # of iterations =  1.0

     negative rho (up, down):  5.999E-02 0.000E+00

     total cpu time spent up to now is    69684.8 secs

     total energy              =  -11682.10503243 Ry
     estimated scf accuracy    <       0.00000009 Ry

     iteration #243     ecut=    80.00 Ry     beta= 0.10
     Davidson diagonalization with overlap
     ethr =  5.02E-12,  avg # of iterations =  1.0

     negative rho (up, down):  5.999E-02 0.000E+00

     total cpu time spent up to now is    69968.8 secs

     total energy              =  -11682.10503242 Ry
     estimated scf accuracy    <       0.00000017 Ry

     iteration #244     ecut=    80.00 Ry     beta= 0.10
     Davidson diagonalization with overlap
     ethr =  5.02E-12,  avg # of iterations =  1.0

     negative rho (up, down):  5.999E-02 0.000E+00

     total cpu time spent up to now is    70253.2 secs

     total energy              =  -11682.10503242 Ry
     estimated scf accuracy    <       0.00000020 Ry

     iteration #245     ecut=    80.00 Ry     beta= 0.10
     Davidson diagonalization with overlap
     ethr =  5.02E-12,  avg # of iterations =  1.0

     negative rho (up, down):  5.999E-02 0.000E+00

     total cpu time spent up to now is    70537.2 secs

     total energy              =  -11682.10503243 Ry
     estimated scf accuracy    <       0.00000012 Ry

     iteration #246     ecut=    80.00 Ry     beta= 0.10
     Davidson diagonalization with overlap
     ethr =  5.02E-12,  avg # of iterations =  1.0

     negative rho (up, down):  5.999E-02 0.000E+00

     total cpu time spent up to now is    70820.8 secs

     total energy              =  -11682.10503243 Ry
     estimated scf accuracy    <       0.00000018 Ry

     iteration #247     ecut=    80.00 Ry     beta= 0.10
     Davidson diagonalization with overlap
     ethr =  5.02E-12,  avg # of iterations =  1.0

     negative rho (up, down):  5.999E-02 0.000E+00

     total cpu time spent up to now is    71104.3 secs

     total energy              =  -11682.10503242 Ry
     estimated scf accuracy    <       0.00000008 Ry

     iteration #248     ecut=    80.00 Ry     beta= 0.10
     Davidson diagonalization with overlap
     ethr =  4.34E-12,  avg # of iterations =  1.0

     negative rho (up, down):  5.999E-02 0.000E+00

     total cpu time spent up to now is    71388.2 secs

     total energy              =  -11682.10503242 Ry
     estimated scf accuracy    <       0.00000010 Ry

     iteration #249     ecut=    80.00 Ry     beta= 0.10
     Davidson diagonalization with overlap
     ethr =  4.34E-12,  avg # of iterations =  1.0

     negative rho (up, down):  5.999E-02 0.000E+00

     total cpu time spent up to now is    71672.9 secs

     total energy              =  -11682.10503243 Ry
     estimated scf accuracy    <       0.00000005 Ry

     iteration #250     ecut=    80.00 Ry     beta= 0.10
     Davidson diagonalization with overlap
     ethr =  2.43E-12,  avg # of iterations =  1.0

     negative rho (up, down):  5.999E-02 0.000E+00

     total cpu time spent up to now is    71956.4 secs

     total energy              =  -11682.10503242 Ry
     estimated scf accuracy    <       0.00000007 Ry

     iteration #251     ecut=    80.00 Ry     beta= 0.10
     Davidson diagonalization with overlap
     ethr =  2.43E-12,  avg # of iterations =  1.0

     negative rho (up, down):  5.999E-02 0.000E+00

     total cpu time spent up to now is    72240.0 secs

     total energy              =  -11682.10503242 Ry
     estimated scf accuracy    <       0.00000010 Ry

     iteration #252     ecut=    80.00 Ry     beta= 0.10
     Davidson diagonalization with overlap
     ethr =  2.43E-12,  avg # of iterations =  1.0

     negative rho (up, down):  5.999E-02 0.000E+00

     total cpu time spent up to now is    72524.1 secs

     total energy              =  -11682.10503242 Ry
     estimated scf accuracy    <       0.00000005 Ry

     iteration #253     ecut=    80.00 Ry     beta= 0.10
     Davidson diagonalization with overlap
     ethr =  2.43E-12,  avg # of iterations =  1.0

     negative rho (up, down):  5.999E-02 0.000E+00

     total cpu time spent up to now is    72808.0 secs

     total energy              =  -11682.10503242 Ry
     estimated scf accuracy    <       0.00000009 Ry

     iteration #254     ecut=    80.00 Ry     beta= 0.10
     Davidson diagonalization with overlap
     ethr =  2.43E-12,  avg # of iterations =  1.0

     negative rho (up, down):  5.999E-02 0.000E+00

     total cpu time spent up to now is    73092.4 secs

     total energy              =  -11682.10503242 Ry
     estimated scf accuracy    <       0.00000010 Ry

     iteration #255     ecut=    80.00 Ry     beta= 0.10
     Davidson diagonalization with overlap
     ethr =  2.43E-12,  avg # of iterations =  1.0

     negative rho (up, down):  5.999E-02 0.000E+00

     total cpu time spent up to now is    73375.8 secs

     total energy              =  -11682.10503242 Ry
     estimated scf accuracy    <       0.00000013 Ry

     iteration #256     ecut=    80.00 Ry     beta= 0.10
     Davidson diagonalization with overlap
     ethr =  2.43E-12,  avg # of iterations =  1.0

     negative rho (up, down):  5.999E-02 0.000E+00

     total cpu time spent up to now is    73659.4 secs

     total energy              =  -11682.10503242 Ry
     estimated scf accuracy    <       0.00000017 Ry

     iteration #257     ecut=    80.00 Ry     beta= 0.10
     Davidson diagonalization with overlap
     ethr =  2.43E-12,  avg # of iterations =  1.0

     negative rho (up, down):  5.999E-02 0.000E+00

     total cpu time spent up to now is    73945.7 secs

     total energy              =  -11682.10503242 Ry
     estimated scf accuracy    <       0.00000005 Ry

     iteration #258     ecut=    80.00 Ry     beta= 0.10
     Davidson diagonalization with overlap
     ethr =  2.43E-12,  avg # of iterations =  1.0

     negative rho (up, down):  5.999E-02 0.000E+00

     total cpu time spent up to now is    74229.0 secs

     total energy              =  -11682.10503242 Ry
     estimated scf accuracy    <       0.00000005 Ry

     iteration #259     ecut=    80.00 Ry     beta= 0.10
     Davidson diagonalization with overlap
     ethr =  2.43E-12,  avg # of iterations =  1.0

     negative rho (up, down):  5.999E-02 0.000E+00

     total cpu time spent up to now is    74512.7 secs

     total energy              =  -11682.10503242 Ry
     estimated scf accuracy    <       0.00000002 Ry

     iteration #260     ecut=    80.00 Ry     beta= 0.10
     Davidson diagonalization with overlap
     ethr =  1.33E-12,  avg # of iterations =  1.0

     negative rho (up, down):  5.999E-02 0.000E+00

     total cpu time spent up to now is    74796.2 secs

     total energy              =  -11682.10503242 Ry
     estimated scf accuracy    <       0.00000002 Ry

     iteration #261     ecut=    80.00 Ry     beta= 0.10
     Davidson diagonalization with overlap
     ethr =  1.23E-12,  avg # of iterations =  1.0

     negative rho (up, down):  5.999E-02 0.000E+00

     total cpu time spent up to now is    75079.3 secs

     total energy              =  -11682.10503242 Ry
     estimated scf accuracy    <       0.00000004 Ry

     iteration #262     ecut=    80.00 Ry     beta= 0.10
     Davidson diagonalization with overlap
     ethr =  1.23E-12,  avg # of iterations =  1.0

     negative rho (up, down):  5.999E-02 0.000E+00

     total cpu time spent up to now is    75363.1 secs

     total energy              =  -11682.10503242 Ry
     estimated scf accuracy    <       0.00000002 Ry

     iteration #263     ecut=    80.00 Ry     beta= 0.10
     Davidson diagonalization with overlap
     ethr =  1.00E-12,  avg # of iterations =  1.0

     negative rho (up, down):  5.999E-02 0.000E+00

     total cpu time spent up to now is    75646.5 secs

     total energy              =  -11682.10503242 Ry
     estimated scf accuracy    <       0.00000004 Ry

     iteration #264     ecut=    80.00 Ry     beta= 0.10
     Davidson diagonalization with overlap
     ethr =  1.00E-12,  avg # of iterations =  1.0

     negative rho (up, down):  5.999E-02 0.000E+00

     total cpu time spent up to now is    75929.1 secs

     total energy              =  -11682.10503242 Ry
     estimated scf accuracy    <       0.00000004 Ry

     iteration #265     ecut=    80.00 Ry     beta= 0.10
     Davidson diagonalization with overlap
     ethr =  1.00E-12,  avg # of iterations =  1.0

     negative rho (up, down):  5.999E-02 0.000E+00

     total cpu time spent up to now is    76212.8 secs

     total energy              =  -11682.10503242 Ry
     estimated scf accuracy    <       0.00000010 Ry

     iteration #266     ecut=    80.00 Ry     beta= 0.10
     Davidson diagonalization with overlap
     ethr =  1.00E-12,  avg # of iterations =  1.0

     negative rho (up, down):  5.999E-02 0.000E+00

     total cpu time spent up to now is    76496.5 secs

     total energy              =  -11682.10503242 Ry
     estimated scf accuracy    <       0.00000013 Ry

     iteration #267     ecut=    80.00 Ry     beta= 0.10
     Davidson diagonalization with overlap
     ethr =  1.00E-12,  avg # of iterations =  1.0

     negative rho (up, down):  5.999E-02 0.000E+00

     total cpu time spent up to now is    76780.2 secs

     total energy              =  -11682.10503242 Ry
     estimated scf accuracy    <       0.00000004 Ry

     iteration #268     ecut=    80.00 Ry     beta= 0.10
     Davidson diagonalization with overlap
     ethr =  1.00E-12,  avg # of iterations =  1.0

     negative rho (up, down):  5.999E-02 0.000E+00

     total cpu time spent up to now is    77063.8 secs

     total energy              =  -11682.10503242 Ry
     estimated scf accuracy    <       0.00000003 Ry

     iteration #269     ecut=    80.00 Ry     beta= 0.10
     Davidson diagonalization with overlap
     ethr =  1.00E-12,  avg # of iterations =  1.0

     negative rho (up, down):  5.999E-02 0.000E+00

     total cpu time spent up to now is    77347.4 secs

     total energy              =  -11682.10503242 Ry
     estimated scf accuracy    <       0.00000002 Ry

     iteration #270     ecut=    80.00 Ry     beta= 0.10
     Davidson diagonalization with overlap
     ethr =  9.37E-13,  avg # of iterations =  1.0

     negative rho (up, down):  5.999E-02 0.000E+00

     total cpu time spent up to now is    77630.5 secs

     total energy              =  -11682.10503242 Ry
     estimated scf accuracy    <       0.00000001 Ry

     iteration #271     ecut=    80.00 Ry     beta= 0.10
     Davidson diagonalization with overlap
     ethr =  5.45E-13,  avg # of iterations =  1.0

     negative rho (up, down):  5.999E-02 0.000E+00

     total cpu time spent up to now is    77913.4 secs

     total energy              =  -11682.10503242 Ry
     estimated scf accuracy    <       0.00000002 Ry

     iteration #272     ecut=    80.00 Ry     beta= 0.10
     Davidson diagonalization with overlap
     ethr =  5.45E-13,  avg # of iterations =  1.0

     negative rho (up, down):  5.999E-02 0.000E+00

     total cpu time spent up to now is    78197.6 secs

     End of self-consistent calculation

          k = 0.0000 0.0000 0.0000 (****** PWs)   bands (ev):

   -58.0937 -56.3145 -55.9738 -55.9456 -55.7221 -55.7038 -55.1427 -55.0977
   -54.8718 -54.6169 -53.9788 -30.0203 -30.0031 -29.9651 -28.2653 -28.2225
   -28.1813 -27.9071 -27.8995 -27.8822 -27.8637 -27.8596 -27.8407 -27.6716
   -27.6552 -27.6277 -27.6058 -27.5903 -27.5773 -27.2442 -27.1135 -27.0534
   -27.0504 -27.0187 -26.9898 -26.9694 -26.8643 -26.8127 -26.7722 -26.5932
   -26.5545 -26.4993 -26.3679 -26.2397 -25.9859 -25.9296 -25.9016 -25.8837
   -25.8809 -25.8703 -25.7321 -25.6915 -25.6721 -25.6652 -25.5662 -25.4796
   -25.4105 -25.3499 -25.3011 -25.2439 -25.2227 -25.1687 -25.1446 -25.1273
   -25.1150 -25.1074 -25.0593 -25.0194 -25.0103 -24.9987 -24.9636 -24.9628
   -24.9128 -24.8988 -24.8705 -24.8470 -24.8208 -24.7817 -24.7578 -24.7395
   -24.7217 -24.7183 -24.6844 -24.6633 -24.6482 -24.6240 -24.6007 -24.5671
   -24.5536 -24.5187 -24.5151 -24.4907 -24.4766 -24.4497 -24.4391 -24.4174
   -24.4046 -24.3781 -24.3710 -24.3575 -24.3296 -24.3236 -24.2972 -24.2863
   -24.2642 -24.2381 -24.2181 -24.2101 -24.1938 -24.1743 -24.1604 -24.1336
   -24.1026 -24.0883 -24.0755 -24.0540 -24.0379 -24.0114 -23.9824 -23.9791
   -23.9255 -23.9045 -23.9012 -23.8853 -23.8686 -23.8531 -23.8439 -23.8314
   -23.8167 -23.8111 -23.8043 -23.7964 -23.7880 -23.7781 -23.7483 -23.7344
   -23.7203 -23.7140 -23.7007 -23.6744 -23.6688 -23.6555 -23.6366 -23.6268
   -23.6156 -23.6029 -23.5861 -23.5547 -23.5282 -23.5181 -23.5013 -23.4991
   -23.4716 -23.4575 -23.4535 -23.4204 -23.4137 -23.4031 -23.3913 -23.3728
   -23.3621 -23.3326 -23.3247 -23.3069 -23.2973 -23.2680 -23.2591 -23.2376
   -23.2367 -23.2127 -23.2011 -23.1930 -23.1740 -23.1644 -23.1632 -23.1482
   -23.1307 -23.1224 -23.1075 -23.0702 -23.0423 -23.0225 -23.0176 -23.0018
   -22.9936 -22.9713 -22.9578 -22.9451 -22.9399 -22.9125 -22.9049 -22.8870
   -22.8793 -22.8614 -22.8251 -22.8181 -22.8149 -22.8090 -22.7778 -22.7726
   -22.7518 -22.6748 -22.6409 -22.6309 -22.5874 -22.5645 -22.5146 -22.5068
   -22.5012 -22.4969 -22.4928 -22.4381 -22.3767 -22.3563 -22.3503 -22.3306
   -22.3198 -22.2848 -22.2242 -22.1415 -22.0968 -22.0882 -22.0460 -21.9494
   -21.7620 -21.6925 -21.6881 -21.6671 -21.6182 -21.5649 -21.5420 -21.5054
   -21.4416 -21.4188 -20.7545 -20.7082 -20.6750 -20.6658 -20.6643 -20.6373
   -20.6350 -20.5828 -20.5795 -20.4742 -20.4734 -20.2756 -20.1925 -20.1846
   -20.1254 -19.9403 -19.8468 -19.8445 -19.8424 -19.8299 -19.8251 -19.8242
   -19.8210 -19.7943 -19.7866 -19.7786 -19.7146 -19.0116 -18.6350 -17.7863
   -17.0365 -16.2349 -15.4603 -15.3217 -15.2599 -15.1882 -15.0802 -15.0002
   -14.9652 -14.8961 -14.8610 -14.8174 -14.7680 -14.7005 -14.6920 -14.6417
   -14.6165 -14.5303 -14.4521 -14.3960 -14.3215 -14.2926 -14.2395 -14.2095
   -14.1408 -14.1263 -14.1174 -14.0682 -14.0308 -14.0145 -13.9891 -13.9254
   -13.9059 -13.8609 -13.8546 -13.7986 -13.7701 -13.7155 -13.6470 -13.6331
   -13.6076 -13.5558 -13.5511 -13.5324 -13.4840 -13.4327 -13.4083 -13.3972
   -13.3525 -13.3284 -13.3219 -13.2630 -13.2400 -13.1990 -13.1915 -13.1625
   -13.1189 -13.1017 -13.0726 -13.0376 -13.0158 -12.9946 -12.9600 -12.9368
   -12.9120 -12.8837 -12.8450 -12.8344 -12.7782 -12.7591 -12.7375 -12.6601
   -12.6492 -12.6291 -12.5927 -12.5517 -12.5245 -12.4849 -12.4705 -12.4371
   -12.4275 -12.4094 -12.4004 -12.3390 -12.3210 -12.2764 -12.2563 -12.2359
   -12.1947 -12.1515 -12.1319 -12.1094 -12.0879 -12.0582 -12.0263 -11.9976
   -11.9762 -11.9629 -11.9370 -11.9182 -11.8944 -11.8592 -11.8511 -11.8154
   -11.8117 -11.8026 -11.7561 -11.7447 -11.7117 -11.7077 -11.6922 -11.6769
   -11.6546 -11.6458 -11.6275 -11.6048 -11.5915 -11.5740 -11.5700 -11.5537
   -11.5341 -11.5229 -11.4951 -11.4846 -11.4808 -11.4422 -11.4210 -11.4050
   -11.3838 -11.3751 -11.3585 -11.3250 -11.3064 -11.2864 -11.2822 -11.2755
   -11.2532 -11.2488 -11.2297 -11.2084 -11.1939 -11.1793 -11.1756 -11.1500
   -11.1008 -11.0969 -11.0716 -11.0601 -11.0371 -11.0108 -11.0036 -10.9937
   -10.9904 -10.9859 -10.9652 -10.9616 -10.9390 -10.9327 -10.9213 -10.8898
   -10.8875 -10.8500 -10.8290 -10.8191 -10.8026 -10.7997 -10.7713 -10.7630
   -10.7244 -10.7057 -10.6923 -10.6733 -10.6573 -10.6485 -10.6284 -10.5996
   -10.5846 -10.5713 -10.5403 -10.5000 -10.4887 -10.4429 -10.4205 -10.4059
   -10.3919 -10.3433 -10.3215 -10.3162 -10.2916 -10.2739 -10.2207 -10.1853
   -10.1823 -10.1574 -10.1402 -10.1003 -10.0775 -10.0216 -10.0076  -9.9851
    -9.9702  -9.9453  -9.9231  -9.9084  -9.8950  -9.8734  -9.8488  -9.8307
    -9.7772  -9.7580  -9.7012  -9.6966  -9.6790  -9.6489  -9.6391  -9.6227
    -9.6056  -9.5938  -9.5756  -9.5654  -9.5296  -9.5081  -9.4828  -9.4740
    -9.4690  -9.4484  -9.4450  -9.4380  -9.4345  -9.4216  -9.4132  -9.4003
    -9.3569  -9.3409  -9.3334  -9.2996  -9.2886  -9.2801  -9.2573  -9.2511
    -9.2318  -9.2179  -9.1882  -9.1688  -9.1527  -9.1286  -9.1259  -9.0862
    -9.0783  -9.0524  -9.0222  -9.0198  -8.9916  -8.9753  -8.9668  -8.9581
    -8.9486  -8.9336  -8.9153  -8.8936  -8.8818  -8.8729  -8.8481  -8.8450
    -8.8328  -8.8193  -8.8102  -8.7951  -8.7752  -8.7705  -8.7660  -8.7528
    -8.7490  -8.7322  -8.7035  -8.6969  -8.6883  -8.6813  -8.6806  -8.6780
    -8.6619  -8.6503  -8.6433  -8.6242  -8.6208  -8.6103  -8.5999  -8.5838
    -8.5736  -8.5671  -8.5536  -8.5425  -8.5275  -8.5055  -8.5012  -8.4955
    -8.4836  -8.4768  -8.4709  -8.4566  -8.4432  -8.4376  -8.4221  -8.4141
    -8.4074  -8.3953  -8.3793  -8.3777  -8.3733  -8.3587  -8.3465  -8.3324
    -8.3259  -8.3136  -8.3036  -8.2871  -8.2820  -8.2738  -8.2562  -8.2515
    -8.2505  -8.2387  -8.2188  -8.2004  -8.1930  -8.1816  -8.1739  -8.1592
    -8.1478  -8.1454  -8.1385  -8.1328  -8.1299  -8.1154  -8.1067  -8.0984
    -8.0907  -8.0692  -8.0599  -8.0537  -8.0499  -8.0271  -8.0223  -8.0186
    -7.9955  -7.9917  -7.9791  -7.9684  -7.9612  -7.9492  -7.9450  -7.9330
    -7.9319  -7.9164  -7.9107  -7.9018  -7.8877  -7.8836  -7.8733  -7.8598
    -7.8563  -7.8497  -7.8435  -7.8281  -7.8261  -7.8125  -7.8041  -7.7900
    -7.7833  -7.7825  -7.7633  -7.7563  -7.7510  -7.7366  -7.7320  -7.7237
    -7.7088  -7.7064  -7.6947  -7.6840  -7.6820  -7.6636  -7.6611  -7.6481
    -7.6457  -7.6227  -7.6155  -7.6111  -7.6034  -7.5922  -7.5780  -7.5764
    -7.5606  -7.5561  -7.5509  -7.5353  -7.5286  -7.5255  -7.5172  -7.5108
    -7.4952  -7.4879  -7.4823  -7.4737  -7.4680  -7.4381  -7.4242  -7.4095
    -7.4028  -7.4005  -7.3958  -7.3847  -7.3722  -7.3656  -7.3571  -7.3417
    -7.3343  -7.3211  -7.3136  -7.2978  -7.2946  -7.2926  -7.2839  -7.2732
    -7.2629  -7.2501  -7.2402  -7.2295  -7.2229  -7.2042  -7.1944  -7.1865
    -7.1739  -7.1703  -7.1584  -7.1489  -7.1379  -7.1306  -7.1183  -7.1145
    -7.1039  -7.0994  -7.0914  -7.0755  -7.0679  -7.0627  -7.0470  -7.0335
    -7.0164  -7.0083  -6.9976  -6.9851  -6.9743  -6.9640  -6.9546  -6.9512
    -6.9392  -6.9359  -6.9186  -6.9007  -6.8937  -6.8866  -6.8758  -6.8652
    -6.8537  -6.8446  -6.8334  -6.8267  -6.8159  -6.8062  -6.7964  -6.7912
    -6.7840  -6.7698  -6.7621  -6.7474  -6.7367  -6.7315  -6.7301  -6.7175
    -6.7077  -6.7001  -6.6995  -6.6935  -6.6652  -6.6634  -6.6429  -6.6245
    -6.6163  -6.6062  -6.6024  -6.5960  -6.5908  -6.5798  -6.5784  -6.5632
    -6.5588  -6.5457  -6.5421  -6.5304  -6.5166  -6.5119  -6.4984  -6.4896
    -6.4839  -6.4664  -6.4606  -6.4569  -6.4390  -6.4301  -6.4160  -6.4077
    -6.3927  -6.3899  -6.3763  -6.3638  -6.3568  -6.3490  -6.3345  -6.3298
    -6.3222  -6.3036  -6.2908  -6.2869  -6.2760  -6.2544  -6.2520  -6.2179
    -6.2073  -6.1935  -6.1866  -6.1726  -6.1672  -6.1463  -6.1429  -6.1213
    -6.1035  -6.0977  -6.0832  -6.0665  -6.0608  -6.0500  -6.0473  -6.0351
    -6.0275  -6.0177  -5.9960  -5.9890  -5.9775  -5.9574  -5.9542  -5.9488
    -5.9384  -5.9211  -5.9073  -5.8920  -5.8861  -5.8777  -5.8569  -5.8403
    -5.8350  -5.8307  -5.8267  -5.8116  -5.7968  -5.7933  -5.7866  -5.7630
    -5.7590  -5.7393  -5.7322  -5.7180  -5.7105  -5.6963  -5.6839  -5.6769
    -5.6554  -5.6279  -5.6072  -5.5902  -5.5762  -5.5657  -5.5571  -5.5477
    -5.5225  -5.5099  -5.4991  -5.4870  -5.4537  -5.4501  -5.4457  -5.4437
    -5.4351  -5.4246  -5.3855  -5.3773  -5.3607  -5.3377  -5.3331  -5.3259
    -5.2820  -5.2646  -5.2483  -5.2218  -5.1752  -5.1710  -5.1640  -5.1405
    -5.1149  -5.0806  -4.9786  -4.9635  -4.9499  -4.9442  -4.9377  -4.9250
    -4.8813  -4.8723  -4.8336  -4.8245  -4.7951  -4.7747  -4.7203  -4.7155
    -4.6970  -4.6188  -4.5905  -4.5693  -4.5656  -4.5568  -4.5509  -4.5382
    -4.4555  -4.3628  -4.3165  -4.3158  -4.2575  -4.2213  -4.1554  -4.1501
    -4.1424  -4.1324  -4.1202  -4.0862  -4.0665  -4.0465  -4.0311  -4.0221
    -4.0127  -4.0078  -3.9957  -3.9621  -3.9590  -3.9531  -3.9494  -3.9439
    -3.9376  -3.9287  -3.9233  -3.9149  -3.9110  -3.9078  -3.9000  -3.8970
    -3.8931  -3.8885  -3.8734  -3.8587  -3.8536  -3.8458  -3.8360  -3.8320
    -3.8228  -3.8225  -3.7887  -3.7791  -3.7607  -3.7425  -3.7419  -3.7289
    -3.6461  -3.5629  -3.4990  -3.4514  -3.4302  -3.3927  -3.2920  -3.2205
    -2.8397  -2.7390  -2.3365  -2.1065  -1.6821  -0.7554  -0.7309  -0.5875
    -0.5345  -0.5165  -0.3832  -0.3555  -0.2777  -0.2221  -0.1404  -0.1170
    -0.0689   0.0393   0.1390   0.2012   0.2803   0.3556   0.4209   0.5147
     0.5685   0.6015   0.6274   0.6594   0.7137   0.7686   0.8237   0.8288
     0.8693   0.9119   0.9481   0.9830   1.0292   1.0357   1.0390   1.0954
     1.1038   1.1333   1.1715   1.1919   1.2241   1.2553   1.2632   1.2775
     1.3099   1.3309   1.3355   1.3815   1.3846   1.3946   1.4098   1.4255
     1.4470   1.5050   1.5093   1.5373   1.5707   1.5868   1.6137   1.6247
     1.6317   1.6468   1.6778   1.6888   1.6968   1.7183   1.7336   1.7583
     1.7701   1.7925   1.8109   1.8324   1.8485   1.8649   1.8887   1.8997
     1.9180   1.9238   1.9415   1.9640   1.9922   1.9935   2.0141   2.0233
     2.0422   2.0548   2.0623   2.0700   2.0756   2.0890   2.0956   2.0983
     2.1028   2.1199   2.1340   2.1391   2.1683   2.1734   2.2012   2.2066
     2.2193   2.2258   2.2381   2.2560   2.2685   2.2960   2.2970   2.3297
     2.3405   2.3605   2.3621   2.3669   2.3733   2.3974   2.4084   2.4195
     2.4274   2.4439   2.4594   2.4666   2.4696   2.4933   2.4975   2.5032
     2.5086   2.5191   2.5320   2.5425   2.5569   2.5640   2.5694   2.5732
     2.5957   2.6039   2.6100   2.6163   2.6230   2.6336   2.6513   2.6591
     2.6709   2.6717   2.6800   2.6897   2.6999   2.7063   2.7161   2.7239
     2.7328   2.7356   2.7449   2.7548   2.7589   2.7702   2.7795   2.7869
     2.7977   2.8053   2.8216   2.8357   2.8496   2.8525   2.8607   2.8690
     2.8757   2.8829   2.8925

     the Fermi energy is    -3.7971 ev

!    total energy              =  -11682.10503240 Ry
     estimated scf accuracy    <          8.7E-09 Ry
     smearing contrib. (-TS)   =      -0.11090855 Ry
     internal energy E=F+TS    =  -11681.99412385 Ry

     The total energy is F=E-TS. E is the sum of the following terms:
     one-electron contribution = -358369.74774289 Ry
     hartree contribution      =  179640.28431054 Ry
     xc contribution           =   -2470.89668926 Ry
     ewald contribution        =  171878.07084981 Ry
     one-center paw contrib.   =   -2359.70485206 Ry

     convergence has been achieved in 272 iterations

     negative rho (up, down):  5.999E-02 0.000E+00

     Forces acting on atoms (cartesian axes, Ry/au):

     atom    1 type  1   force =     0.01199034    0.01351158    0.05504906
     atom    2 type  1   force =     0.02831199    0.02473434   -0.00017591
     atom    3 type  1   force =     0.00760186    0.00108403   -0.00348582
     atom    4 type  1   force =    -0.01245734   -0.01523147   -0.01031052
     atom    5 type  1   force =     0.01478993   -0.02243281   -0.02707584
     atom    6 type  1   force =     0.00350917   -0.00147598    0.00465315
     atom    7 type  1   force =    -0.00851386    0.01191040    0.01205388
     atom    8 type  1   force =    -0.01214816   -0.03108510    0.00340103
     atom    9 type  1   force =    -0.00149662    0.00641352    0.01348295
     atom   10 type  1   force =     0.01823310   -0.00179993    0.01766793
     atom   11 type  1   force =    -0.01121232   -0.00523172   -0.01232217
     atom   12 type  2   force =     0.00697508    0.12281999   -0.04037385
     atom   13 type  2   force =     0.13684461    0.10065295   -0.00113822
     atom   14 type  2   force =     0.08062152    0.03196235   -0.06290660
     atom   15 type  2   force =     0.14692919   -0.03951104   -0.15272176
     atom   16 type  2   force =     0.02149605    0.03840511    0.04013985
     atom   17 type  2   force =     0.15428390    0.01501063    0.25439435
     atom   18 type  2   force =    -0.01246992   -0.04665533   -0.04947228
     atom   19 type  2   force =    -0.01072582    0.03865551   -0.10069717
     atom   20 type  2   force =    -0.02586235   -0.01329917   -0.04180386
     atom   21 type  2   force =    -0.05465483    0.13496531   -0.03939200
     atom   22 type  2   force =     0.03570950   -0.13307477    0.09255576
     atom   23 type  2   force =    -0.03934143   -0.06824843   -0.05871504
     atom   24 type  2   force =     0.03247460    0.02647283    0.01012230
     atom   25 type  2   force =     0.06548923    0.00675802    0.07205100
     atom   26 type  2   force =    -0.01647898   -0.00958618   -0.01107577
     atom   27 type  2   force =     0.04179646    0.11799928   -0.07348356
     atom   28 type  2   force =    -0.00194507   -0.05839607   -0.01139234
     atom   29 type  2   force =    -0.03140796   -0.05047443    0.08152814
     atom   30 type  2   force =     0.03233332   -0.03167540   -0.03952547
     atom   31 type  2   force =     0.03575460    0.02201602    0.00223228
     atom   32 type  2   force =    -0.00991073   -0.06579447    0.08800833
     atom   33 type  2   force =    -0.05573078    0.01800882   -0.05540891
     atom   34 type  2   force =     0.06105084   -0.02693126   -0.02230248
     atom   35 type  3   force =    -0.01331641   -0.07802754    0.00316363
     atom   36 type  3   force =    -0.16433842    0.08794786   -0.04855707
     atom   37 type  3   force =    -0.06763779    0.03586374   -0.01400807
     atom   38 type  3   force =    -0.05433020   -0.00011295   -0.00933585
     atom   39 type  3   force =     0.07405804    0.00716338    0.01036658
     atom   40 type  3   force =     0.08666572    0.02283237   -0.04332565
     atom   41 type  3   force =    -0.10895658   -0.09031982   -0.13254451
     atom   42 type  3   force =     0.01203591   -0.06051159    0.06464050
     atom   43 type  3   force =     0.01843694   -0.02230464   -0.04845815
     atom   44 type  3   force =     0.06109375    0.10573721    0.04120665
     atom   45 type  3   force =    -0.03234597   -0.00092039   -0.03154651
     atom   46 type  3   force =    -0.03630601    0.12442771    0.05983013
     atom   47 type  3   force =    -0.05595316    0.00757324   -0.14729328
     atom   48 type  3   force =    -0.02875520   -0.12203528   -0.13758313
     atom   49 type  3   force =     0.06189412    0.18236635    0.05227718
     atom   50 type  3   force =     0.04373225   -0.02211403   -0.09771989
     atom   51 type  3   force =    -0.01917840    0.04788378    0.07059382
     atom   52 type  3   force =    -0.12115914   -0.10577757    0.11946737
     atom   53 type  3   force =    -0.12316507   -0.10991353   -0.05469681
     atom   54 type  3   force =    -0.03654247   -0.02307850    0.10037314
     atom   55 type  3   force =    -0.14995568    0.03095065    0.03097045
     atom   56 type  3   force =    -0.02261491    0.01123550    0.12161042
     atom   57 type  3   force =     0.00706373   -0.09506318   -0.04894062
     atom   58 type  3   force =     0.06095298   -0.00841801    0.04778942
     atom   59 type  3   force =    -0.03557177   -0.01076805    0.03895507
     atom   60 type  3   force =     0.07904391   -0.07455227   -0.00356041
     atom   61 type  3   force =     0.01541609    0.19123351    0.03556833
     atom   62 type  3   force =    -0.01925479   -0.01655735   -0.00616322
     atom   63 type  3   force =     0.01626317    0.01191038   -0.00639223
     atom   64 type  3   force =     0.00301080    0.05905693    0.08277439
     atom   65 type  3   force =    -0.00810474    0.02320278    0.02030953
     atom   66 type  3   force =    -0.01588903    0.00339047   -0.01873264
     atom   67 type  3   force =     0.03133683    0.00052735    0.10214248
     atom   68 type  3   force =    -0.06486191   -0.03465923    0.07982761
     atom   69 type  3   force =     0.04496911    0.03723607    0.03187154
     atom   70 type  3   force =    -0.05033647   -0.06709938   -0.05576365
     atom   71 type  3   force =     0.04848242   -0.03741702    0.05248426
     atom   72 type  3   force =     0.01423452    0.11139551    0.19923039
     atom   73 type  3   force =    -0.07869246    0.05105687   -0.07639757
     atom   74 type  3   force =     0.00531047   -0.06456294   -0.04794423
     atom   75 type  3   force =    -0.06312597    0.00863892   -0.00229938
     atom   76 type  3   force =     0.04452481   -0.10613703   -0.06057381
     atom   77 type  3   force =    -0.03078158    0.07738158    0.03345659
     atom   78 type  3   force =    -0.09862989   -0.02063880   -0.06889065
     atom   79 type  3   force =    -0.00397344   -0.04281584    0.03499085
     atom   80 type  3   force =    -0.03164673    0.03980854   -0.00613259
     atom   81 type  3   force =     0.03048958    0.01866097   -0.03970163
     atom   82 type  3   force =    -0.04203260    0.01738526   -0.05433767
     atom   83 type  3   force =    -0.05125055    0.09453352    0.02436101
     atom   84 type  3   force =    -0.02490767    0.04022965   -0.04044558
     atom   85 type  3   force =    -0.01127863   -0.09864864    0.07703573
     atom   86 type  3   force =    -0.02849681   -0.07920845   -0.10456266
     atom   87 type  3   force =     0.02214534   -0.00717287   -0.06806997
     atom   88 type  3   force =    -0.00062952    0.05375766   -0.11882870
     atom   89 type  3   force =    -0.04858485   -0.02058306    0.06484077
     atom   90 type  3   force =     0.05367218   -0.04775013   -0.04651227
     atom   91 type  3   force =     0.06646717    0.04065676   -0.01538570
     atom   92 type  3   force =    -0.00909255   -0.00581071   -0.02089163
     atom   93 type  3   force =    -0.08709227   -0.10491069   -0.00534193
     atom   94 type  3   force =     0.07176052    0.08986934    0.05021434
     atom   95 type  3   force =    -0.01086601   -0.01077230   -0.06897578
     atom   96 type  3   force =    -0.09370331   -0.01180482    0.15325873
     atom   97 type  3   force =    -0.02817947   -0.04657475   -0.00175041
     atom   98 type  3   force =     0.10434106    0.01083668    0.09549300
     atom   99 type  3   force =    -0.05541449   -0.00677502    0.03650615
     atom  100 type  3   force =     0.02259291   -0.07808896    0.07966436
     atom  101 type  3   force =    -0.06015995    0.02730809   -0.01091083
     atom  102 type  3   force =     0.03024261    0.01712433    0.03129110
     atom  103 type  3   force =     0.04697800    0.03113374    0.09744104
     atom  104 type  3   force =    -0.08245250   -0.07739910   -0.00517055
     atom  105 type  3   force =     0.02908954    0.05417632   -0.00659807
     atom  106 type  3   force =     0.03821905    0.11424112   -0.01550312
     atom  107 type  3   force =    -0.02832847   -0.00303066    0.02819333
     atom  108 type  3   force =     0.04679652   -0.01000371    0.04579229
     atom  109 type  3   force =     0.10914042    0.02054618   -0.03993193
     atom  110 type  3   force =     0.13934486    0.00801554   -0.06093590
     atom  111 type  3   force =    -0.02034303   -0.01790635    0.01771632
     atom  112 type  3   force =    -0.06696737    0.09519027   -0.01069196
     atom  113 type  3   force =     0.02128363   -0.01983368   -0.05617880
     atom  114 type  3   force =    -0.03896507    0.02175115    0.08107205
     atom  115 type  3   force =     0.01335461   -0.02840724    0.07655488
     atom  116 type  3   force =     0.08473601    0.00791438   -0.04835661
     atom  117 type  3   force =    -0.06880492    0.00332679    0.03775812
     atom  118 type  3   force =    -0.11827212    0.11169807    0.02567416
     atom  119 type  3   force =     0.07046491   -0.00673443    0.03244051
     atom  120 type  3   force =     0.00918186    0.02807904    0.10530582
     atom  121 type  3   force =     0.12988857    0.07610925    0.01639037
     atom  122 type  4   force =     0.03932672    0.01291649    0.02860192
     atom  123 type  4   force =    -0.06150029   -0.04006954   -0.00950953
     atom  124 type  4   force =     0.00361040    0.02432038   -0.04629540
     atom  125 type  4   force =     0.01813613   -0.00577734   -0.00429126
     atom  126 type  4   force =    -0.13134284   -0.14924302   -0.01138897
     atom  127 type  4   force =    -0.09950508   -0.12885849   -0.07373357
     atom  128 type  4   force =     0.01054717   -0.04945993    0.05952392
     atom  129 type  4   force =     0.00884055   -0.06151723   -0.01150094
     atom  130 type  4   force =     0.00889343   -0.02172248    0.00933843
     atom  131 type  4   force =     0.00672203   -0.01824006   -0.01306905
     atom  132 type  4   force =     0.04931986   -0.03836475   -0.01677276
     atom  133 type  4   force =    -0.03659033   -0.05918600    0.03629965
     atom  134 type  4   force =    -0.09349326    0.00757477   -0.04010153
     atom  135 type  4   force =     0.02241282   -0.02687925    0.12454223
     atom  136 type  4   force =     0.01793365   -0.01015031   -0.01838604
     atom  137 type  4   force =     0.05384636    0.04126826   -0.03420054
     atom  138 type  4   force =     0.01578142    0.00198070   -0.01531122
     atom  139 type  4   force =    -0.00675112    0.02802733   -0.02076588
     atom  140 type  4   force =     0.02154260   -0.06866714    0.02200729
     atom  141 type  4   force =     0.05843662   -0.01199869    0.00213577
     atom  142 type  4   force =    -0.10496860   -0.05310886    0.04674975
     atom  143 type  4   force =    -0.15035926   -0.03712637   -0.09753803
     atom  144 type  4   force =    -0.00563059   -0.01755254    0.02992764
     atom  145 type  4   force =    -0.04009624    0.03668714    0.01601618
     atom  146 type  4   force =    -0.02193167    0.01689050   -0.02251150
     atom  147 type  4   force =    -0.13171911   -0.04975043    0.03207384
     atom  148 type  4   force =     0.01368398   -0.02072303   -0.01296149
     atom  149 type  4   force =     0.06869615    0.03542877    0.01729174
     atom  150 type  4   force =    -0.06349640   -0.05299294   -0.02001263
     atom  151 type  4   force =     0.05092356    0.03694342    0.02448087
     atom  152 type  4   force =    -0.05807772    0.02464166    0.01510238
     atom  153 type  4   force =     0.07628102    0.01869171    0.07641515
     atom  154 type  4   force =    -0.09646579    0.00591235    0.00664491
     atom  155 type  4   force =    -0.01249126   -0.01445635   -0.00922544
     atom  156 type  4   force =    -0.05024137    0.04124227   -0.02248544
     atom  157 type  4   force =     0.04245120   -0.01057894   -0.00374000
     atom  158 type  4   force =     0.01335233    0.01209667   -0.02431167
     atom  159 type  4   force =     0.06701097    0.00747467   -0.05885831
     atom  160 type  4   force =     0.03931071   -0.08923351    0.01383827
     atom  161 type  4   force =     0.00299503   -0.02878061    0.07141856
     atom  162 type  4   force =     0.05271752    0.09509975    0.01495213
     atom  163 type  4   force =    -0.01543295    0.05818233   -0.01561055
     atom  164 type  4   force =     0.02451665    0.02903770    0.06696450
     atom  165 type  4   force =    -0.07482271    0.00942817    0.04935971
     atom  166 type  4   force =    -0.00156011   -0.10197190    0.00500413
     atom  167 type  4   force =    -0.03914303   -0.04003767   -0.01518959
     atom  168 type  4   force =     0.01692294   -0.18434459    0.05843414
     atom  169 type  4   force =     0.05232569    0.04495769   -0.09520264
     atom  170 type  4   force =     0.02788977   -0.04777886   -0.03583709
     atom  171 type  4   force =     0.01258329   -0.01692187    0.00344403
     atom  172 type  4   force =    -0.07003670    0.01232023   -0.04392451
     atom  173 type  4   force =    -0.03892516    0.00701598   -0.02545110
     atom  174 type  4   force =     0.05689915    0.08615266    0.01849411
     atom  175 type  4   force =     0.01311042    0.04180301    0.00304110
     atom  176 type  4   force =     0.03801861   -0.00538612    0.02568945
     atom  177 type  4   force =     0.06425556   -0.00464261   -0.00847814
     atom  178 type  4   force =    -0.00359488    0.03673971    0.04537915
     atom  179 type  4   force =    -0.01188850    0.02841949    0.00298527
     atom  180 type  4   force =    -0.05734866    0.00564574   -0.00722460
     atom  181 type  4   force =     0.00000138   -0.00052483    0.09592915
     atom  182 type  4   force =    -0.02452687   -0.06135800    0.05014648
     atom  183 type  4   force =    -0.03312820    0.10678644   -0.05864227
     atom  184 type  4   force =     0.01826989   -0.01126785    0.05176165
     atom  185 type  4   force =     0.04933413   -0.03492876   -0.01727791
     atom  186 type  4   force =    -0.01141027   -0.01732036    0.00166890
     atom  187 type  4   force =    -0.02757282   -0.01186380    0.05027309
     atom  188 type  4   force =    -0.02037838   -0.01787005   -0.04715607
     atom  189 type  4   force =    -0.01985167    0.03530473   -0.00039225
     atom  190 type  4   force =     0.05860973   -0.03610500    0.00663869
     atom  191 type  4   force =    -0.01852712   -0.00334987   -0.00667609
     atom  192 type  4   force =    -0.03514342    0.02414461   -0.03099900
     atom  193 type  4   force =     0.03627138   -0.06463075    0.02166117
     atom  194 type  4   force =    -0.04962760    0.00127339   -0.00628790
     atom  195 type  4   force =    -0.01023855   -0.00645432    0.01840183
     atom  196 type  4   force =     0.00241670   -0.02551713   -0.06108888
     atom  197 type  4   force =     0.00926425    0.01572044   -0.00012629
     atom  198 type  4   force =    -0.03842795    0.04138861   -0.01355906
     atom  199 type  4   force =     0.00812787   -0.02589611    0.00624097
     atom  200 type  4   force =    -0.00958860   -0.03603639    0.05783540
     atom  201 type  4   force =    -0.01078062   -0.04758061   -0.02854361
     atom  202 type  4   force =     0.01618648    0.01501696    0.04154908
     atom  203 type  4   force =    -0.05688422   -0.05915025   -0.10308687
     atom  204 type  4   force =    -0.00238932    0.01816056    0.06244271
     atom  205 type  4   force =     0.01019130    0.07388035   -0.01371141
     atom  206 type  4   force =    -0.04069875   -0.03140351   -0.04467540
     atom  207 type  4   force =    -0.00467870   -0.03032744    0.03532992
     atom  208 type  4   force =    -0.00080969    0.01181461   -0.01007183
     atom  209 type  4   force =    -0.04447294    0.03168648   -0.05087781
     atom  210 type  4   force =    -0.01135603    0.01307791   -0.05118283
     atom  211 type  4   force =    -0.00049068   -0.03481125   -0.05647730
     atom  212 type  4   force =     0.04254582   -0.03955458   -0.03319067
     atom  213 type  4   force =     0.04284512   -0.14884292   -0.08361752
     atom  214 type  4   force =     0.05170174    0.06497233   -0.05764323
     atom  215 type  4   force =    -0.02677217   -0.02907946    0.00518571
     atom  216 type  4   force =    -0.02211789    0.07576113    0.04091265
     atom  217 type  4   force =    -0.02414184    0.03766190   -0.04189355
     atom  218 type  4   force =     0.01494904    0.02514309   -0.00788489
     atom  219 type  4   force =    -0.04401725   -0.04014469   -0.00919351
     atom  220 type  4   force =     0.01253816   -0.04158098    0.02305528
     atom  221 type  4   force =    -0.00426346    0.03038487    0.06497439
     atom  222 type  4   force =     0.10391878   -0.01656598    0.00584950
     atom  223 type  4   force =     0.02180118    0.08581876   -0.05092485
     atom  224 type  4   force =     0.03971248    0.02492738   -0.01338739
     atom  225 type  4   force =     0.06108134    0.04951517   -0.00338668
     atom  226 type  4   force =     0.02006771   -0.02508664    0.02082042
     atom  227 type  4   force =    -0.02257592    0.05200631    0.04178539
     atom  228 type  4   force =     0.00321768   -0.01708626   -0.02723078
     atom  229 type  4   force =     0.01368797    0.00004741    0.05416769
     atom  230 type  4   force =     0.05287881    0.04912214   -0.00148417
     atom  231 type  4   force =     0.04248959   -0.02094919    0.07122573
     atom  232 type  4   force =     0.04274787   -0.06426456   -0.00879440
     atom  233 type  4   force =     0.03888253    0.05820200    0.02901931
     atom  234 type  4   force =    -0.03303984   -0.05983054   -0.11439589
     atom  235 type  4   force =    -0.01906726    0.15896226   -0.01449834
     atom  236 type  4   force =     0.08808986   -0.01639069   -0.04575824
     atom  237 type  4   force =     0.00620433    0.00678741    0.01214286
     atom  238 type  4   force =    -0.01093323   -0.01290022    0.04262600
     atom  239 type  4   force =     0.01912964   -0.03605607    0.00734199
     atom  240 type  4   force =     0.07764746    0.03085486    0.02820974
     atom  241 type  4   force =     0.03135341   -0.01972625   -0.00496494
     atom  242 type  4   force =    -0.20425960   -0.02977123    0.07891758
     atom  243 type  4   force =     0.02975911    0.00104296    0.02044420
     atom  244 type  4   force =    -0.05117617   -0.00158980   -0.04531609
     atom  245 type  4   force =    -0.01912109   -0.02914830   -0.09480579
     atom  246 type  4   force =     0.02447302   -0.00896439   -0.03125585
     atom  247 type  4   force =    -0.00636475   -0.01714515   -0.06720024
     atom  248 type  4   force =    -0.01645499    0.03019174    0.05874159
     atom  249 type  4   force =     0.03809578    0.02613242   -0.06221981
     atom  250 type  4   force =    -0.08195740   -0.01670596    0.00421897
     atom  251 type  4   force =    -0.00777852   -0.00391839   -0.01948577
     atom  252 type  4   force =    -0.07101623    0.01905983   -0.05231502
     atom  253 type  4   force =     0.00126281   -0.04522543   -0.11036230
     atom  254 type  4   force =    -0.09101440    0.01338191   -0.01475695
     atom  255 type  4   force =     0.01623924   -0.01882507    0.02039173
     atom  256 type  4   force =     0.03194368   -0.00801222    0.03525199
     atom  257 type  4   force =     0.02693277   -0.02500776    0.03379052
     atom  258 type  4   force =     0.00067379    0.01269846   -0.02909458
     atom  259 type  4   force =     0.04801615    0.01503304   -0.00891345
     atom  260 type  4   force =    -0.04570045   -0.01158807   -0.06092988
     atom  261 type  4   force =     0.04154035    0.02786677   -0.03934236
     atom  262 type  4   force =    -0.05487369   -0.01078309    0.04592909
     atom  263 type  4   force =     0.09637615   -0.02625848    0.01766431
     atom  264 type  4   force =    -0.04573679    0.04262326   -0.02251621
     atom  265 type  4   force =     0.02495540    0.01536081   -0.03975133
     atom  266 type  4   force =     0.02701055    0.02036609   -0.04800216
     atom  267 type  4   force =     0.07744739   -0.00409743   -0.04269694
     atom  268 type  4   force =     0.02718904   -0.04396475   -0.03136736
     atom  269 type  4   force =    -0.01663236   -0.06671029    0.00511023
     atom  270 type  4   force =    -0.07175095   -0.01326337   -0.02963790
     atom  271 type  4   force =     0.06962082    0.01181063    0.00868297
     atom  272 type  4   force =     0.02761090    0.05490321   -0.01276650
     atom  273 type  4   force =     0.00244400   -0.00628673    0.04767709
     atom  274 type  4   force =    -0.02440325    0.00275895    0.02711612
     atom  275 type  4   force =    -0.01180416   -0.02055234    0.01818403
     atom  276 type  4   force =     0.04365387    0.07911643    0.06965817
     atom  277 type  4   force =     0.02661405   -0.01173348   -0.07657180
     atom  278 type  4   force =    -0.02162640    0.06303514    0.04434750
     atom  279 type  4   force =    -0.01201451   -0.02156604    0.00405739
     atom  280 type  4   force =    -0.02690274    0.05670358    0.00947479
     atom  281 type  4   force =     0.04153655    0.03158404    0.04328440
     atom  282 type  4   force =     0.03677071   -0.05139312    0.01536899
     atom  283 type  4   force =     0.00388621   -0.06519473   -0.03213664
     atom  284 type  4   force =     0.07178502   -0.05365917   -0.03051811
     atom  285 type  4   force =     0.01850511   -0.01659117    0.01459863
     atom  286 type  4   force =    -0.11833773   -0.02981669   -0.06916488
     atom  287 type  4   force =    -0.01603072   -0.00147759    0.04442720
     atom  288 type  4   force =     0.06713646   -0.00390385   -0.05574538
     atom  289 type  4   force =     0.02102889    0.09117768   -0.02694073
     atom  290 type  4   force =     0.10196548   -0.05833055   -0.11031177
     atom  291 type  4   force =    -0.03026631    0.01407126   -0.01562084
     atom  292 type  4   force =    -0.01956871   -0.01137975    0.01440612
     atom  293 type  4   force =    -0.00649639   -0.02628478   -0.04962980
     atom  294 type  4   force =     0.08007438   -0.02996339    0.16775568
     atom  295 type  4   force =    -0.05387864    0.06401951    0.06797600
     atom  296 type  4   force =    -0.05990440    0.01920667    0.03731844
     atom  297 type  4   force =    -0.01786893    0.01397579   -0.02433217
     atom  298 type  4   force =     0.01302168    0.01340055    0.01803269
     atom  299 type  4   force =    -0.06670694   -0.14470074   -0.02714339
     atom  300 type  4   force =    -0.01170267   -0.05288906   -0.03411305
     atom  301 type  4   force =    -0.07375734    0.03965714    0.02584921
     atom  302 type  4   force =     0.00578636    0.12646082    0.11049024
     atom  303 type  4   force =    -0.01421141   -0.02294579   -0.03986622
     atom  304 type  4   force =    -0.03900670   -0.00163186    0.01123971
     atom  305 type  4   force =    -0.03630479   -0.01653081    0.00697645
     atom  306 type  4   force =     0.00812005    0.01577038   -0.05869654
     atom  307 type  4   force =     0.02342608    0.02015879    0.04235762
     atom  308 type  4   force =     0.00975156    0.00088598   -0.05118730
     atom  309 type  4   force =     0.00197482   -0.02057332    0.01390061
     atom  310 type  4   force =     0.09237040   -0.00427260    0.11082451
     atom  311 type  4   force =    -0.03277659   -0.01342597    0.01147033
     atom  312 type  4   force =    -0.02337792    0.02160401    0.01458295
     atom  313 type  4   force =     0.01444613   -0.08747973    0.01937003
     atom  314 type  4   force =    -0.04558698    0.01303318   -0.02396368
     atom  315 type  4   force =    -0.01721377   -0.00381739   -0.02790504
     atom  316 type  4   force =    -0.00559871   -0.00390093    0.01814054
     atom  317 type  4   force =    -0.00166594    0.06902045    0.04008610
     atom  318 type  4   force =     0.04038929    0.00254187   -0.01761281
     atom  319 type  4   force =    -0.02971062   -0.01473218   -0.06110207
     atom  320 type  4   force =     0.04267873   -0.01855574   -0.02678328
     atom  321 type  4   force =    -0.02611188    0.12886285    0.03815723
     atom  322 type  4   force =     0.02390680    0.01095485   -0.06530293
     atom  323 type  4   force =     0.03525319   -0.03551878    0.04976584
     atom  324 type  4   force =     0.05188318    0.00481564   -0.02337000
     atom  325 type  4   force =     0.03439979   -0.02324413   -0.02834823
     atom  326 type  4   force =    -0.00823789    0.11665497    0.05598054
     atom  327 type  4   force =     0.04741123    0.04959671   -0.03981441
     atom  328 type  4   force =     0.02045646    0.00100947   -0.01990431
     atom  329 type  4   force =     0.10558110    0.01069185    0.01855018
     atom  330 type  4   force =     0.02365623   -0.03646044   -0.05438914
     atom  331 type  4   force =     0.03238640    0.04217837   -0.00806916
     atom  332 type  4   force =     0.02198851    0.05076593   -0.01243477
     atom  333 type  4   force =    -0.05390188   -0.05586520    0.02738997
     atom  334 type  4   force =     0.02374326    0.04554634   -0.02799535
     atom  335 type  4   force =     0.06795109    0.02175282   -0.02188823
     atom  336 type  4   force =    -0.03953575   -0.03106402   -0.04406532
     atom  337 type  4   force =    -0.00490414   -0.00468218   -0.02310932
     atom  338 type  4   force =    -0.05724253    0.04314598   -0.01901477
     atom  339 type  5   force =    -0.02047433    0.02372703    0.03467592
     atom  340 type  5   force =     0.00638324   -0.02889262    0.02835082
     atom  341 type  6   force =     0.02476278    0.00360381    0.00441206
     atom  342 type  6   force =    -0.02464526   -0.00361811   -0.00434234
     atom  343 type  6   force =     0.00310975   -0.04250885    0.00359433
     atom  344 type  6   force =     0.00754440   -0.04202720    0.00438107
     atom  345 type  6   force =    -0.00728352    0.04207632   -0.00412907
     atom  346 type  6   force =    -0.00366535    0.04245937   -0.00368099
     atom  347 type  6   force =     0.02928401    0.02315599    0.00386913
     atom  348 type  6   force =    -0.03417387    0.01409208   -0.00712484
     atom  349 type  6   force =     0.03416947   -0.01409117    0.00717373
     atom  350 type  6   force =    -0.02952666   -0.02316561   -0.00382739
     atom  351 type  7   force =     0.00296751    0.00578909    0.00010844
     atom  352 type  7   force =    -0.00416071    0.00474582   -0.00119515
     atom  353 type  7   force =     0.00418666   -0.00474395    0.00106357
     atom  354 type  7   force =    -0.00271042   -0.00574046   -0.00019490
     atom  355 type  7   force =     0.00391427   -0.00333546    0.00089631
     atom  356 type  7   force =    -0.00287964   -0.00421054   -0.00030997
     atom  357 type  7   force =     0.00295370    0.00427983    0.00021707
     atom  358 type  7   force =    -0.00383209    0.00321253   -0.00101230

     Total force =     1.686650     Total SCF correction =     0.000155


     Computing stress (Cartesian axis) and pressure


     negative rho (up, down):  5.999E-02 0.000E+00
          total   stress  (Ry/bohr**3)                   (kbar)     P=        7.98
   0.00005256   0.00000157  -0.00000258            7.73        0.23       -0.38
   0.00000157   0.00006094   0.00000342            0.23        8.97        0.50
  -0.00000258   0.00000342   0.00004924           -0.38        0.50        7.24


     Writing all to output data dir ./outputs/pwscf.save/ :
     XML data file, charge density, pseudopotentials, collected wavefunctions
 
     init_run     :    145.07s CPU    148.14s WALL (       1 calls)
     electrons    :  76698.74s CPU  78051.41s WALL (       1 calls)
     forces       :     93.26s CPU     96.04s WALL (       1 calls)
     stress       :    350.37s CPU    355.18s WALL (       1 calls)

     Called by init_run:
     wfcinit      :    129.17s CPU    130.94s WALL (       1 calls)
     potinit      :      1.22s CPU      1.30s WALL (       1 calls)
     hinit0       :      1.40s CPU      1.45s WALL (       1 calls)

     Called by electrons:
     c_bands      :  64200.82s CPU  64965.57s WALL (     272 calls)
     sum_band     :  11215.74s CPU  11552.05s WALL (     272 calls)
     v_of_rho     :    124.71s CPU    129.56s WALL (     273 calls)
     newd         :    917.72s CPU   1160.24s WALL (     273 calls)
     PAW_pot      :    153.86s CPU    155.01s WALL (     273 calls)
     mix_rho      :     69.60s CPU     71.40s WALL (     272 calls)

     Called by c_bands:
     init_us_2    :    597.92s CPU    608.70s WALL (     546 calls)
     cegterg      :  63390.82s CPU  64140.87s WALL (     272 calls)

     Called by *egterg:
     cdiaghg      :    921.18s CPU    929.59s WALL (     591 calls)
     h_psi        :  35361.49s CPU  35746.74s WALL (     592 calls)
     s_psi        :  10502.68s CPU  10596.24s WALL (     592 calls)
     g_psi        :     41.15s CPU     41.68s WALL (     319 calls)

     Called by h_psi:
     h_psi:calbec :  10520.66s CPU  10599.80s WALL (     592 calls)
     vloc_psi     :  14273.24s CPU  14426.78s WALL (     592 calls)
                                        0.00s GPU  (     592 calls)
     add_vuspsi   :  10501.15s CPU  10589.59s WALL (     592 calls)

     General routines
     calbec       :  16068.48s CPU  16188.39s WALL (     881 calls)
     fft          :    126.66s CPU    132.16s WALL (    3572 calls)
     ffts         :     10.97s CPU     11.42s WALL (     545 calls)
     fftw         :  13812.35s CPU  13952.85s WALL ( 1535368 calls)
     interpolate  :     15.14s CPU     15.77s WALL (     273 calls)
 
     Parallel routines
 
     PWSCF        :     21h28m CPU     21h54m WALL

 
   This run was terminated on:   2: 7:38   9Mar2026            

=------------------------------------------------------------------------------=
   JOB DONE.
=------------------------------------------------------------------------------=
