
     Program PWSCF v.7.5 starts on  5Mar2026 at 10:50:31 

     This program is part of the open-source Quantum ESPRESSO suite
     for quantum simulation of materials; please cite
         "P. Giannozzi et al., J. Phys.:Condens. Matter 21 395502 (2009);
         "P. Giannozzi et al., J. Phys.:Condens. Matter 29 465901 (2017);
         "P. Giannozzi et al., J. Chem. Phys. 152 154105 (2020);
          URL http://www.quantum-espresso.org", 
     in publications or presentations arising from this work. More details at
     http://www.quantum-espresso.org/quote

     Parallel version (MPI), running on    80 processors

     MPI processes distributed on     4 nodes
     81537 MiB available memory on the printing compute node when the environment starts
 
     Reading input from NaphthaleneOnGlassSite2Snapshot13.in
Warning: card &CELL ignored
Warning: card &FCP ignored
Warning: card &RISM ignored

     Current dimensions of program PWSCF are:
     Max number of different atomic species (ntypx) = 10
     Max number of k-points (npk) =  40000
     Max angular momentum in pseudopotentials (lmaxx) =  4
     file Na.paw.z_9.ld1.psl.v1.0.0-low.upf: wavefunction(s)  2P renormalized
     file O.pbe-n-kjpaw_psl.0.1.UPF: wavefunction(s)  2P renormalized
     file Al.pbe-n-kjpaw_psl.1.0.0.UPF: wavefunction(s)  3S 3P renormalized
     file C.pbe-n-kjpaw_psl.1.0.0.UPF: wavefunction(s)  2S 2P renormalized
 
     R & G space division:  proc/nbgrp/npool/nimage =      80
     Subspace diagonalization in iterative solution of the eigenvalue problem:
     one sub-group per band group will be used
     custom distributed-memory algorithm (size of sub-group:  8*  8 procs)

 
     Parallelization info
     --------------------
     sticks:   dense  smooth     PW     G-vecs:    dense   smooth      PW
     Min         450     400    100               199276   167008   20874
     Max         451     401    101               199303   167021   20885
     Sum       36073   32057   8021             15943719 13361281 1670237
 
     Using Slab Decomposition
 


     bravais-lattice index     =            0
     lattice parameter (alat)  =      35.4885  a.u.
     unit-cell volume          =  138228.4306 (a.u.)^3
     number of atoms/cell      =          358
     number of atomic types    =            7
     number of electrons       =      1872.00
     number of Kohn-Sham states=         1123
     kinetic-energy cutoff     =      80.0000  Ry
     charge density cutoff     =     360.0000  Ry
     scf convergence threshold =      1.0E-08
     mixing beta               =       0.1000
     number of iterations used =            8  plain     mixing
     Exchange-correlation= PBE
                           (   1   4   3   4   0   0   0)

     celldm(1)=  35.488539  celldm(2)=   0.000000  celldm(3)=   0.000000
     celldm(4)=   0.000000  celldm(5)=   0.000000  celldm(6)=   0.000000

     crystal axes: (cart. coord. in units of alat)
               a(1) = (   1.000000   0.000000   0.000000 )  
               a(2) = (   0.000000   1.000000   0.000000 )  
               a(3) = (   0.000000   0.000000   3.092666 )  

     reciprocal axes: (cart. coord. in units 2 pi/alat)
               b(1) = (  1.000000  0.000000  0.000000 )  
               b(2) = (  0.000000  1.000000  0.000000 )  
               b(3) = (  0.000000  0.000000  0.323346 )  


     PseudoPot. # 1 for Na read from file:
     /home/sabeel/VOCC_Simulation/pseudopotentials/SSSP_Precision/Na.paw.z_9.ld1.psl.v1.0.0-low.upf
     MD5 check sum: 32bccecb13d7399e6c7dae6fe6685ff0
     Pseudo is Projector augmented-wave + core cor, Zval =  9.0
     Generated using &quot;atomic&quot; code by A. Dal Corso  v.6.3MaX
     Shape of augmentation charge: PSQ
     Using radial grid of 1121 points,  4 beta functions with: 
                l(1) =   0
                l(2) =   0
                l(3) =   1
                l(4) =   1
     Q(r) pseudized with 0 coefficients 


     PseudoPot. # 2 for B  read from file:
     /home/sabeel/VOCC_Simulation/pseudopotentials/SSSP_Precision/B_pbe_v1.01.uspp.F.UPF
     MD5 check sum: d081ebb89d0c768e112975f650467a00
     Pseudo is Ultrasoft + core correction, Zval =  3.0
     Generated by new atomic code, or converted to UPF format
     Using radial grid of  781 points,  4 beta functions with: 
                l(1) =   0
                l(2) =   0
                l(3) =   1
                l(4) =   1
     Q(r) pseudized with  8 coefficients,  rinner =    1.100   1.100   1.100


     PseudoPot. # 3 for Si read from file:
     /home/sabeel/VOCC_Simulation/pseudopotentials/SSSP_Precision/Si.pbe-n-rrkjus_psl.1.0.0.UPF
     MD5 check sum: 0b0bb1205258b0d07b9f9672cf965d36
     Pseudo is Ultrasoft + core correction, Zval =  4.0
     Generated using "atomic" code by A. Dal Corso  v.5.1
     Using radial grid of 1141 points,  6 beta functions with: 
                l(1) =   0
                l(2) =   0
                l(3) =   1
                l(4) =   1
                l(5) =   2
                l(6) =   2
     Q(r) pseudized with 0 coefficients 


     PseudoPot. # 4 for O  read from file:
     /home/sabeel/VOCC_Simulation/pseudopotentials/SSSP_Precision/O.pbe-n-kjpaw_psl.0.1.UPF
     MD5 check sum: 0234752ac141de4415c5fc33072bef88
     Pseudo is Projector augmented-wave + core cor, Zval =  6.0
     Generated using "atomic" code by A. Dal Corso  v.5.0.99 svn rev. 10869
     Shape of augmentation charge: BESSEL
     Using radial grid of 1095 points,  4 beta functions with: 
                l(1) =   0
                l(2) =   0
                l(3) =   1
                l(4) =   1
     Q(r) pseudized with 0 coefficients 


     PseudoPot. # 5 for Al read from file:
     /home/sabeel/VOCC_Simulation/pseudopotentials/SSSP_Precision/Al.pbe-n-kjpaw_psl.1.0.0.UPF
     MD5 check sum: cfc449ca30b5f3223ec38ddd88ac046d
     Pseudo is Projector augmented-wave + core cor, Zval =  3.0
     Generated using "atomic" code by A. Dal Corso  v.5.1
     Shape of augmentation charge: PSQ
     Using radial grid of 1135 points,  6 beta functions with: 
                l(1) =   0
                l(2) =   0
                l(3) =   1
                l(4) =   1
                l(5) =   2
                l(6) =   2
     Q(r) pseudized with 0 coefficients 


     PseudoPot. # 6 for C  read from file:
     /home/sabeel/VOCC_Simulation/pseudopotentials/SSSP_Precision/C.pbe-n-kjpaw_psl.1.0.0.UPF
     MD5 check sum: 5d2aebdfa2cae82b50a7e79e9516da0f
     Pseudo is Projector augmented-wave + core cor, Zval =  4.0
     Generated using "atomic" code by A. Dal Corso  v.5.1
     Shape of augmentation charge: PSQ
     Using radial grid of 1073 points,  4 beta functions with: 
                l(1) =   0
                l(2) =   0
                l(3) =   1
                l(4) =   1
     Q(r) pseudized with 0 coefficients 


     PseudoPot. # 7 for H  read from file:
     /home/sabeel/VOCC_Simulation/pseudopotentials/SSSP_Precision/H_ONCV_PBE-1.0.oncvpsp.upf
     MD5 check sum: 1790becc920ee074925cf490c71280fe
     Pseudo is Norm-conserving, Zval =  1.0
     Generated using ONCVPSP code by D. R. Hamann
     Using radial grid of 1166 points,  2 beta functions with: 
                l(1) =   0
                l(2) =   0

     atomic species   valence    mass     pseudopotential
     Na                9.00    22.98977     Na( 1.00)
     B                 3.00    10.81000     B ( 1.00)
     Si                4.00    28.08500     Si( 1.00)
     O                 6.00    15.99900     O ( 1.00)
     Al                3.00    26.98154     Al( 1.00)
     C                 4.00    12.01100     C ( 1.00)
     H                 1.00     1.00800     H ( 1.00)

     No symmetry found



   Cartesian axes

     site n.     atom                  positions (alat units)
         1        Na     tau(   1) = (   0.2476327   0.1287261   1.4401902  )
         2        Na     tau(   2) = (   0.2347070   0.3964799   1.8357059  )
         3        Na     tau(   3) = (   0.2580766   0.4457236   1.6551511  )
         4        Na     tau(   4) = (   0.0484944   0.0277893   1.6277847  )
         5        Na     tau(   5) = (   0.2352313   0.0813062   1.2863150  )
         6        Na     tau(   6) = (   0.0747243   0.2371463   1.1982473  )
         7        Na     tau(   7) = (   0.1133306   0.7698962   1.8611434  )
         8        Na     tau(   8) = (   0.9037110   0.1954209   1.2700780  )
         9        Na     tau(   9) = (   0.5181841   0.1014052   1.4940734  )
        10        Na     tau(  10) = (   0.3803624   0.0140251   1.8302637  )
        11        Na     tau(  11) = (   0.3545179   0.4989222   1.3772145  )
        12        B      tau(  12) = (   0.9565860   0.6559989   1.4661680  )
        13        B      tau(  13) = (   0.3779039   0.3190213   1.8506233  )
        14        B      tau(  14) = (   0.6357433   0.7757670   1.3375748  )
        15        B      tau(  15) = (   0.9958362   0.0827877   1.8476266  )
        16        B      tau(  16) = (   0.6987179   0.5586979   1.3943070  )
        17        B      tau(  17) = (   0.0903279   0.5997535   1.2200041  )
        18        B      tau(  18) = (   0.9460845   0.5017876   1.4754679  )
        19        B      tau(  19) = (   0.0032347   0.0527127   1.2839437  )
        20        B      tau(  20) = (   0.1241012   0.5940167   1.6016841  )
        21        B      tau(  21) = (   0.4174729   0.9198072   1.5541475  )
        22        B      tau(  22) = (   0.4638227   0.9107282   1.2322731  )
        23        B      tau(  23) = (   0.5096053   0.7092947   1.5000083  )
        24        B      tau(  24) = (   0.4035376   0.9367665   1.6900270  )
        25        B      tau(  25) = (   0.7132674   0.8560217   1.2558196  )
        26        B      tau(  26) = (   0.2579773   0.4217781   1.2874388  )
        27        B      tau(  27) = (   0.1862793   0.2338812   1.3576537  )
        28        B      tau(  28) = (   0.2134919   0.3664862   1.5073156  )
        29        B      tau(  29) = (   0.3546252   0.0462610   1.5293894  )
        30        B      tau(  30) = (   0.8082206   0.9504483   1.6218439  )
        31        B      tau(  31) = (   0.4915043   0.5408159   1.2913026  )
        32        B      tau(  32) = (   0.2471486   0.9450605   1.4099193  )
        33        B      tau(  33) = (   0.7089246   0.1566090   1.6669558  )
        34        B      tau(  34) = (   0.4858908   0.1745693   1.3498737  )
        35        Si     tau(  35) = (   0.5740761   0.3686341   1.4981594  )
        36        Si     tau(  36) = (   0.9600416   0.6521543   1.2713743  )
        37        Si     tau(  37) = (   0.8029666   0.9237355   1.4090604  )
        38        Si     tau(  38) = (   0.6589027   0.0111466   1.4303706  )
        39        Si     tau(  39) = (   0.7148031   0.8518694   1.6658713  )
        40        Si     tau(  40) = (   0.4062844   0.4370669   1.7000479  )
        41        Si     tau(  41) = (   0.8652299   0.0194200   1.2866760  )
        42        Si     tau(  42) = (   0.8792462   0.4724358   1.3313926  )
        43        Si     tau(  43) = (   0.9761010   0.8191325   1.3004490  )
        44        Si     tau(  44) = (   0.0927580   0.6000365   1.4532062  )
        45        Si     tau(  45) = (   0.8492038   0.6801733   1.8429896  )
        46        Si     tau(  46) = (   0.7648638   0.9759642   1.8781504  )
        47        Si     tau(  47) = (   0.8282769   0.9005504   1.7531841  )
        48        Si     tau(  48) = (   0.2400871   0.2615564   1.6009290  )
        49        Si     tau(  49) = (   0.0782160   0.8578516   1.7113893  )
        50        Si     tau(  50) = (   0.1793983   0.5421597   1.3229395  )
        51        Si     tau(  51) = (   0.3045589   0.3154693   1.3856788  )
        52        Si     tau(  52) = (   0.1868342   0.9496617   1.8144358  )
        53        Si     tau(  53) = (   0.5597482   0.9942014   1.8563540  )
        54        Si     tau(  54) = (   0.3283405   0.8654915   1.7979255  )
        55        Si     tau(  55) = (   0.3944303   0.1342286   1.2558232  )
        56        Si     tau(  56) = (   0.5556116   0.4029995   1.7688172  )
        57        Si     tau(  57) = (   0.8886951   0.0519111   1.5515978  )
        58        Si     tau(  58) = (   0.9177874   0.8266438   1.8602018  )
        59        Si     tau(  59) = (   0.5141592   0.7513592   1.7304853  )
        60        Si     tau(  60) = (   0.6200680   0.7296116   1.5975635  )
        61        Si     tau(  61) = (   0.4531771   0.2653855   1.4551164  )
        62        Si     tau(  62) = (   0.9530092   0.1910999   1.6203079  )
        63        Si     tau(  63) = (   0.9806318   0.2594417   1.4695044  )
        64        Si     tau(  64) = (   0.1810221   0.5658568   1.7318917  )
        65        Si     tau(  65) = (   0.2276537   0.6624309   1.2309086  )
        66        Si     tau(  66) = (   0.7086066   0.3068958   1.4624957  )
        67        Si     tau(  67) = (   0.7573617   0.5008676   1.2102682  )
        68        Si     tau(  68) = (   0.0630774   0.5052222   1.8068999  )
        69        Si     tau(  69) = (   0.9531780   0.4208941   1.7332624  )
        70        Si     tau(  70) = (   0.8429520   0.6341042   1.3864806  )
        71        Si     tau(  71) = (   0.8255070   0.2513717   1.7092992  )
        72        Si     tau(  72) = (   0.4660404   0.3166643   1.5999861  )
        73        Si     tau(  73) = (   0.3218087   0.1696541   1.7095271  )
        74        Si     tau(  74) = (   0.6054871   0.0864265   1.2929813  )
        75        Si     tau(  75) = (   0.4402609   0.0821865   1.6559030  )
        76        Si     tau(  76) = (   0.3770531   0.0317907   1.3941734  )
        77        Si     tau(  77) = (   0.5059912   0.8072476   1.3243503  )
        78        Si     tau(  78) = (   0.6069382   0.5044701   1.6609957  )
        79        Si     tau(  79) = (   0.6370349   0.4244534   1.3741369  )
        80        Si     tau(  80) = (   0.6855674   0.7078304   1.8645318  )
        81        Si     tau(  81) = (   0.0765130   0.9298841   1.2314627  )
        82        Si     tau(  82) = (   0.9863684   0.4054382   1.2235204  )
        83        Si     tau(  83) = (   0.4950631   0.2585395   1.7548401  )
        84        Si     tau(  84) = (   0.5719431   0.1160579   1.7357262  )
        85        Si     tau(  85) = (   0.3566442   0.7389475   1.7027041  )
        86        Si     tau(  86) = (   0.5887626   0.6478135   1.7482870  )
        87        Si     tau(  87) = (   0.3778403   0.4701707   1.1981005  )
        88        Si     tau(  88) = (   0.7705746   0.7745811   1.3546535  )
        89        Si     tau(  89) = (   0.6353056   0.3899359   1.2194797  )
        90        Si     tau(  90) = (   0.3199297   0.6027545   1.8036004  )
        91        Si     tau(  91) = (   0.6901246   0.5787282   1.5496775  )
        92        Si     tau(  92) = (   0.1108815   0.9857043   1.4484254  )
        93        Si     tau(  93) = (   0.0087222   0.8101075   1.4596435  )
        94        Si     tau(  94) = (   0.4662737   0.5842118   1.4387730  )
        95        Si     tau(  95) = (   0.1497603   0.1150345   1.8191784  )
        96        Si     tau(  96) = (   0.9119816   0.9073773   1.5284091  )
        97        Si     tau(  97) = (   0.5081777   0.9347421   1.4393654  )
        98        Si     tau(  98) = (   0.9733658   0.9480751   1.7929925  )
        99        Si     tau(  99) = (   0.2449909   0.7736475   1.5958723  )
       100        Si     tau( 100) = (   0.2568298   0.7840856   1.3334763  )
       101        Si     tau( 101) = (   0.1600543   0.7576293   1.4557816  )
       102        Si     tau( 102) = (   0.9190690   0.2974838   1.8287833  )
       103        Si     tau( 103) = (   0.8499270   0.3745654   1.6104514  )
       104        Si     tau( 104) = (   0.8444491   0.5369054   1.7673517  )
       105        Si     tau( 105) = (   0.1203187   0.1732756   1.6597012  )
       106        Si     tau( 106) = (   0.6321686   0.6005607   1.2681838  )
       107        Si     tau( 107) = (   0.6235724   0.8470731   1.8048529  )
       108        Si     tau( 108) = (   0.7501132   0.1202716   1.2309056  )
       109        Si     tau( 109) = (   0.2746484   0.2046900   1.8670863  )
       110        Si     tau( 110) = (   0.2273259   0.0646953   1.6216725  )
       111        Si     tau( 111) = (   0.0729274   0.4042159   1.4579120  )
       112        Si     tau( 112) = (   0.6640697   0.1601480   1.5162335  )
       113        Si     tau( 113) = (   0.1226817   0.7031938   1.6887692  )
       114        Si     tau( 114) = (   0.8406300   0.5276586   1.5875131  )
       115        Si     tau( 115) = (   0.8389500   0.3149315   1.3901795  )
       116        Si     tau( 116) = (   0.1722727   0.9211130   1.5953570  )
       117        Si     tau( 117) = (   0.0763504   0.1375521   1.3930086  )
       118        Si     tau( 118) = (   0.3256209   0.9115638   1.2548481  )
       119        Si     tau( 119) = (   0.3955849   0.7224945   1.4035300  )
       120        Si     tau( 120) = (   0.4652418   0.5499611   1.5942954  )
       121        Si     tau( 121) = (   0.1212618   0.3651412   1.3045003  )
       122        O      tau( 122) = (   0.0295168   0.4481121   1.8630498  )
       123        O      tau( 123) = (   0.8632305   0.7660730   1.8351295  )
       124        O      tau( 124) = (   0.7865379   0.5198677   1.8292109  )
       125        O      tau( 125) = (   0.7687039   0.8065522   1.2712216  )
       126        O      tau( 126) = (   0.2613316   0.2462125   1.3627201  )
       127        O      tau( 127) = (   0.4383841   0.2721051   1.5384261  )
       128        O      tau( 128) = (   0.4075804   0.9041606   1.6244717  )
       129        O      tau( 129) = (   0.2891632   0.9821156   1.2266374  )
       130        O      tau( 130) = (   0.3003666   0.1796727   1.7902854  )
       131        O      tau( 131) = (   0.5973279   0.4225163   1.2949590  )
       132        O      tau( 132) = (   0.5334428   0.5020140   1.6146071  )
       133        O      tau( 133) = (   0.2755656   0.1058719   1.6786020  )
       134        O      tau( 134) = (   0.1545595   0.1075181   1.6150265  )
       135        O      tau( 135) = (   0.1198242   0.5723265   1.5291309  )
       136        O      tau( 136) = (   0.5826608   0.7211316   1.6806210  )
       137        O      tau( 137) = (   0.4384820   0.7620469   1.6969890  )
       138        O      tau( 138) = (   0.3813441   0.2977472   1.4178316  )
       139        O      tau( 139) = (   0.9518571   0.2429557   1.5505285  )
       140        O      tau( 140) = (   0.6668767   0.5177678   1.6031137  )
       141        O      tau( 141) = (   0.1520770   0.1695411   1.3620472  )
       142        O      tau( 142) = (   0.6925009   0.7509516   1.3753791  )
       143        O      tau( 143) = (   0.1434568   0.6580895   1.2139172  )
       144        O      tau( 144) = (   0.4761486   0.9028411   1.5138988  )
       145        O      tau( 145) = (   0.0631356   0.5782061   1.8492954  )
       146        O      tau( 146) = (   0.5876332   0.4146284   1.8503125  )
       147        O      tau( 147) = (   0.1071621   0.8902567   1.6361869  )
       148        O      tau( 148) = (   0.0331486   0.1967754   1.4407710  )
       149        O      tau( 149) = (   0.9443941   0.9810288   1.5588672  )
       150        O      tau( 150) = (   0.5485694   0.5774714   1.2625723  )
       151        O      tau( 151) = (   0.6090489   0.9225244   1.8421140  )
       152        O      tau( 152) = (   0.3184350   0.7927686   1.7545505  )
       153        O      tau( 153) = (   0.2965868   0.2359092   1.6579206  )
       154        O      tau( 154) = (   0.3399948   0.4149078   1.7451441  )
       155        O      tau( 155) = (   0.6583099   0.3076783   1.2358723  )
       156        O      tau( 156) = (   0.5620926   0.7442927   1.5385442  )
       157        O      tau( 157) = (   0.5556976   0.3175372   1.7688381  )
       158        O      tau( 158) = (   0.3525972   0.6632019   1.7471104  )
       159        O      tau( 159) = (   0.9620412   0.3446718   1.7697440  )
       160        O      tau( 160) = (   0.5313272   0.1848172   1.7709556  )
       161        O      tau( 161) = (   0.9429693   0.0183272   1.3239474  )
       162        O      tau( 162) = (   0.4858005   0.9533180   1.8755890  )
       163        O      tau( 163) = (   0.3657073   0.5328581   1.8345358  )
       164        O      tau( 164) = (   0.4406081   0.5066782   1.2484323  )
       165        O      tau( 165) = (   0.3135028   0.2834622   1.8690668  )
       166        O      tau( 166) = (   0.7907911   0.8360261   1.7119523  )
       167        O      tau( 167) = (   0.7289290   0.9234833   1.2340123  )
       168        O      tau( 168) = (   0.1454692   0.2885690   1.3267456  )
       169        O      tau( 169) = (   0.3914991   0.9066251   1.7575926  )
       170        O      tau( 170) = (   0.7079875   0.2222935   1.4707635  )
       171        O      tau( 171) = (   0.9743698   0.8515159   1.5269402  )
       172        O      tau( 172) = (   0.1330105   0.5361140   1.2470617  )
       173        O      tau( 173) = (   0.5827735   0.0420994   1.2254729  )
       174        O      tau( 174) = (   0.8602910   0.6220068   1.7811976  )
       175        O      tau( 175) = (   0.5252483   0.6418342   1.4684534  )
       176        O      tau( 176) = (   0.6556139   0.6691234   1.7930720  )
       177        O      tau( 177) = (   0.9478947   0.4555202   1.2814895  )
       178        O      tau( 178) = (   0.9699578   0.0766966   1.2188133  )
       179        O      tau( 179) = (   0.5480526   0.8088247   1.7836236  )
       180        O      tau( 180) = (   0.3152477   0.7447790   1.3880620  )
       181        O      tau( 181) = (   0.1477991   0.6460434   1.7450578  )
       182        O      tau( 182) = (   0.4226375   0.0083615   1.6949577  )
       183        O      tau( 183) = (   0.5004654   0.8461638   1.2447985  )
       184        O      tau( 184) = (   0.7864920   0.8423242   1.4036977  )
       185        O      tau( 185) = (   0.9046070   0.6136339   1.3286598  )
       186        O      tau( 186) = (   0.1308852   0.5564651   1.3912596  )
       187        O      tau( 187) = (   0.0181193   0.9388870   1.8632981  )
       188        O      tau( 188) = (   0.5236768   0.3172741   1.4469420  )
       189        O      tau( 189) = (   0.6771903   0.1363695   1.2729556  )
       190        O      tau( 190) = (   0.5668565   0.7520726   1.3411952  )
       191        O      tau( 191) = (   0.4390184   0.1054952   1.8920128  )
       192        O      tau( 192) = (   0.2801127   0.0556319   1.5537880  )
       193        O      tau( 193) = (   0.9517833   0.2240015   1.8530263  )
       194        O      tau( 194) = (   0.4078786   0.5134087   1.6517908  )
       195        O      tau( 195) = (   0.6735166   0.7941076   1.8547702  )
       196        O      tau( 196) = (   0.7896414   0.2674110   1.3392843  )
       197        O      tau( 197) = (   0.9136500   0.5214282   1.5392122  )
       198        O      tau( 198) = (   0.5881526   0.4350093   1.4460280  )
       199        O      tau( 199) = (   0.7745755   0.5842257   1.3844862  )
       200        O      tau( 200) = (   0.2034896   0.9862494   1.6415920  )
       201        O      tau( 201) = (   0.1233221   0.6813655   1.4530684  )
       202        O      tau( 202) = (   0.7937827   0.3272627   1.4639956  )
       203        O      tau( 203) = (   0.4473563   0.5396589   1.5104804  )
       204        O      tau( 204) = (   0.6542799   0.3403998   1.5182787  )
       205        O      tau( 205) = (   0.8234572   0.7113307   1.3622509  )
       206        O      tau( 206) = (   0.8127487   0.4431771   1.5824090  )
       207        O      tau( 207) = (   0.5134106   0.6764784   1.7758121  )
       208        O      tau( 208) = (   0.1836556   0.7783442   1.3761575  )
       209        O      tau( 209) = (   0.8104766   0.3105590   1.6473803  )
       210        O      tau( 210) = (   0.3044033   0.9850075   1.3843284  )
       211        O      tau( 211) = (   0.1301504   0.8965179   1.7717389  )
       212        O      tau( 212) = (   0.3197141   0.1653364   1.2298596  )
       213        O      tau( 213) = (   0.4699233   0.1934200   1.4196372  )
       214        O      tau( 214) = (   0.2809558   0.8612246   1.3097159  )
       215        O      tau( 215) = (   0.4264163   0.2824703   1.8051299  )
       216        O      tau( 216) = (   0.6599679   0.6539216   1.5790006  )
       217        O      tau( 217) = (   0.7349642   0.9291111   1.6364595  )
       218        O      tau( 218) = (   0.0099961   0.4612132   1.4800917  )
       219        O      tau( 219) = (   0.5892025   0.1978638   1.5290320  )
       220        O      tau( 220) = (   0.0485841   0.8646896   1.2765110  )
       221        O      tau( 221) = (   0.9732948   0.8322736   1.3845405  )
       222        O      tau( 222) = (   0.4005127   0.1467648   1.7001924  )
       223        O      tau( 223) = (   0.8561165   0.3880932   1.3551362  )
       224        O      tau( 224) = (   0.1908703   0.7320545   1.6493092  )
       225        O      tau( 225) = (   0.5316561   0.3624401   1.5720686  )
       226        O      tau( 226) = (   0.6407674   0.0341441   1.3503554  )
       227        O      tau( 227) = (   0.2507360   0.3493753   1.4464087  )
       228        O      tau( 228) = (   0.5138994   0.8709061   1.3834646  )
       229        O      tau( 229) = (   0.9079300   0.5013233   1.4088368  )
       230        O      tau( 230) = (   0.4395504   0.1937154   1.2966161  )
       231        O      tau( 231) = (   0.2308999   0.6103161   1.2990312  )
       232        O      tau( 232) = (   0.3685013   0.9700313   1.5258447  )
       233        O      tau( 233) = (   0.8514985   0.9494698   1.6877232  )
       234        O      tau( 234) = (   0.0187499   0.4824011   1.7364241  )
       235        O      tau( 235) = (   0.2414021   0.3421124   1.5740169  )
       236        O      tau( 236) = (   0.6097970   0.4413714   1.7163163  )
       237        O      tau( 237) = (   0.4788214   0.4352721   1.7472383  )
       238        O      tau( 238) = (   0.1395403   0.9630524   1.5257738  )
       239        O      tau( 239) = (   0.3787358   0.0784353   1.3203646  )
       240        O      tau( 240) = (   0.5839692   0.9685892   1.4551464  )
       241        O      tau( 241) = (   0.9110607   0.6557788   1.2003494  )
       242        O      tau( 242) = (   0.0686474   0.1043740   1.8437037  )
       243        O      tau( 243) = (   0.1460976   0.3999842   1.5060950  )
       244        O      tau( 244) = (   0.4166165   0.3782170   1.6358330  )
       245        O      tau( 245) = (   0.0075933   0.9084354   1.7265037  )
       246        O      tau( 246) = (   0.8482460   0.9888286   1.2074661  )
       247        O      tau( 247) = (   0.6787187   0.3475581   1.3906861  )
       248        O      tau( 248) = (   0.2793975   0.6318760   1.8700688  )
       249        O      tau( 249) = (   0.1753735   0.9662414   1.3957977  )
       250        O      tau( 250) = (   0.0079684   0.6039592   1.4520956  )
       251        O      tau( 251) = (   0.6799702   0.7916690   1.6137563  )
       252        O      tau( 252) = (   0.8228944   0.4963375   1.2716413  )
       253        O      tau( 253) = (   0.1652982   0.5553089   1.6491463  )
       254        O      tau( 254) = (   0.6527640   0.8346788   1.2935381  )
       255        O      tau( 255) = (   0.0358116   0.1810737   1.6422342  )
       256        O      tau( 256) = (   0.5638762   0.0484964   1.7892635  )
       257        O      tau( 257) = (   0.7314789   0.9670683   1.4359075  )
       258        O      tau( 258) = (   0.2559548   0.8899428   1.4535926  )
       259        O      tau( 259) = (   0.7774448   0.5773609   1.5598674  )
       260        O      tau( 260) = (   0.0868638   0.6515873   1.6288983  )
       261        O      tau( 261) = (   0.2614827   0.9212168   1.7891965  )
       262        O      tau( 262) = (   0.1954831   0.1735609   1.8664394  )
       263        O      tau( 263) = (   0.9906684   0.7948073   1.8435173  )
       264        O      tau( 264) = (   0.4575167   0.9955248   1.4051103  )
       265        O      tau( 265) = (   0.7735858   0.2011661   1.2118609  )
       266        O      tau( 266) = (   0.8814090   0.9281431   1.4499689  )
       267        O      tau( 267) = (   0.4072071   0.9256292   1.2771435  )
       268        O      tau( 268) = (   0.8399764   0.8937974   1.5751596  )
       269        O      tau( 269) = (   0.9802476   0.7272430   1.4739436  )
       270        O      tau( 270) = (   0.4029974   0.6353892   1.4077172  )
       271        O      tau( 271) = (   0.5236271   0.0940762   1.6637713  )
       272        O      tau( 272) = (   0.2291142   0.8566340   1.6031926  )
       273        O      tau( 273) = (   0.1369597   0.1529802   1.7410824  )
       274        O      tau( 274) = (   0.8956842   0.4684356   1.7728116  )
       275        O      tau( 275) = (   0.0304714   0.3296381   1.4668483  )
       276        O      tau( 276) = (   0.9261533   0.1126670   1.5937994  )
       277        O      tau( 277) = (   0.3196110   0.7473434   1.6269653  )
       278        O      tau( 278) = (   0.2346612   0.4755155   1.3381933  )
       279        O      tau( 279) = (   0.0309321   0.9618656   1.4299785  )
       280        O      tau( 280) = (   0.1026240   0.4047238   1.3770124  )
       281        O      tau( 281) = (   0.0996948   0.0720356   1.4419196  )
       282        O      tau( 282) = (   0.9796419   0.7336502   1.2951357  )
       283        O      tau( 283) = (   0.4798587   0.2721799   1.6719849  )
       284        O      tau( 284) = (   0.1447462   0.5042309   1.7791641  )
       285        O      tau( 285) = (   0.6584207   0.0850578   1.4744274  )
       286        O      tau( 286) = (   0.8447302   0.2856675   1.7867899  )
       287        O      tau( 287) = (   0.9236456   0.3532967   1.8933803  )
       288        O      tau( 288) = (   0.7131244   0.4260542   1.2089447  )
       289        O      tau( 289) = (   0.1815374   0.0351118   1.8104616  )
       290        O      tau( 290) = (   0.0329975   0.6097415   1.2681351  )
       291        O      tau( 291) = (   0.8998275   0.8951096   1.8045433  )
       292        O      tau( 292) = (   0.3016404   0.4593341   1.2337882  )
       293        O      tau( 293) = (   0.2631331   0.5633327   1.7490475  )
       294        O      tau( 294) = (   0.7023044   0.1539457   1.5910141  )
       295        O      tau( 295) = (   0.5450848   0.1349270   1.3303906  )
       296        O      tau( 296) = (   0.1632620   0.2443342   1.6379519  )
       297        O      tau( 297) = (   0.1916640   0.3894955   1.2601897  )
       298        O      tau( 298) = (   0.0615898   0.0043928   1.2718305  )
       299        O      tau( 299) = (   0.3967139   0.3875856   1.8762703  )
       300        O      tau( 300) = (   0.4846187   0.5410669   1.3666698  )
       301        O      tau( 301) = (   0.8186424   0.0168112   1.5820830  )
       302        O      tau( 302) = (   0.5974300   0.5762403   1.7036424  )
       303        O      tau( 303) = (   0.4323575   0.7667648   1.3386386  )
       304        O      tau( 304) = (   0.7719883   0.9374236   1.8028857  )
       305        O      tau( 305) = (   0.7672182   0.1900179   1.6976508  )
       306        O      tau( 306) = (   0.8994379   0.0650389   1.4672678  )
       307        O      tau( 307) = (   0.4462121   0.7426137   1.4731770  )
       308        O      tau( 308) = (   0.9211726   0.3961581   1.6533343  )
       309        O      tau( 309) = (   0.2420202   0.2200105   1.5251544  )
       310        O      tau( 310) = (   0.8842963   0.6436934   1.4589679  )
       311        O      tau( 311) = (   0.6482991   0.6785877   1.2330670  )
       312        O      tau( 312) = (   0.4832983   0.6325017   1.6039613  )
       313        O      tau( 313) = (   0.7361349   0.0571749   1.8732737  )
       314        O      tau( 314) = (   0.6649925   0.8590630   1.7336776  )
       315        O      tau( 315) = (   0.9130296   0.2721061   1.4159943  )
       316        O      tau( 316) = (   0.6511009   0.5989696   1.3506902  )
       317        O      tau( 317) = (   0.8131240   0.0898692   1.2825970  )
       318        O      tau( 318) = (   0.6524595   0.1336951   1.7108949  )
       319        O      tau( 319) = (   0.6784211   0.5695802   1.4690337  )
       320        O      tau( 320) = (   0.9018920   0.2183548   1.6834522  )
       321        O      tau( 321) = (   0.9678130   0.0358255   1.7940055  )
       322        O      tau( 322) = (   0.8368182   0.5391156   1.6776043  )
       323        O      tau( 323) = (   0.7668768   0.6856661   1.8697035  )
       324        O      tau( 324) = (   0.1531671   0.9301796   1.8945654  )
       325        O      tau( 325) = (   0.2178402   0.7542098   1.5177838  )
       326        O      tau( 326) = (   0.3614324   0.0782581   1.4600024  )
       327        O      tau( 327) = (   0.4053368   0.0766386   1.5793453  )
       328        O      tau( 328) = (   0.3320739   0.8564650   1.8828345  )
       329        O      tau( 329) = (   0.0914304   0.8126101   1.4681485  )
       330        O      tau( 330) = (   0.2416337   0.7445048   1.2588964  )
       331        O      tau( 331) = (   0.8232583   0.9617889   1.3373563  )
       332        O      tau( 332) = (   0.0224173   0.1103921   1.3331986  )
       333        O      tau( 333) = (   0.0827261   0.7743688   1.7158336  )
       334        O      tau( 334) = (   0.3058372   0.3697607   1.3216954  )
       335        O      tau( 335) = (   0.6940744   0.4843818   1.3763524  )
       336        O      tau( 336) = (   0.0505520   0.3569640   1.2588409  )
       337        O      tau( 337) = (   0.6956442   0.5556100   1.2255199  )
       338        O      tau( 338) = (   0.9205918   0.8444316   1.2442634  )
       339        Al     tau( 339) = (   0.9474166   0.9984982   1.4171699  )
       340        Al     tau( 340) = (   0.7317137   0.2651324   1.2660316  )
       341        C      tau( 341) = (   0.5214378   0.4015461   0.7681645  )
       342        C      tau( 342) = (   0.4479569   0.3909766   0.7552167  )
       343        C      tau( 343) = (   0.5653175   0.3422400   0.7804021  )
       344        C      tau( 344) = (   0.4205128   0.3214128   0.7549025  )
       345        C      tau( 345) = (   0.5488767   0.4711092   0.7684778  )
       346        C      tau( 346) = (   0.4040833   0.4502831   0.7429748  )
       347        C      tau( 347) = (   0.5371518   0.2734980   0.7798863  )
       348        C      tau( 348) = (   0.4648892   0.2631047   0.7671638  )
       349        C      tau( 349) = (   0.5045065   0.5294176   0.7562122  )
       350        C      tau( 350) = (   0.4322510   0.5190244   0.7434801  )
       351        H      tau( 351) = (   0.6219558   0.3491057   0.7904607  )
       352        H      tau( 352) = (   0.3641909   0.3120316   0.7450704  )
       353        H      tau( 353) = (   0.6051969   0.4804959   0.7783146  )
       354        H      tau( 354) = (   0.3474366   0.4434151   0.7329039  )
       355        H      tau( 355) = (   0.5716658   0.2280845   0.7894313  )
       356        H      tau( 356) = (   0.4429953   0.2095720   0.7667684  )
       357        H      tau( 357) = (   0.5264020   0.5829447   0.7566028  )
       358        H      tau( 358) = (   0.3977363   0.5644431   0.7339347  )

     number of k points=     1  Gaussian smearing, width (Ry)=  0.0100
                       cart. coord. in units 2pi/alat
        k(    1) = (   0.0000000   0.0000000   0.0000000), wk =   2.0000000

     Dense  grid: 15943719 G-vectors     FFT dimensions: ( 216, 216, 675)

     Smooth grid: 13361281 G-vectors     FFT dimensions: ( 216, 216, 625)

     Estimated max dynamical RAM per process >       4.14 GB

     Estimated total dynamical RAM >     331.13 GB

     Check: negative core charge=   -0.000001

     Initial potential from superposition of free atoms

     starting charge    1871.8703, renormalised to    1872.0000

     negative rho (up, down):  4.085E-02 0.000E+00
     Starting wfcs are 1419 randomized atomic wfcs
     Checking if some PAW data can be deallocated... 

     total cpu time spent up to now is      149.1 secs

     per-process dynamical memory:  1754.1 Mb

     Self-consistent Calculation

     iteration #  1     ecut=    80.00 Ry     beta= 0.10
     Davidson diagonalization with overlap
     ethr =  1.00E-02,  avg # of iterations =  3.0

     negative rho (up, down):  4.286E-02 0.000E+00

     total cpu time spent up to now is      644.6 secs

     total energy              =  -11693.37552080 Ry
     estimated scf accuracy    <     115.59979852 Ry

     iteration #  2     ecut=    80.00 Ry     beta= 0.10
     Davidson diagonalization with overlap
     ethr =  6.18E-03,  avg # of iterations =  1.0

     negative rho (up, down):  4.453E-02 0.000E+00

     total cpu time spent up to now is      933.0 secs

     total energy              =  -11688.10946333 Ry
     estimated scf accuracy    <      84.83568675 Ry

     iteration #  3     ecut=    80.00 Ry     beta= 0.10
     Davidson diagonalization with overlap
     ethr =  4.53E-03,  avg # of iterations =  1.0

     negative rho (up, down):  4.634E-02 0.000E+00

     total cpu time spent up to now is     1220.3 secs

     total energy              =  -11681.49697062 Ry
     estimated scf accuracy    <      59.16193999 Ry

     iteration #  4     ecut=    80.00 Ry     beta= 0.10
     Davidson diagonalization with overlap
     ethr =  3.16E-03,  avg # of iterations =  2.0

     negative rho (up, down):  4.742E-02 0.000E+00

     total cpu time spent up to now is     1543.5 secs

     total energy              =  -11682.82227547 Ry
     estimated scf accuracy    <      60.36223430 Ry

     iteration #  5     ecut=    80.00 Ry     beta= 0.10
     Davidson diagonalization with overlap
     ethr =  3.16E-03,  avg # of iterations =  1.0

     negative rho (up, down):  4.852E-02 0.000E+00

     total cpu time spent up to now is     1831.3 secs

     total energy              =  -11682.19555814 Ry
     estimated scf accuracy    <      39.47101990 Ry

     iteration #  6     ecut=    80.00 Ry     beta= 0.10
     Davidson diagonalization with overlap
     ethr =  2.11E-03,  avg # of iterations =  1.0

     negative rho (up, down):  4.937E-02 0.000E+00

     total cpu time spent up to now is     2119.6 secs

     total energy              =  -11682.42706586 Ry
     estimated scf accuracy    <      26.78113239 Ry

     iteration #  7     ecut=    80.00 Ry     beta= 0.10
     Davidson diagonalization with overlap
     ethr =  1.43E-03,  avg # of iterations =  2.0

     negative rho (up, down):  5.018E-02 0.000E+00

     total cpu time spent up to now is     2443.7 secs

     total energy              =  -11682.17278205 Ry
     estimated scf accuracy    <      34.85791127 Ry

     iteration #  8     ecut=    80.00 Ry     beta= 0.10
     Davidson diagonalization with overlap
     ethr =  1.43E-03,  avg # of iterations =  1.0

     negative rho (up, down):  5.075E-02 0.000E+00

     total cpu time spent up to now is     2729.4 secs

     total energy              =  -11682.31305189 Ry
     estimated scf accuracy    <      18.90780051 Ry

     iteration #  9     ecut=    80.00 Ry     beta= 0.10
     Davidson diagonalization with overlap
     ethr =  1.01E-03,  avg # of iterations =  2.0

     negative rho (up, down):  5.134E-02 0.000E+00

     total cpu time spent up to now is     3048.9 secs

     total energy              =  -11682.13467495 Ry
     estimated scf accuracy    <      18.40460095 Ry

     iteration # 10     ecut=    80.00 Ry     beta= 0.10
     Davidson diagonalization with overlap
     ethr =  9.83E-04,  avg # of iterations =  1.0

     negative rho (up, down):  5.186E-02 0.000E+00

     total cpu time spent up to now is     3332.8 secs

     total energy              =  -11682.15429668 Ry
     estimated scf accuracy    <      12.31010164 Ry

     iteration # 11     ecut=    80.00 Ry     beta= 0.10
     Davidson diagonalization with overlap
     ethr =  6.58E-04,  avg # of iterations =  2.0

     negative rho (up, down):  5.219E-02 0.000E+00

     total cpu time spent up to now is     3652.1 secs

     total energy              =  -11682.04926191 Ry
     estimated scf accuracy    <      21.56360527 Ry

     iteration # 12     ecut=    80.00 Ry     beta= 0.10
     Davidson diagonalization with overlap
     ethr =  6.58E-04,  avg # of iterations =  2.0

     negative rho (up, down):  5.248E-02 0.000E+00

     total cpu time spent up to now is     3970.7 secs

     total energy              =  -11682.31470750 Ry
     estimated scf accuracy    <       4.99463677 Ry

     iteration # 13     ecut=    80.00 Ry     beta= 0.10
     Davidson diagonalization with overlap
     ethr =  2.67E-04,  avg # of iterations = 16.0

     negative rho (up, down):  5.288E-02 0.000E+00

     total cpu time spent up to now is     4400.4 secs

     total energy              =  -11682.21340479 Ry
     estimated scf accuracy    <       5.85585745 Ry

     iteration # 14     ecut=    80.00 Ry     beta= 0.10
     Davidson diagonalization with overlap
     ethr =  2.67E-04,  avg # of iterations =  1.0

     negative rho (up, down):  5.345E-02 0.000E+00

     total cpu time spent up to now is     4684.2 secs

     total energy              =  -11682.09149852 Ry
     estimated scf accuracy    <       4.74192928 Ry

     iteration # 15     ecut=    80.00 Ry     beta= 0.10
     Davidson diagonalization with overlap
     ethr =  2.53E-04,  avg # of iterations =  1.0

     negative rho (up, down):  5.341E-02 0.000E+00

     total cpu time spent up to now is     4968.0 secs

     total energy              =  -11681.89095833 Ry
     estimated scf accuracy    <      19.13824795 Ry

     iteration # 16     ecut=    80.00 Ry     beta= 0.10
     Davidson diagonalization with overlap
     ethr =  2.53E-04,  avg # of iterations =  2.0

     negative rho (up, down):  5.377E-02 0.000E+00

     total cpu time spent up to now is     5285.7 secs

     total energy              =  -11682.13609830 Ry
     estimated scf accuracy    <       3.82602395 Ry

     iteration # 17     ecut=    80.00 Ry     beta= 0.10
     Davidson diagonalization with overlap
     ethr =  2.04E-04,  avg # of iterations =  1.0

     negative rho (up, down):  5.429E-02 0.000E+00

     total cpu time spent up to now is     5568.9 secs

     total energy              =  -11682.07288586 Ry
     estimated scf accuracy    <       3.31527096 Ry

     iteration # 18     ecut=    80.00 Ry     beta= 0.10
     Davidson diagonalization with overlap
     ethr =  1.77E-04,  avg # of iterations =  1.0

     negative rho (up, down):  5.429E-02 0.000E+00

     total cpu time spent up to now is     5852.8 secs

     total energy              =  -11681.97330902 Ry
     estimated scf accuracy    <       8.04204351 Ry

     iteration # 19     ecut=    80.00 Ry     beta= 0.10
     Davidson diagonalization with overlap
     ethr =  1.77E-04,  avg # of iterations =  2.0

     negative rho (up, down):  5.453E-02 0.000E+00

     total cpu time spent up to now is     6170.2 secs

     total energy              =  -11682.11695982 Ry
     estimated scf accuracy    <       3.30570138 Ry

     iteration # 20     ecut=    80.00 Ry     beta= 0.10
     Davidson diagonalization with overlap
     ethr =  1.77E-04,  avg # of iterations =  1.0

     negative rho (up, down):  5.499E-02 0.000E+00

     total cpu time spent up to now is     6453.7 secs

     total energy              =  -11682.06873999 Ry
     estimated scf accuracy    <       2.89590642 Ry

     iteration # 21     ecut=    80.00 Ry     beta= 0.10
     Davidson diagonalization with overlap
     ethr =  1.55E-04,  avg # of iterations =  1.0

     negative rho (up, down):  5.517E-02 0.000E+00

     total cpu time spent up to now is     6736.5 secs

     total energy              =  -11681.99421382 Ry
     estimated scf accuracy    <      10.44126181 Ry

     iteration # 22     ecut=    80.00 Ry     beta= 0.10
     Davidson diagonalization with overlap
     ethr =  1.55E-04,  avg # of iterations =  1.0

     negative rho (up, down):  5.525E-02 0.000E+00

     total cpu time spent up to now is     7019.4 secs

     total energy              =  -11682.04250616 Ry
     estimated scf accuracy    <       7.96102374 Ry

     iteration # 23     ecut=    80.00 Ry     beta= 0.10
     Davidson diagonalization with overlap
     ethr =  1.55E-04,  avg # of iterations =  1.0

     negative rho (up, down):  5.527E-02 0.000E+00

     total cpu time spent up to now is     7303.1 secs

     total energy              =  -11682.07760517 Ry
     estimated scf accuracy    <       4.24449869 Ry

     iteration # 24     ecut=    80.00 Ry     beta= 0.10
     Davidson diagonalization with overlap
     ethr =  1.55E-04,  avg # of iterations =  1.0

     negative rho (up, down):  5.583E-02 0.000E+00

     total cpu time spent up to now is     7586.4 secs

     total energy              =  -11682.06410659 Ry
     estimated scf accuracy    <       3.82669988 Ry

     iteration # 25     ecut=    80.00 Ry     beta= 0.10
     Davidson diagonalization with overlap
     ethr =  1.55E-04,  avg # of iterations =  1.0

     negative rho (up, down):  5.578E-02 0.000E+00

     total cpu time spent up to now is     7870.3 secs

     total energy              =  -11682.06284065 Ry
     estimated scf accuracy    <       2.76828536 Ry

     iteration # 26     ecut=    80.00 Ry     beta= 0.10
     Davidson diagonalization with overlap
     ethr =  1.48E-04,  avg # of iterations =  1.0

     negative rho (up, down):  5.597E-02 0.000E+00

     total cpu time spent up to now is     8153.9 secs

     total energy              =  -11682.08661283 Ry
     estimated scf accuracy    <       1.30954788 Ry

     iteration # 27     ecut=    80.00 Ry     beta= 0.10
     Davidson diagonalization with overlap
     ethr =  7.00E-05,  avg # of iterations =  1.0

     negative rho (up, down):  5.674E-02 0.000E+00

     total cpu time spent up to now is     8437.2 secs

     total energy              =  -11682.06771651 Ry
     estimated scf accuracy    <       1.74242985 Ry

     iteration # 28     ecut=    80.00 Ry     beta= 0.10
     Davidson diagonalization with overlap
     ethr =  7.00E-05,  avg # of iterations =  1.0

     negative rho (up, down):  5.614E-02 0.000E+00

     total cpu time spent up to now is     8720.8 secs

     total energy              =  -11682.01028997 Ry
     estimated scf accuracy    <       5.53220234 Ry

     iteration # 29     ecut=    80.00 Ry     beta= 0.10
     Davidson diagonalization with overlap
     ethr =  7.00E-05,  avg # of iterations =  1.0

     negative rho (up, down):  5.639E-02 0.000E+00

     total cpu time spent up to now is     9005.3 secs

     total energy              =  -11682.07449860 Ry
     estimated scf accuracy    <       4.11567245 Ry

     iteration # 30     ecut=    80.00 Ry     beta= 0.10
     Davidson diagonalization with overlap
     ethr =  7.00E-05,  avg # of iterations =  1.0

     negative rho (up, down):  5.656E-02 0.000E+00

     total cpu time spent up to now is     9289.0 secs

     total energy              =  -11682.08492570 Ry
     estimated scf accuracy    <       1.35584555 Ry

     iteration # 31     ecut=    80.00 Ry     beta= 0.10
     Davidson diagonalization with overlap
     ethr =  7.00E-05,  avg # of iterations =  1.0

     negative rho (up, down):  5.683E-02 0.000E+00

     total cpu time spent up to now is     9573.4 secs

     total energy              =  -11682.08834829 Ry
     estimated scf accuracy    <       1.61912331 Ry

     iteration # 32     ecut=    80.00 Ry     beta= 0.10
     Davidson diagonalization with overlap
     ethr =  7.00E-05,  avg # of iterations =  1.0

     negative rho (up, down):  5.700E-02 0.000E+00

     total cpu time spent up to now is     9857.0 secs

     total energy              =  -11682.07127334 Ry
     estimated scf accuracy    <       2.44832233 Ry

     iteration # 33     ecut=    80.00 Ry     beta= 0.10
     Davidson diagonalization with overlap
     ethr =  7.00E-05,  avg # of iterations =  1.0

     negative rho (up, down):  5.671E-02 0.000E+00

     total cpu time spent up to now is    10140.7 secs

     total energy              =  -11682.05389659 Ry
     estimated scf accuracy    <       5.37890027 Ry

     iteration # 34     ecut=    80.00 Ry     beta= 0.10
     Davidson diagonalization with overlap
     ethr =  7.00E-05,  avg # of iterations =  1.0

     negative rho (up, down):  5.703E-02 0.000E+00

     total cpu time spent up to now is    10425.0 secs

     total energy              =  -11682.08643802 Ry
     estimated scf accuracy    <       1.19820337 Ry

     iteration # 35     ecut=    80.00 Ry     beta= 0.10
     Davidson diagonalization with overlap
     ethr =  6.40E-05,  avg # of iterations =  1.0

     negative rho (up, down):  5.701E-02 0.000E+00

     total cpu time spent up to now is    10708.2 secs

     total energy              =  -11682.07852317 Ry
     estimated scf accuracy    <       1.81668343 Ry

     iteration # 36     ecut=    80.00 Ry     beta= 0.10
     Davidson diagonalization with overlap
     ethr =  6.40E-05,  avg # of iterations =  1.0

     negative rho (up, down):  5.709E-02 0.000E+00

     total cpu time spent up to now is    10991.2 secs

     total energy              =  -11682.09467356 Ry
     estimated scf accuracy    <       0.54499526 Ry

     iteration # 37     ecut=    80.00 Ry     beta= 0.10
     Davidson diagonalization with overlap
     ethr =  2.91E-05,  avg # of iterations =  1.0

     negative rho (up, down):  5.754E-02 0.000E+00

     total cpu time spent up to now is    11274.4 secs

     total energy              =  -11682.09461911 Ry
     estimated scf accuracy    <       0.35006918 Ry

     iteration # 38     ecut=    80.00 Ry     beta= 0.10
     Davidson diagonalization with overlap
     ethr =  1.87E-05,  avg # of iterations = 20.0

     negative rho (up, down):  5.725E-02 0.000E+00

     total cpu time spent up to now is    11699.4 secs

     total energy              =  -11682.06580491 Ry
     estimated scf accuracy    <       2.65006031 Ry

     iteration # 39     ecut=    80.00 Ry     beta= 0.10
     Davidson diagonalization with overlap
     ethr =  1.87E-05,  avg # of iterations =  1.0

     negative rho (up, down):  5.730E-02 0.000E+00

     total cpu time spent up to now is    11982.6 secs

     total energy              =  -11682.08614561 Ry
     estimated scf accuracy    <       1.58557808 Ry

     iteration # 40     ecut=    80.00 Ry     beta= 0.10
     Davidson diagonalization with overlap
     ethr =  1.87E-05,  avg # of iterations =  1.0

     negative rho (up, down):  5.736E-02 0.000E+00

     total cpu time spent up to now is    12265.8 secs

     total energy              =  -11682.09746967 Ry
     estimated scf accuracy    <       0.41216232 Ry

     iteration # 41     ecut=    80.00 Ry     beta= 0.10
     Davidson diagonalization with overlap
     ethr =  1.87E-05,  avg # of iterations =  1.0

     negative rho (up, down):  5.755E-02 0.000E+00

     total cpu time spent up to now is    12548.8 secs

     total energy              =  -11682.09922279 Ry
     estimated scf accuracy    <       0.23905593 Ry

     iteration # 42     ecut=    80.00 Ry     beta= 0.10
     Davidson diagonalization with overlap
     ethr =  1.28E-05,  avg # of iterations =  1.0

     negative rho (up, down):  5.776E-02 0.000E+00

     total cpu time spent up to now is    12832.2 secs

     total energy              =  -11682.09860673 Ry
     estimated scf accuracy    <       0.28003781 Ry

     iteration # 43     ecut=    80.00 Ry     beta= 0.10
     Davidson diagonalization with overlap
     ethr =  1.28E-05,  avg # of iterations =  1.0

     negative rho (up, down):  5.762E-02 0.000E+00

     total cpu time spent up to now is    13115.3 secs

     total energy              =  -11682.09271400 Ry
     estimated scf accuracy    <       0.45350338 Ry

     iteration # 44     ecut=    80.00 Ry     beta= 0.10
     Davidson diagonalization with overlap
     ethr =  1.28E-05,  avg # of iterations =  1.0

     negative rho (up, down):  5.792E-02 0.000E+00

     total cpu time spent up to now is    13398.5 secs

     total energy              =  -11682.08692910 Ry
     estimated scf accuracy    <       2.00631770 Ry

     iteration # 45     ecut=    80.00 Ry     beta= 0.10
     Davidson diagonalization with overlap
     ethr =  1.28E-05,  avg # of iterations =  1.0

     negative rho (up, down):  5.781E-02 0.000E+00

     total cpu time spent up to now is    13681.5 secs

     total energy              =  -11682.09667940 Ry
     estimated scf accuracy    <       0.22371408 Ry

     iteration # 46     ecut=    80.00 Ry     beta= 0.10
     Davidson diagonalization with overlap
     ethr =  1.20E-05,  avg # of iterations =  1.0

     negative rho (up, down):  5.783E-02 0.000E+00

     total cpu time spent up to now is    13964.8 secs

     total energy              =  -11682.09391738 Ry
     estimated scf accuracy    <       0.75087895 Ry

     iteration # 47     ecut=    80.00 Ry     beta= 0.10
     Davidson diagonalization with overlap
     ethr =  1.20E-05,  avg # of iterations =  1.0

     negative rho (up, down):  5.823E-02 0.000E+00

     total cpu time spent up to now is    14248.9 secs

     total energy              =  -11682.09933588 Ry
     estimated scf accuracy    <       0.44145258 Ry

     iteration # 48     ecut=    80.00 Ry     beta= 0.10
     Davidson diagonalization with overlap
     ethr =  1.20E-05,  avg # of iterations =  1.0

     negative rho (up, down):  5.844E-02 0.000E+00

     total cpu time spent up to now is    14533.0 secs

     total energy              =  -11682.10081338 Ry
     estimated scf accuracy    <       0.23713454 Ry

     iteration # 49     ecut=    80.00 Ry     beta= 0.10
     Davidson diagonalization with overlap
     ethr =  1.20E-05,  avg # of iterations =  1.0

     negative rho (up, down):  5.803E-02 0.000E+00

     total cpu time spent up to now is    14817.1 secs

     total energy              =  -11682.09563676 Ry
     estimated scf accuracy    <       0.41669062 Ry

     iteration # 50     ecut=    80.00 Ry     beta= 0.10
     Davidson diagonalization with overlap
     ethr =  1.20E-05,  avg # of iterations =  1.0

     negative rho (up, down):  5.801E-02 0.000E+00

     total cpu time spent up to now is    15100.7 secs

     total energy              =  -11682.08971028 Ry
     estimated scf accuracy    <       1.91104960 Ry

     iteration # 51     ecut=    80.00 Ry     beta= 0.10
     Davidson diagonalization with overlap
     ethr =  1.20E-05,  avg # of iterations =  1.0

     negative rho (up, down):  5.812E-02 0.000E+00

     total cpu time spent up to now is    15384.3 secs

     total energy              =  -11682.10058506 Ry
     estimated scf accuracy    <       0.27697451 Ry

     iteration # 52     ecut=    80.00 Ry     beta= 0.10
     Davidson diagonalization with overlap
     ethr =  1.20E-05,  avg # of iterations =  1.0

     negative rho (up, down):  5.824E-02 0.000E+00

     total cpu time spent up to now is    15668.2 secs

     total energy              =  -11682.10241242 Ry
     estimated scf accuracy    <       0.11254231 Ry

     iteration # 53     ecut=    80.00 Ry     beta= 0.10
     Davidson diagonalization with overlap
     ethr =  6.01E-06,  avg # of iterations =  1.0

     negative rho (up, down):  5.831E-02 0.000E+00

     total cpu time spent up to now is    15951.1 secs

     total energy              =  -11682.10294419 Ry
     estimated scf accuracy    <       0.04222700 Ry

     iteration # 54     ecut=    80.00 Ry     beta= 0.10
     Davidson diagonalization with overlap
     ethr =  2.26E-06,  avg # of iterations =  1.0

     negative rho (up, down):  5.832E-02 0.000E+00

     total cpu time spent up to now is    16234.5 secs

     total energy              =  -11682.10256912 Ry
     estimated scf accuracy    <       0.08609045 Ry

     iteration # 55     ecut=    80.00 Ry     beta= 0.10
     Davidson diagonalization with overlap
     ethr =  2.26E-06,  avg # of iterations =  1.0

     negative rho (up, down):  5.836E-02 0.000E+00

     total cpu time spent up to now is    16518.0 secs

     total energy              =  -11682.10321026 Ry
     estimated scf accuracy    <       0.03434407 Ry

     iteration # 56     ecut=    80.00 Ry     beta= 0.10
     Davidson diagonalization with overlap
     ethr =  1.83E-06,  avg # of iterations =  1.0

     negative rho (up, down):  5.833E-02 0.000E+00

     total cpu time spent up to now is    16801.6 secs

     total energy              =  -11682.10262135 Ry
     estimated scf accuracy    <       0.08227118 Ry

     iteration # 57     ecut=    80.00 Ry     beta= 0.10
     Davidson diagonalization with overlap
     ethr =  1.83E-06,  avg # of iterations =  1.0

     negative rho (up, down):  5.843E-02 0.000E+00

     total cpu time spent up to now is    17084.5 secs

     total energy              =  -11682.10332026 Ry
     estimated scf accuracy    <       0.06112573 Ry

     iteration # 58     ecut=    80.00 Ry     beta= 0.10
     Davidson diagonalization with overlap
     ethr =  1.83E-06,  avg # of iterations =  1.0

     negative rho (up, down):  5.848E-02 0.000E+00

     total cpu time spent up to now is    17367.9 secs

     total energy              =  -11682.10345642 Ry
     estimated scf accuracy    <       0.06042304 Ry

     iteration # 59     ecut=    80.00 Ry     beta= 0.10
     Davidson diagonalization with overlap
     ethr =  1.83E-06,  avg # of iterations =  1.0

     negative rho (up, down):  5.851E-02 0.000E+00

     total cpu time spent up to now is    17652.2 secs

     total energy              =  -11682.10352601 Ry
     estimated scf accuracy    <       0.03147420 Ry

     iteration # 60     ecut=    80.00 Ry     beta= 0.10
     Davidson diagonalization with overlap
     ethr =  1.68E-06,  avg # of iterations =  1.0

     negative rho (up, down):  5.846E-02 0.000E+00

     total cpu time spent up to now is    17935.5 secs

     total energy              =  -11682.10254936 Ry
     estimated scf accuracy    <       0.09528034 Ry

     iteration # 61     ecut=    80.00 Ry     beta= 0.10
     Davidson diagonalization with overlap
     ethr =  1.68E-06,  avg # of iterations =  1.0

     negative rho (up, down):  5.847E-02 0.000E+00

     total cpu time spent up to now is    18218.9 secs

     total energy              =  -11682.10141880 Ry
     estimated scf accuracy    <       0.27446054 Ry

     iteration # 62     ecut=    80.00 Ry     beta= 0.10
     Davidson diagonalization with overlap
     ethr =  1.68E-06,  avg # of iterations =  1.0

     negative rho (up, down):  5.848E-02 0.000E+00

     total cpu time spent up to now is    18501.9 secs

     total energy              =  -11682.10317847 Ry
     estimated scf accuracy    <       0.08104604 Ry

     iteration # 63     ecut=    80.00 Ry     beta= 0.10
     Davidson diagonalization with overlap
     ethr =  1.68E-06,  avg # of iterations =  1.0

     negative rho (up, down):  5.854E-02 0.000E+00

     total cpu time spent up to now is    18785.3 secs

     total energy              =  -11682.10395438 Ry
     estimated scf accuracy    <       0.01008900 Ry

     iteration # 64     ecut=    80.00 Ry     beta= 0.10
     Davidson diagonalization with overlap
     ethr =  5.39E-07,  avg # of iterations =  1.0

     negative rho (up, down):  5.854E-02 0.000E+00

     total cpu time spent up to now is    19068.8 secs

     total energy              =  -11682.10384726 Ry
     estimated scf accuracy    <       0.01709826 Ry

     iteration # 65     ecut=    80.00 Ry     beta= 0.10
     Davidson diagonalization with overlap
     ethr =  5.39E-07,  avg # of iterations =  1.0

     negative rho (up, down):  5.856E-02 0.000E+00

     total cpu time spent up to now is    19352.1 secs

     total energy              =  -11682.10397635 Ry
     estimated scf accuracy    <       0.00969384 Ry

     iteration # 66     ecut=    80.00 Ry     beta= 0.10
     Davidson diagonalization with overlap
     ethr =  5.18E-07,  avg # of iterations =  1.0

     negative rho (up, down):  5.854E-02 0.000E+00

     total cpu time spent up to now is    19635.1 secs

     total energy              =  -11682.10389755 Ry
     estimated scf accuracy    <       0.01015393 Ry

     iteration # 67     ecut=    80.00 Ry     beta= 0.10
     Davidson diagonalization with overlap
     ethr =  5.18E-07,  avg # of iterations =  1.0

     negative rho (up, down):  5.859E-02 0.000E+00

     total cpu time spent up to now is    19919.4 secs

     total energy              =  -11682.10401703 Ry
     estimated scf accuracy    <       0.01917824 Ry

     iteration # 68     ecut=    80.00 Ry     beta= 0.10
     Davidson diagonalization with overlap
     ethr =  5.18E-07,  avg # of iterations =  1.0

     negative rho (up, down):  5.861E-02 0.000E+00

     total cpu time spent up to now is    20202.6 secs

     total energy              =  -11682.10411905 Ry
     estimated scf accuracy    <       0.00767198 Ry

     iteration # 69     ecut=    80.00 Ry     beta= 0.10
     Davidson diagonalization with overlap
     ethr =  4.10E-07,  avg # of iterations =  1.0

     negative rho (up, down):  5.863E-02 0.000E+00

     total cpu time spent up to now is    20485.7 secs

     total energy              =  -11682.10416764 Ry
     estimated scf accuracy    <       0.00576147 Ry

     iteration # 70     ecut=    80.00 Ry     beta= 0.10
     Davidson diagonalization with overlap
     ethr =  3.08E-07,  avg # of iterations =  1.0

     negative rho (up, down):  5.871E-02 0.000E+00

     total cpu time spent up to now is    20771.1 secs

     total energy              =  -11682.10421689 Ry
     estimated scf accuracy    <       0.02191043 Ry

     iteration # 71     ecut=    80.00 Ry     beta= 0.10
     Davidson diagonalization with overlap
     ethr =  3.08E-07,  avg # of iterations =  1.0

     negative rho (up, down):  5.866E-02 0.000E+00

     total cpu time spent up to now is    21053.5 secs

     total energy              =  -11682.10387763 Ry
     estimated scf accuracy    <       0.04029466 Ry

     iteration # 72     ecut=    80.00 Ry     beta= 0.10
     Davidson diagonalization with overlap
     ethr =  3.08E-07,  avg # of iterations =  1.0

     negative rho (up, down):  5.862E-02 0.000E+00

     total cpu time spent up to now is    21337.4 secs

     total energy              =  -11682.10393482 Ry
     estimated scf accuracy    <       0.02802304 Ry

     iteration # 73     ecut=    80.00 Ry     beta= 0.10
     Davidson diagonalization with overlap
     ethr =  3.08E-07,  avg # of iterations =  1.0

     negative rho (up, down):  5.868E-02 0.000E+00

     total cpu time spent up to now is    21620.8 secs

     total energy              =  -11682.10422581 Ry
     estimated scf accuracy    <       0.01188602 Ry

     iteration # 74     ecut=    80.00 Ry     beta= 0.10
     Davidson diagonalization with overlap
     ethr =  3.08E-07,  avg # of iterations =  1.0

     negative rho (up, down):  5.868E-02 0.000E+00

     total cpu time spent up to now is    21903.3 secs

     total energy              =  -11682.10423157 Ry
     estimated scf accuracy    <       0.00806324 Ry

     iteration # 75     ecut=    80.00 Ry     beta= 0.10
     Davidson diagonalization with overlap
     ethr =  3.08E-07,  avg # of iterations =  1.0

     negative rho (up, down):  5.869E-02 0.000E+00

     total cpu time spent up to now is    22186.8 secs

     total energy              =  -11682.10426568 Ry
     estimated scf accuracy    <       0.00724007 Ry

     iteration # 76     ecut=    80.00 Ry     beta= 0.10
     Davidson diagonalization with overlap
     ethr =  3.08E-07,  avg # of iterations =  1.0

     negative rho (up, down):  5.868E-02 0.000E+00

     total cpu time spent up to now is    22470.1 secs

     total energy              =  -11682.10424510 Ry
     estimated scf accuracy    <       0.00573845 Ry

     iteration # 77     ecut=    80.00 Ry     beta= 0.10
     Davidson diagonalization with overlap
     ethr =  3.07E-07,  avg # of iterations =  1.0

     negative rho (up, down):  5.870E-02 0.000E+00

     total cpu time spent up to now is    22752.8 secs

     total energy              =  -11682.10426592 Ry
     estimated scf accuracy    <       0.01817698 Ry

     iteration # 78     ecut=    80.00 Ry     beta= 0.10
     Davidson diagonalization with overlap
     ethr =  3.07E-07,  avg # of iterations =  1.0

     negative rho (up, down):  5.871E-02 0.000E+00

     total cpu time spent up to now is    23036.3 secs

     total energy              =  -11682.10434715 Ry
     estimated scf accuracy    <       0.00525133 Ry

     iteration # 79     ecut=    80.00 Ry     beta= 0.10
     Davidson diagonalization with overlap
     ethr =  2.81E-07,  avg # of iterations =  1.0

     negative rho (up, down):  5.873E-02 0.000E+00

     total cpu time spent up to now is    23319.7 secs

     total energy              =  -11682.10439137 Ry
     estimated scf accuracy    <       0.00181458 Ry

     iteration # 80     ecut=    80.00 Ry     beta= 0.10
     Davidson diagonalization with overlap
     ethr =  9.69E-08,  avg # of iterations =  1.0

     negative rho (up, down):  5.877E-02 0.000E+00

     total cpu time spent up to now is    23603.0 secs

     total energy              =  -11682.10444968 Ry
     estimated scf accuracy    <       0.00330671 Ry

     iteration # 81     ecut=    80.00 Ry     beta= 0.10
     Davidson diagonalization with overlap
     ethr =  9.69E-08,  avg # of iterations =  1.0

     negative rho (up, down):  5.876E-02 0.000E+00

     total cpu time spent up to now is    23887.1 secs

     total energy              =  -11682.10439206 Ry
     estimated scf accuracy    <       0.00474288 Ry

     iteration # 82     ecut=    80.00 Ry     beta= 0.10
     Davidson diagonalization with overlap
     ethr =  9.69E-08,  avg # of iterations =  1.0

     negative rho (up, down):  5.874E-02 0.000E+00

     total cpu time spent up to now is    24170.5 secs

     total energy              =  -11682.10429718 Ry
     estimated scf accuracy    <       0.01276390 Ry

     iteration # 83     ecut=    80.00 Ry     beta= 0.10
     Davidson diagonalization with overlap
     ethr =  9.69E-08,  avg # of iterations =  1.0

     negative rho (up, down):  5.876E-02 0.000E+00

     total cpu time spent up to now is    24454.4 secs

     total energy              =  -11682.10432119 Ry
     estimated scf accuracy    <       0.01524346 Ry

     iteration # 84     ecut=    80.00 Ry     beta= 0.10
     Davidson diagonalization with overlap
     ethr =  9.69E-08,  avg # of iterations =  1.0

     negative rho (up, down):  5.878E-02 0.000E+00

     total cpu time spent up to now is    24737.6 secs

     total energy              =  -11682.10444782 Ry
     estimated scf accuracy    <       0.00270409 Ry

     iteration # 85     ecut=    80.00 Ry     beta= 0.10
     Davidson diagonalization with overlap
     ethr =  9.69E-08,  avg # of iterations =  1.0

     negative rho (up, down):  5.878E-02 0.000E+00

     total cpu time spent up to now is    25021.2 secs

     total energy              =  -11682.10444284 Ry
     estimated scf accuracy    <       0.00398520 Ry

     iteration # 86     ecut=    80.00 Ry     beta= 0.10
     Davidson diagonalization with overlap
     ethr =  9.69E-08,  avg # of iterations =  1.0

     negative rho (up, down):  5.878E-02 0.000E+00

     total cpu time spent up to now is    25304.6 secs

     total energy              =  -11682.10443393 Ry
     estimated scf accuracy    <       0.00378460 Ry

     iteration # 87     ecut=    80.00 Ry     beta= 0.10
     Davidson diagonalization with overlap
     ethr =  9.69E-08,  avg # of iterations =  1.0

     negative rho (up, down):  5.879E-02 0.000E+00

     total cpu time spent up to now is    25587.3 secs

     total energy              =  -11682.10441034 Ry
     estimated scf accuracy    <       0.01556712 Ry

     iteration # 88     ecut=    80.00 Ry     beta= 0.10
     Davidson diagonalization with overlap
     ethr =  9.69E-08,  avg # of iterations =  1.0

     negative rho (up, down):  5.879E-02 0.000E+00

     total cpu time spent up to now is    25870.7 secs

     total energy              =  -11682.10446037 Ry
     estimated scf accuracy    <       0.00430224 Ry

     iteration # 89     ecut=    80.00 Ry     beta= 0.10
     Davidson diagonalization with overlap
     ethr =  9.69E-08,  avg # of iterations =  1.0

     negative rho (up, down):  5.880E-02 0.000E+00

     total cpu time spent up to now is    26154.2 secs

     total energy              =  -11682.10449517 Ry
     estimated scf accuracy    <       0.00120028 Ry

     iteration # 90     ecut=    80.00 Ry     beta= 0.10
     Davidson diagonalization with overlap
     ethr =  6.41E-08,  avg # of iterations =  1.0

     negative rho (up, down):  5.882E-02 0.000E+00

     total cpu time spent up to now is    26437.4 secs

     total energy              =  -11682.10452548 Ry
     estimated scf accuracy    <       0.00061187 Ry

     iteration # 91     ecut=    80.00 Ry     beta= 0.10
     Davidson diagonalization with overlap
     ethr =  3.27E-08,  avg # of iterations =  1.0

     negative rho (up, down):  5.882E-02 0.000E+00

     total cpu time spent up to now is    26720.7 secs

     total energy              =  -11682.10452173 Ry
     estimated scf accuracy    <       0.00089713 Ry

     iteration # 92     ecut=    80.00 Ry     beta= 0.10
     Davidson diagonalization with overlap
     ethr =  3.27E-08,  avg # of iterations =  1.0

     negative rho (up, down):  5.883E-02 0.000E+00

     total cpu time spent up to now is    27003.8 secs

     total energy              =  -11682.10451217 Ry
     estimated scf accuracy    <       0.00267278 Ry

     iteration # 93     ecut=    80.00 Ry     beta= 0.10
     Davidson diagonalization with overlap
     ethr =  3.27E-08,  avg # of iterations =  1.0

     negative rho (up, down):  5.882E-02 0.000E+00

     total cpu time spent up to now is    27286.9 secs

     total energy              =  -11682.10448345 Ry
     estimated scf accuracy    <       0.00478188 Ry

     iteration # 94     ecut=    80.00 Ry     beta= 0.10
     Davidson diagonalization with overlap
     ethr =  3.27E-08,  avg # of iterations =  1.0

     negative rho (up, down):  5.884E-02 0.000E+00

     total cpu time spent up to now is    27570.7 secs

     total energy              =  -11682.10453276 Ry
     estimated scf accuracy    <       0.00173039 Ry

     iteration # 95     ecut=    80.00 Ry     beta= 0.10
     Davidson diagonalization with overlap
     ethr =  3.27E-08,  avg # of iterations =  1.0

     negative rho (up, down):  5.885E-02 0.000E+00

     total cpu time spent up to now is    27853.9 secs

     total energy              =  -11682.10453926 Ry
     estimated scf accuracy    <       0.00177856 Ry

     iteration # 96     ecut=    80.00 Ry     beta= 0.10
     Davidson diagonalization with overlap
     ethr =  3.27E-08,  avg # of iterations =  1.0

     negative rho (up, down):  5.887E-02 0.000E+00

     total cpu time spent up to now is    28137.4 secs

     total energy              =  -11682.10454120 Ry
     estimated scf accuracy    <       0.00229360 Ry

     iteration # 97     ecut=    80.00 Ry     beta= 0.10
     Davidson diagonalization with overlap
     ethr =  3.27E-08,  avg # of iterations =  1.0

     negative rho (up, down):  5.886E-02 0.000E+00

     total cpu time spent up to now is    28420.6 secs

     total energy              =  -11682.10449454 Ry
     estimated scf accuracy    <       0.01243919 Ry

     iteration # 98     ecut=    80.00 Ry     beta= 0.10
     Davidson diagonalization with overlap
     ethr =  3.27E-08,  avg # of iterations =  1.0

     negative rho (up, down):  5.885E-02 0.000E+00

     total cpu time spent up to now is    28703.6 secs

     total energy              =  -11682.10452280 Ry
     estimated scf accuracy    <       0.00361209 Ry

     iteration # 99     ecut=    80.00 Ry     beta= 0.10
     Davidson diagonalization with overlap
     ethr =  3.27E-08,  avg # of iterations =  1.0

     negative rho (up, down):  5.885E-02 0.000E+00

     total cpu time spent up to now is    28986.8 secs

     total energy              =  -11682.10454516 Ry
     estimated scf accuracy    <       0.00145427 Ry

     iteration #100     ecut=    80.00 Ry     beta= 0.10
     Davidson diagonalization with overlap
     ethr =  3.27E-08,  avg # of iterations =  1.0

     negative rho (up, down):  5.887E-02 0.000E+00

     total cpu time spent up to now is    29270.4 secs

     total energy              =  -11682.10456611 Ry
     estimated scf accuracy    <       0.00057417 Ry

     iteration #101     ecut=    80.00 Ry     beta= 0.10
     Davidson diagonalization with overlap
     ethr =  3.07E-08,  avg # of iterations =  1.0

     negative rho (up, down):  5.887E-02 0.000E+00

     total cpu time spent up to now is    29553.8 secs

     total energy              =  -11682.10456954 Ry
     estimated scf accuracy    <       0.00040781 Ry

     iteration #102     ecut=    80.00 Ry     beta= 0.10
     Davidson diagonalization with overlap
     ethr =  2.18E-08,  avg # of iterations =  1.0

     negative rho (up, down):  5.888E-02 0.000E+00

     total cpu time spent up to now is    29836.7 secs

     total energy              =  -11682.10457559 Ry
     estimated scf accuracy    <       0.00054414 Ry

     iteration #103     ecut=    80.00 Ry     beta= 0.10
     Davidson diagonalization with overlap
     ethr =  2.18E-08,  avg # of iterations =  1.0

     negative rho (up, down):  5.887E-02 0.000E+00

     total cpu time spent up to now is    30120.1 secs

     total energy              =  -11682.10456369 Ry
     estimated scf accuracy    <       0.00091967 Ry

     iteration #104     ecut=    80.00 Ry     beta= 0.10
     Davidson diagonalization with overlap
     ethr =  2.18E-08,  avg # of iterations =  1.0

     negative rho (up, down):  5.889E-02 0.000E+00

     total cpu time spent up to now is    30402.9 secs

     total energy              =  -11682.10457662 Ry
     estimated scf accuracy    <       0.00079627 Ry

     iteration #105     ecut=    80.00 Ry     beta= 0.10
     Davidson diagonalization with overlap
     ethr =  2.18E-08,  avg # of iterations =  1.0

     negative rho (up, down):  5.890E-02 0.000E+00

     total cpu time spent up to now is    30686.2 secs

     total energy              =  -11682.10458487 Ry
     estimated scf accuracy    <       0.00062786 Ry

     iteration #106     ecut=    80.00 Ry     beta= 0.10
     Davidson diagonalization with overlap
     ethr =  2.18E-08,  avg # of iterations =  1.0

     negative rho (up, down):  5.892E-02 0.000E+00

     total cpu time spent up to now is    30969.3 secs

     total energy              =  -11682.10459304 Ry
     estimated scf accuracy    <       0.00064474 Ry

     iteration #107     ecut=    80.00 Ry     beta= 0.10
     Davidson diagonalization with overlap
     ethr =  2.18E-08,  avg # of iterations =  1.0

     negative rho (up, down):  5.891E-02 0.000E+00

     total cpu time spent up to now is    31252.7 secs

     total energy              =  -11682.10457698 Ry
     estimated scf accuracy    <       0.00299317 Ry

     iteration #108     ecut=    80.00 Ry     beta= 0.10
     Davidson diagonalization with overlap
     ethr =  2.18E-08,  avg # of iterations =  1.0

     negative rho (up, down):  5.890E-02 0.000E+00

     total cpu time spent up to now is    31536.3 secs

     total energy              =  -11682.10457209 Ry
     estimated scf accuracy    <       0.00178713 Ry

     iteration #109     ecut=    80.00 Ry     beta= 0.10
     Davidson diagonalization with overlap
     ethr =  2.18E-08,  avg # of iterations =  1.0

     negative rho (up, down):  5.889E-02 0.000E+00

     total cpu time spent up to now is    31819.6 secs

     total energy              =  -11682.10457136 Ry
     estimated scf accuracy    <       0.00182972 Ry

     iteration #110     ecut=    80.00 Ry     beta= 0.10
     Davidson diagonalization with overlap
     ethr =  2.18E-08,  avg # of iterations =  1.0

     negative rho (up, down):  5.891E-02 0.000E+00

     total cpu time spent up to now is    32103.0 secs

     total energy              =  -11682.10458912 Ry
     estimated scf accuracy    <       0.00095879 Ry

     iteration #111     ecut=    80.00 Ry     beta= 0.10
     Davidson diagonalization with overlap
     ethr =  2.18E-08,  avg # of iterations =  1.0

     negative rho (up, down):  5.891E-02 0.000E+00

     total cpu time spent up to now is    32385.6 secs

     total energy              =  -11682.10459413 Ry
     estimated scf accuracy    <       0.00041161 Ry

     iteration #112     ecut=    80.00 Ry     beta= 0.10
     Davidson diagonalization with overlap
     ethr =  2.18E-08,  avg # of iterations =  1.0

     negative rho (up, down):  5.892E-02 0.000E+00

     total cpu time spent up to now is    32669.1 secs

     total energy              =  -11682.10459948 Ry
     estimated scf accuracy    <       0.00034016 Ry

     iteration #113     ecut=    80.00 Ry     beta= 0.10
     Davidson diagonalization with overlap
     ethr =  1.82E-08,  avg # of iterations =  1.0

     negative rho (up, down):  5.891E-02 0.000E+00

     total cpu time spent up to now is    32952.3 secs

     total energy              =  -11682.10459493 Ry
     estimated scf accuracy    <       0.00032893 Ry

     iteration #114     ecut=    80.00 Ry     beta= 0.10
     Davidson diagonalization with overlap
     ethr =  1.76E-08,  avg # of iterations =  1.0

     negative rho (up, down):  5.892E-02 0.000E+00

     total cpu time spent up to now is    33235.4 secs

     total energy              =  -11682.10459911 Ry
     estimated scf accuracy    <       0.00036089 Ry

     iteration #115     ecut=    80.00 Ry     beta= 0.10
     Davidson diagonalization with overlap
     ethr =  1.76E-08,  avg # of iterations =  1.0

     negative rho (up, down):  5.893E-02 0.000E+00

     total cpu time spent up to now is    33519.5 secs

     total energy              =  -11682.10460391 Ry
     estimated scf accuracy    <       0.00015713 Ry

     iteration #116     ecut=    80.00 Ry     beta= 0.10
     Davidson diagonalization with overlap
     ethr =  8.39E-09,  avg # of iterations =  1.0

     negative rho (up, down):  5.894E-02 0.000E+00

     total cpu time spent up to now is    33806.4 secs

     total energy              =  -11682.10460785 Ry
     estimated scf accuracy    <       0.00013685 Ry

     iteration #117     ecut=    80.00 Ry     beta= 0.10
     Davidson diagonalization with overlap
     ethr =  7.31E-09,  avg # of iterations =  1.0

     negative rho (up, down):  5.893E-02 0.000E+00

     total cpu time spent up to now is    34089.1 secs

     total energy              =  -11682.10460488 Ry
     estimated scf accuracy    <       0.00047186 Ry

     iteration #118     ecut=    80.00 Ry     beta= 0.10
     Davidson diagonalization with overlap
     ethr =  7.31E-09,  avg # of iterations =  1.0

     negative rho (up, down):  5.894E-02 0.000E+00

     total cpu time spent up to now is    34371.8 secs

     total energy              =  -11682.10460378 Ry
     estimated scf accuracy    <       0.00057448 Ry

     iteration #119     ecut=    80.00 Ry     beta= 0.10
     Davidson diagonalization with overlap
     ethr =  7.31E-09,  avg # of iterations =  1.0

     negative rho (up, down):  5.893E-02 0.000E+00

     total cpu time spent up to now is    34655.2 secs

     total energy              =  -11682.10459904 Ry
     estimated scf accuracy    <       0.00096121 Ry

     iteration #120     ecut=    80.00 Ry     beta= 0.10
     Davidson diagonalization with overlap
     ethr =  7.31E-09,  avg # of iterations =  1.0

     negative rho (up, down):  5.894E-02 0.000E+00

     total cpu time spent up to now is    34938.2 secs

     total energy              =  -11682.10460186 Ry
     estimated scf accuracy    <       0.00095542 Ry

     iteration #121     ecut=    80.00 Ry     beta= 0.10
     Davidson diagonalization with overlap
     ethr =  7.31E-09,  avg # of iterations =  1.0

     negative rho (up, down):  5.894E-02 0.000E+00

     total cpu time spent up to now is    35221.7 secs

     total energy              =  -11682.10460740 Ry
     estimated scf accuracy    <       0.00034148 Ry

     iteration #122     ecut=    80.00 Ry     beta= 0.10
     Davidson diagonalization with overlap
     ethr =  7.31E-09,  avg # of iterations =  1.0

     negative rho (up, down):  5.895E-02 0.000E+00

     total cpu time spent up to now is    35504.0 secs

     total energy              =  -11682.10461067 Ry
     estimated scf accuracy    <       0.00025685 Ry

     iteration #123     ecut=    80.00 Ry     beta= 0.10
     Davidson diagonalization with overlap
     ethr =  7.31E-09,  avg # of iterations =  1.0

     negative rho (up, down):  5.894E-02 0.000E+00

     total cpu time spent up to now is    35787.4 secs

     total energy              =  -11682.10460937 Ry
     estimated scf accuracy    <       0.00016164 Ry

     iteration #124     ecut=    80.00 Ry     beta= 0.10
     Davidson diagonalization with overlap
     ethr =  7.31E-09,  avg # of iterations =  1.0

     negative rho (up, down):  5.894E-02 0.000E+00

     total cpu time spent up to now is    36070.6 secs

     total energy              =  -11682.10460966 Ry
     estimated scf accuracy    <       0.00025763 Ry

     iteration #125     ecut=    80.00 Ry     beta= 0.10
     Davidson diagonalization with overlap
     ethr =  7.31E-09,  avg # of iterations =  1.0

     negative rho (up, down):  5.895E-02 0.000E+00

     total cpu time spent up to now is    36356.6 secs

     total energy              =  -11682.10461255 Ry
     estimated scf accuracy    <       0.00008246 Ry

     iteration #126     ecut=    80.00 Ry     beta= 0.10
     Davidson diagonalization with overlap
     ethr =  4.41E-09,  avg # of iterations =  1.0

     negative rho (up, down):  5.895E-02 0.000E+00

     total cpu time spent up to now is    36639.7 secs

     total energy              =  -11682.10461437 Ry
     estimated scf accuracy    <       0.00004052 Ry

     iteration #127     ecut=    80.00 Ry     beta= 0.10
     Davidson diagonalization with overlap
     ethr =  2.16E-09,  avg # of iterations =  1.0

     negative rho (up, down):  5.895E-02 0.000E+00

     total cpu time spent up to now is    36923.4 secs

     total energy              =  -11682.10461400 Ry
     estimated scf accuracy    <       0.00006507 Ry

     iteration #128     ecut=    80.00 Ry     beta= 0.10
     Davidson diagonalization with overlap
     ethr =  2.16E-09,  avg # of iterations =  1.0

     negative rho (up, down):  5.895E-02 0.000E+00

     total cpu time spent up to now is    37206.4 secs

     total energy              =  -11682.10461432 Ry
     estimated scf accuracy    <       0.00022305 Ry

     iteration #129     ecut=    80.00 Ry     beta= 0.10
     Davidson diagonalization with overlap
     ethr =  2.16E-09,  avg # of iterations =  1.0

     negative rho (up, down):  5.896E-02 0.000E+00

     total cpu time spent up to now is    37499.3 secs

     total energy              =  -11682.10461540 Ry
     estimated scf accuracy    <       0.00012633 Ry

     iteration #130     ecut=    80.00 Ry     beta= 0.10
     Davidson diagonalization with overlap
     ethr =  2.16E-09,  avg # of iterations =  1.0

     negative rho (up, down):  5.896E-02 0.000E+00

     total cpu time spent up to now is    37782.1 secs

     total energy              =  -11682.10461356 Ry
     estimated scf accuracy    <       0.00029090 Ry

     iteration #131     ecut=    80.00 Ry     beta= 0.10
     Davidson diagonalization with overlap
     ethr =  2.16E-09,  avg # of iterations =  1.0

     negative rho (up, down):  5.896E-02 0.000E+00

     total cpu time spent up to now is    38064.1 secs

     total energy              =  -11682.10461499 Ry
     estimated scf accuracy    <       0.00019214 Ry

     iteration #132     ecut=    80.00 Ry     beta= 0.10
     Davidson diagonalization with overlap
     ethr =  2.16E-09,  avg # of iterations =  1.0

     negative rho (up, down):  5.896E-02 0.000E+00

     total cpu time spent up to now is    38348.0 secs

     total energy              =  -11682.10461625 Ry
     estimated scf accuracy    <       0.00016629 Ry

     iteration #133     ecut=    80.00 Ry     beta= 0.10
     Davidson diagonalization with overlap
     ethr =  2.16E-09,  avg # of iterations =  1.0

     negative rho (up, down):  5.896E-02 0.000E+00

     total cpu time spent up to now is    38630.8 secs

     total energy              =  -11682.10461696 Ry
     estimated scf accuracy    <       0.00007909 Ry

     iteration #134     ecut=    80.00 Ry     beta= 0.10
     Davidson diagonalization with overlap
     ethr =  2.16E-09,  avg # of iterations =  1.0

     negative rho (up, down):  5.896E-02 0.000E+00

     total cpu time spent up to now is    38914.6 secs

     total energy              =  -11682.10461506 Ry
     estimated scf accuracy    <       0.00021511 Ry

     iteration #135     ecut=    80.00 Ry     beta= 0.10
     Davidson diagonalization with overlap
     ethr =  2.16E-09,  avg # of iterations =  1.0

     negative rho (up, down):  5.896E-02 0.000E+00

     total cpu time spent up to now is    39198.7 secs

     total energy              =  -11682.10461686 Ry
     estimated scf accuracy    <       0.00009557 Ry

     iteration #136     ecut=    80.00 Ry     beta= 0.10
     Davidson diagonalization with overlap
     ethr =  2.16E-09,  avg # of iterations =  1.0

     negative rho (up, down):  5.897E-02 0.000E+00

     total cpu time spent up to now is    39482.0 secs

     total energy              =  -11682.10461818 Ry
     estimated scf accuracy    <       0.00003333 Ry

     iteration #137     ecut=    80.00 Ry     beta= 0.10
     Davidson diagonalization with overlap
     ethr =  1.78E-09,  avg # of iterations =  1.0

     negative rho (up, down):  5.897E-02 0.000E+00

     total cpu time spent up to now is    39765.8 secs

     total energy              =  -11682.10461829 Ry
     estimated scf accuracy    <       0.00002966 Ry

     iteration #138     ecut=    80.00 Ry     beta= 0.10
     Davidson diagonalization with overlap
     ethr =  1.58E-09,  avg # of iterations =  1.0

     negative rho (up, down):  5.897E-02 0.000E+00

     total cpu time spent up to now is    40049.4 secs

     total energy              =  -11682.10461857 Ry
     estimated scf accuracy    <       0.00008187 Ry

     iteration #139     ecut=    80.00 Ry     beta= 0.10
     Davidson diagonalization with overlap
     ethr =  1.58E-09,  avg # of iterations =  1.0

     negative rho (up, down):  5.897E-02 0.000E+00

     total cpu time spent up to now is    40333.0 secs

     total energy              =  -11682.10461949 Ry
     estimated scf accuracy    <       0.00002471 Ry

     iteration #140     ecut=    80.00 Ry     beta= 0.10
     Davidson diagonalization with overlap
     ethr =  1.32E-09,  avg # of iterations =  1.0

     negative rho (up, down):  5.897E-02 0.000E+00

     total cpu time spent up to now is    40616.3 secs

     total energy              =  -11682.10461872 Ry
     estimated scf accuracy    <       0.00006247 Ry

     iteration #141     ecut=    80.00 Ry     beta= 0.10
     Davidson diagonalization with overlap
     ethr =  1.32E-09,  avg # of iterations =  1.0

     negative rho (up, down):  5.897E-02 0.000E+00

     total cpu time spent up to now is    40899.5 secs

     total energy              =  -11682.10461911 Ry
     estimated scf accuracy    <       0.00007919 Ry

     iteration #142     ecut=    80.00 Ry     beta= 0.10
     Davidson diagonalization with overlap
     ethr =  1.32E-09,  avg # of iterations =  1.0

     negative rho (up, down):  5.897E-02 0.000E+00

     total cpu time spent up to now is    41192.8 secs

     total energy              =  -11682.10461950 Ry
     estimated scf accuracy    <       0.00006317 Ry

     iteration #143     ecut=    80.00 Ry     beta= 0.10
     Davidson diagonalization with overlap
     ethr =  1.32E-09,  avg # of iterations =  1.0

     negative rho (up, down):  5.898E-02 0.000E+00

     total cpu time spent up to now is    41476.9 secs

     total energy              =  -11682.10462050 Ry
     estimated scf accuracy    <       0.00003776 Ry

     iteration #144     ecut=    80.00 Ry     beta= 0.10
     Davidson diagonalization with overlap
     ethr =  1.32E-09,  avg # of iterations =  1.0

     negative rho (up, down):  5.898E-02 0.000E+00

     total cpu time spent up to now is    41761.0 secs

     total energy              =  -11682.10461943 Ry
     estimated scf accuracy    <       0.00007766 Ry

     iteration #145     ecut=    80.00 Ry     beta= 0.10
     Davidson diagonalization with overlap
     ethr =  1.32E-09,  avg # of iterations =  1.0

     negative rho (up, down):  5.898E-02 0.000E+00

     total cpu time spent up to now is    42044.4 secs

     total energy              =  -11682.10461942 Ry
     estimated scf accuracy    <       0.00008795 Ry

     iteration #146     ecut=    80.00 Ry     beta= 0.10
     Davidson diagonalization with overlap
     ethr =  1.32E-09,  avg # of iterations =  1.0

     negative rho (up, down):  5.898E-02 0.000E+00

     total cpu time spent up to now is    42328.7 secs

     total energy              =  -11682.10462021 Ry
     estimated scf accuracy    <       0.00004497 Ry

     iteration #147     ecut=    80.00 Ry     beta= 0.10
     Davidson diagonalization with overlap
     ethr =  1.32E-09,  avg # of iterations =  1.0

     negative rho (up, down):  5.898E-02 0.000E+00

     total cpu time spent up to now is    42611.1 secs

     total energy              =  -11682.10462045 Ry
     estimated scf accuracy    <       0.00002773 Ry

     iteration #148     ecut=    80.00 Ry     beta= 0.10
     Davidson diagonalization with overlap
     ethr =  1.32E-09,  avg # of iterations =  1.0

     negative rho (up, down):  5.898E-02 0.000E+00

     total cpu time spent up to now is    42895.0 secs

     total energy              =  -11682.10462058 Ry
     estimated scf accuracy    <       0.00006265 Ry

     iteration #149     ecut=    80.00 Ry     beta= 0.10
     Davidson diagonalization with overlap
     ethr =  1.32E-09,  avg # of iterations =  1.0

     negative rho (up, down):  5.898E-02 0.000E+00

     total cpu time spent up to now is    43178.3 secs

     total energy              =  -11682.10462115 Ry
     estimated scf accuracy    <       0.00001302 Ry

     iteration #150     ecut=    80.00 Ry     beta= 0.10
     Davidson diagonalization with overlap
     ethr =  6.96E-10,  avg # of iterations =  1.0

     negative rho (up, down):  5.898E-02 0.000E+00

     total cpu time spent up to now is    43461.4 secs

     total energy              =  -11682.10462094 Ry
     estimated scf accuracy    <       0.00002015 Ry

     iteration #151     ecut=    80.00 Ry     beta= 0.10
     Davidson diagonalization with overlap
     ethr =  6.96E-10,  avg # of iterations =  1.0

     negative rho (up, down):  5.898E-02 0.000E+00

     total cpu time spent up to now is    43744.6 secs

     total energy              =  -11682.10462095 Ry
     estimated scf accuracy    <       0.00004394 Ry

     iteration #152     ecut=    80.00 Ry     beta= 0.10
     Davidson diagonalization with overlap
     ethr =  6.96E-10,  avg # of iterations =  1.0

     negative rho (up, down):  5.898E-02 0.000E+00

     total cpu time spent up to now is    44027.4 secs

     total energy              =  -11682.10462130 Ry
     estimated scf accuracy    <       0.00001342 Ry

     iteration #153     ecut=    80.00 Ry     beta= 0.10
     Davidson diagonalization with overlap
     ethr =  6.96E-10,  avg # of iterations =  1.0

     negative rho (up, down):  5.899E-02 0.000E+00

     total cpu time spent up to now is    44310.5 secs

     total energy              =  -11682.10462177 Ry
     estimated scf accuracy    <       0.00001412 Ry

     iteration #154     ecut=    80.00 Ry     beta= 0.10
     Davidson diagonalization with overlap
     ethr =  6.96E-10,  avg # of iterations =  1.0

     negative rho (up, down):  5.899E-02 0.000E+00

     total cpu time spent up to now is    44593.4 secs

     total energy              =  -11682.10462169 Ry
     estimated scf accuracy    <       0.00001600 Ry

     iteration #155     ecut=    80.00 Ry     beta= 0.10
     Davidson diagonalization with overlap
     ethr =  6.96E-10,  avg # of iterations =  1.0

     negative rho (up, down):  5.899E-02 0.000E+00

     total cpu time spent up to now is    44877.1 secs

     total energy              =  -11682.10462136 Ry
     estimated scf accuracy    <       0.00004125 Ry

     iteration #156     ecut=    80.00 Ry     beta= 0.10
     Davidson diagonalization with overlap
     ethr =  6.96E-10,  avg # of iterations =  1.0

     negative rho (up, down):  5.898E-02 0.000E+00

     total cpu time spent up to now is    45161.3 secs

     total energy              =  -11682.10462135 Ry
     estimated scf accuracy    <       0.00004387 Ry

     iteration #157     ecut=    80.00 Ry     beta= 0.10
     Davidson diagonalization with overlap
     ethr =  6.96E-10,  avg # of iterations =  1.0

     negative rho (up, down):  5.899E-02 0.000E+00

     total cpu time spent up to now is    45443.9 secs

     total energy              =  -11682.10462169 Ry
     estimated scf accuracy    <       0.00002318 Ry

     iteration #158     ecut=    80.00 Ry     beta= 0.10
     Davidson diagonalization with overlap
     ethr =  6.96E-10,  avg # of iterations =  1.0

     negative rho (up, down):  5.899E-02 0.000E+00

     total cpu time spent up to now is    45727.7 secs

     total energy              =  -11682.10462164 Ry
     estimated scf accuracy    <       0.00005990 Ry

     iteration #159     ecut=    80.00 Ry     beta= 0.10
     Davidson diagonalization with overlap
     ethr =  6.96E-10,  avg # of iterations =  1.0

     negative rho (up, down):  5.899E-02 0.000E+00

     total cpu time spent up to now is    46010.4 secs

     total energy              =  -11682.10462208 Ry
     estimated scf accuracy    <       0.00001154 Ry

     iteration #160     ecut=    80.00 Ry     beta= 0.10
     Davidson diagonalization with overlap
     ethr =  6.17E-10,  avg # of iterations =  1.0

     negative rho (up, down):  5.899E-02 0.000E+00

     total cpu time spent up to now is    46294.1 secs

     total energy              =  -11682.10462205 Ry
     estimated scf accuracy    <       0.00001358 Ry

     iteration #161     ecut=    80.00 Ry     beta= 0.10
     Davidson diagonalization with overlap
     ethr =  6.17E-10,  avg # of iterations =  1.0

     negative rho (up, down):  5.899E-02 0.000E+00

     total cpu time spent up to now is    46577.5 secs

     total energy              =  -11682.10462191 Ry
     estimated scf accuracy    <       0.00003332 Ry

     iteration #162     ecut=    80.00 Ry     beta= 0.10
     Davidson diagonalization with overlap
     ethr =  6.17E-10,  avg # of iterations =  1.0

     negative rho (up, down):  5.899E-02 0.000E+00

     total cpu time spent up to now is    46860.5 secs

     total energy              =  -11682.10462213 Ry
     estimated scf accuracy    <       0.00000817 Ry

     iteration #163     ecut=    80.00 Ry     beta= 0.10
     Davidson diagonalization with overlap
     ethr =  4.37E-10,  avg # of iterations =  1.0

     negative rho (up, down):  5.899E-02 0.000E+00

     total cpu time spent up to now is    47143.4 secs

     total energy              =  -11682.10462235 Ry
     estimated scf accuracy    <       0.00000511 Ry

     iteration #164     ecut=    80.00 Ry     beta= 0.10
     Davidson diagonalization with overlap
     ethr =  2.73E-10,  avg # of iterations =  1.0

     negative rho (up, down):  5.899E-02 0.000E+00

     total cpu time spent up to now is    47427.1 secs

     total energy              =  -11682.10462242 Ry
     estimated scf accuracy    <       0.00000447 Ry

     iteration #165     ecut=    80.00 Ry     beta= 0.10
     Davidson diagonalization with overlap
     ethr =  2.39E-10,  avg # of iterations =  1.0

     negative rho (up, down):  5.899E-02 0.000E+00

     total cpu time spent up to now is    47712.4 secs

     total energy              =  -11682.10462243 Ry
     estimated scf accuracy    <       0.00000706 Ry

     iteration #166     ecut=    80.00 Ry     beta= 0.10
     Davidson diagonalization with overlap
     ethr =  2.39E-10,  avg # of iterations =  1.0

     negative rho (up, down):  5.899E-02 0.000E+00

     total cpu time spent up to now is    47996.1 secs

     total energy              =  -11682.10462223 Ry
     estimated scf accuracy    <       0.00001691 Ry

     iteration #167     ecut=    80.00 Ry     beta= 0.10
     Davidson diagonalization with overlap
     ethr =  2.39E-10,  avg # of iterations =  1.0

     negative rho (up, down):  5.899E-02 0.000E+00

     total cpu time spent up to now is    48279.3 secs

     total energy              =  -11682.10462237 Ry
     estimated scf accuracy    <       0.00001824 Ry

     iteration #168     ecut=    80.00 Ry     beta= 0.10
     Davidson diagonalization with overlap
     ethr =  2.39E-10,  avg # of iterations =  1.0

     negative rho (up, down):  5.899E-02 0.000E+00

     total cpu time spent up to now is    48563.1 secs

     total energy              =  -11682.10462229 Ry
     estimated scf accuracy    <       0.00004545 Ry

     iteration #169     ecut=    80.00 Ry     beta= 0.10
     Davidson diagonalization with overlap
     ethr =  2.39E-10,  avg # of iterations =  1.0

     negative rho (up, down):  5.899E-02 0.000E+00

     total cpu time spent up to now is    48847.1 secs

     total energy              =  -11682.10462256 Ry
     estimated scf accuracy    <       0.00001031 Ry

     iteration #170     ecut=    80.00 Ry     beta= 0.10
     Davidson diagonalization with overlap
     ethr =  2.39E-10,  avg # of iterations =  1.0

     negative rho (up, down):  5.899E-02 0.000E+00

     total cpu time spent up to now is    49131.1 secs

     total energy              =  -11682.10462261 Ry
     estimated scf accuracy    <       0.00000912 Ry

     iteration #171     ecut=    80.00 Ry     beta= 0.10
     Davidson diagonalization with overlap
     ethr =  2.39E-10,  avg # of iterations =  1.0

     negative rho (up, down):  5.899E-02 0.000E+00

     total cpu time spent up to now is    49414.9 secs

     total energy              =  -11682.10462243 Ry
     estimated scf accuracy    <       0.00002433 Ry

     iteration #172     ecut=    80.00 Ry     beta= 0.10
     Davidson diagonalization with overlap
     ethr =  2.39E-10,  avg # of iterations =  1.0

     negative rho (up, down):  5.899E-02 0.000E+00

     total cpu time spent up to now is    49698.3 secs

     total energy              =  -11682.10462253 Ry
     estimated scf accuracy    <       0.00000814 Ry

     iteration #173     ecut=    80.00 Ry     beta= 0.10
     Davidson diagonalization with overlap
     ethr =  2.39E-10,  avg # of iterations =  1.0

     negative rho (up, down):  5.899E-02 0.000E+00

     total cpu time spent up to now is    49980.8 secs

     total energy              =  -11682.10462267 Ry
     estimated scf accuracy    <       0.00000410 Ry

     iteration #174     ecut=    80.00 Ry     beta= 0.10
     Davidson diagonalization with overlap
     ethr =  2.19E-10,  avg # of iterations =  1.0

     negative rho (up, down):  5.899E-02 0.000E+00

     total cpu time spent up to now is    50263.2 secs

     total energy              =  -11682.10462272 Ry
     estimated scf accuracy    <       0.00000188 Ry

     iteration #175     ecut=    80.00 Ry     beta= 0.10
     Davidson diagonalization with overlap
     ethr =  1.00E-10,  avg # of iterations =  1.0

     negative rho (up, down):  5.900E-02 0.000E+00

     total cpu time spent up to now is    50546.0 secs

     total energy              =  -11682.10462276 Ry
     estimated scf accuracy    <       0.00000200 Ry

     iteration #176     ecut=    80.00 Ry     beta= 0.10
     Davidson diagonalization with overlap
     ethr =  1.00E-10,  avg # of iterations =  1.0

     negative rho (up, down):  5.900E-02 0.000E+00

     total cpu time spent up to now is    50829.2 secs

     total energy              =  -11682.10462271 Ry
     estimated scf accuracy    <       0.00000334 Ry

     iteration #177     ecut=    80.00 Ry     beta= 0.10
     Davidson diagonalization with overlap
     ethr =  1.00E-10,  avg # of iterations =  1.0

     negative rho (up, down):  5.900E-02 0.000E+00

     total cpu time spent up to now is    51113.1 secs

     total energy              =  -11682.10462275 Ry
     estimated scf accuracy    <       0.00000828 Ry

     iteration #178     ecut=    80.00 Ry     beta= 0.10
     Davidson diagonalization with overlap
     ethr =  1.00E-10,  avg # of iterations =  1.0

     negative rho (up, down):  5.900E-02 0.000E+00

     total cpu time spent up to now is    51396.8 secs

     total energy              =  -11682.10462273 Ry
     estimated scf accuracy    <       0.00001602 Ry

     iteration #179     ecut=    80.00 Ry     beta= 0.10
     Davidson diagonalization with overlap
     ethr =  1.00E-10,  avg # of iterations =  1.0

     negative rho (up, down):  5.900E-02 0.000E+00

     total cpu time spent up to now is    51681.2 secs

     total energy              =  -11682.10462280 Ry
     estimated scf accuracy    <       0.00000524 Ry

     iteration #180     ecut=    80.00 Ry     beta= 0.10
     Davidson diagonalization with overlap
     ethr =  1.00E-10,  avg # of iterations =  1.0

     negative rho (up, down):  5.900E-02 0.000E+00

     total cpu time spent up to now is    51964.1 secs

     total energy              =  -11682.10462285 Ry
     estimated scf accuracy    <       0.00000400 Ry

     iteration #181     ecut=    80.00 Ry     beta= 0.10
     Davidson diagonalization with overlap
     ethr =  1.00E-10,  avg # of iterations =  1.0

     negative rho (up, down):  5.900E-02 0.000E+00

     total cpu time spent up to now is    52247.6 secs

     total energy              =  -11682.10462276 Ry
     estimated scf accuracy    <       0.00001058 Ry

     iteration #182     ecut=    80.00 Ry     beta= 0.10
     Davidson diagonalization with overlap
     ethr =  1.00E-10,  avg # of iterations =  1.0

     negative rho (up, down):  5.900E-02 0.000E+00

     total cpu time spent up to now is    52530.7 secs

     total energy              =  -11682.10462274 Ry
     estimated scf accuracy    <       0.00000757 Ry

     iteration #183     ecut=    80.00 Ry     beta= 0.10
     Davidson diagonalization with overlap
     ethr =  1.00E-10,  avg # of iterations =  1.0

     negative rho (up, down):  5.900E-02 0.000E+00

     total cpu time spent up to now is    52813.5 secs

     total energy              =  -11682.10462283 Ry
     estimated scf accuracy    <       0.00000634 Ry

     iteration #184     ecut=    80.00 Ry     beta= 0.10
     Davidson diagonalization with overlap
     ethr =  1.00E-10,  avg # of iterations =  1.0

     negative rho (up, down):  5.900E-02 0.000E+00

     total cpu time spent up to now is    53098.7 secs

     total energy              =  -11682.10462287 Ry
     estimated scf accuracy    <       0.00000164 Ry

     iteration #185     ecut=    80.00 Ry     beta= 0.10
     Davidson diagonalization with overlap
     ethr =  8.74E-11,  avg # of iterations =  1.0

     negative rho (up, down):  5.900E-02 0.000E+00

     total cpu time spent up to now is    53381.0 secs

     total energy              =  -11682.10462290 Ry
     estimated scf accuracy    <       0.00000092 Ry

     iteration #186     ecut=    80.00 Ry     beta= 0.10
     Davidson diagonalization with overlap
     ethr =  4.94E-11,  avg # of iterations =  1.0

     negative rho (up, down):  5.900E-02 0.000E+00

     total cpu time spent up to now is    53664.0 secs

     total energy              =  -11682.10462289 Ry
     estimated scf accuracy    <       0.00000086 Ry

     iteration #187     ecut=    80.00 Ry     beta= 0.10
     Davidson diagonalization with overlap
     ethr =  4.61E-11,  avg # of iterations =  1.0

     negative rho (up, down):  5.900E-02 0.000E+00

     total cpu time spent up to now is    53948.0 secs

     total energy              =  -11682.10462290 Ry
     estimated scf accuracy    <       0.00000263 Ry

     iteration #188     ecut=    80.00 Ry     beta= 0.10
     Davidson diagonalization with overlap
     ethr =  4.61E-11,  avg # of iterations =  1.0

     negative rho (up, down):  5.900E-02 0.000E+00

     total cpu time spent up to now is    54230.7 secs

     total energy              =  -11682.10462291 Ry
     estimated scf accuracy    <       0.00000351 Ry

     iteration #189     ecut=    80.00 Ry     beta= 0.10
     Davidson diagonalization with overlap
     ethr =  4.61E-11,  avg # of iterations =  1.0

     negative rho (up, down):  5.900E-02 0.000E+00

     total cpu time spent up to now is    54514.0 secs

     total energy              =  -11682.10462292 Ry
     estimated scf accuracy    <       0.00000188 Ry

     iteration #190     ecut=    80.00 Ry     beta= 0.10
     Davidson diagonalization with overlap
     ethr =  4.61E-11,  avg # of iterations =  1.0

     negative rho (up, down):  5.900E-02 0.000E+00

     total cpu time spent up to now is    54797.4 secs

     total energy              =  -11682.10462294 Ry
     estimated scf accuracy    <       0.00000124 Ry

     iteration #191     ecut=    80.00 Ry     beta= 0.10
     Davidson diagonalization with overlap
     ethr =  4.61E-11,  avg # of iterations =  1.0

     negative rho (up, down):  5.900E-02 0.000E+00

     total cpu time spent up to now is    55080.9 secs

     total energy              =  -11682.10462292 Ry
     estimated scf accuracy    <       0.00000318 Ry

     iteration #192     ecut=    80.00 Ry     beta= 0.10
     Davidson diagonalization with overlap
     ethr =  4.61E-11,  avg # of iterations =  1.0

     negative rho (up, down):  5.900E-02 0.000E+00

     total cpu time spent up to now is    55364.8 secs

     total energy              =  -11682.10462290 Ry
     estimated scf accuracy    <       0.00000439 Ry

     iteration #193     ecut=    80.00 Ry     beta= 0.10
     Davidson diagonalization with overlap
     ethr =  4.61E-11,  avg # of iterations =  1.0

     negative rho (up, down):  5.900E-02 0.000E+00

     total cpu time spent up to now is    55647.9 secs

     total energy              =  -11682.10462290 Ry
     estimated scf accuracy    <       0.00000742 Ry

     iteration #194     ecut=    80.00 Ry     beta= 0.10
     Davidson diagonalization with overlap
     ethr =  4.61E-11,  avg # of iterations =  1.0

     negative rho (up, down):  5.900E-02 0.000E+00

     total cpu time spent up to now is    55930.3 secs

     total energy              =  -11682.10462294 Ry
     estimated scf accuracy    <       0.00000157 Ry

     iteration #195     ecut=    80.00 Ry     beta= 0.10
     Davidson diagonalization with overlap
     ethr =  4.61E-11,  avg # of iterations =  1.0

     negative rho (up, down):  5.900E-02 0.000E+00

     total cpu time spent up to now is    56213.9 secs

     total energy              =  -11682.10462296 Ry
     estimated scf accuracy    <       0.00000071 Ry

     iteration #196     ecut=    80.00 Ry     beta= 0.10
     Davidson diagonalization with overlap
     ethr =  3.81E-11,  avg # of iterations =  1.0

     negative rho (up, down):  5.900E-02 0.000E+00

     total cpu time spent up to now is    56498.8 secs

     total energy              =  -11682.10462296 Ry
     estimated scf accuracy    <       0.00000047 Ry

     iteration #197     ecut=    80.00 Ry     beta= 0.10
     Davidson diagonalization with overlap
     ethr =  2.51E-11,  avg # of iterations =  1.0

     negative rho (up, down):  5.900E-02 0.000E+00

     total cpu time spent up to now is    56781.7 secs

     total energy              =  -11682.10462297 Ry
     estimated scf accuracy    <       0.00000097 Ry

     iteration #198     ecut=    80.00 Ry     beta= 0.10
     Davidson diagonalization with overlap
     ethr =  2.51E-11,  avg # of iterations =  1.0

     negative rho (up, down):  5.900E-02 0.000E+00

     total cpu time spent up to now is    57065.4 secs

     total energy              =  -11682.10462297 Ry
     estimated scf accuracy    <       0.00000115 Ry

     iteration #199     ecut=    80.00 Ry     beta= 0.10
     Davidson diagonalization with overlap
     ethr =  2.51E-11,  avg # of iterations =  1.0

     negative rho (up, down):  5.900E-02 0.000E+00

     total cpu time spent up to now is    57348.7 secs

     total energy              =  -11682.10462297 Ry
     estimated scf accuracy    <       0.00000064 Ry

     iteration #200     ecut=    80.00 Ry     beta= 0.10
     Davidson diagonalization with overlap
     ethr =  2.51E-11,  avg # of iterations =  1.0

     negative rho (up, down):  5.900E-02 0.000E+00

     total cpu time spent up to now is    57631.3 secs

     total energy              =  -11682.10462298 Ry
     estimated scf accuracy    <       0.00000035 Ry

     iteration #201     ecut=    80.00 Ry     beta= 0.10
     Davidson diagonalization with overlap
     ethr =  1.84E-11,  avg # of iterations =  1.0

     negative rho (up, down):  5.900E-02 0.000E+00

     total cpu time spent up to now is    57915.2 secs

     total energy              =  -11682.10462298 Ry
     estimated scf accuracy    <       0.00000078 Ry

     iteration #202     ecut=    80.00 Ry     beta= 0.10
     Davidson diagonalization with overlap
     ethr =  1.84E-11,  avg # of iterations =  1.0

     negative rho (up, down):  5.900E-02 0.000E+00

     total cpu time spent up to now is    58198.4 secs

     total energy              =  -11682.10462298 Ry
     estimated scf accuracy    <       0.00000152 Ry

     iteration #203     ecut=    80.00 Ry     beta= 0.10
     Davidson diagonalization with overlap
     ethr =  1.84E-11,  avg # of iterations =  1.0

     negative rho (up, down):  5.900E-02 0.000E+00

     total cpu time spent up to now is    58481.2 secs

     total energy              =  -11682.10462296 Ry
     estimated scf accuracy    <       0.00000322 Ry

     iteration #204     ecut=    80.00 Ry     beta= 0.10
     Davidson diagonalization with overlap
     ethr =  1.84E-11,  avg # of iterations =  1.0

     negative rho (up, down):  5.900E-02 0.000E+00

     total cpu time spent up to now is    58764.1 secs

     total energy              =  -11682.10462298 Ry
     estimated scf accuracy    <       0.00000113 Ry

     iteration #205     ecut=    80.00 Ry     beta= 0.10
     Davidson diagonalization with overlap
     ethr =  1.84E-11,  avg # of iterations =  1.0

     negative rho (up, down):  5.900E-02 0.000E+00

     total cpu time spent up to now is    59047.0 secs

     total energy              =  -11682.10462298 Ry
     estimated scf accuracy    <       0.00000064 Ry

     iteration #206     ecut=    80.00 Ry     beta= 0.10
     Davidson diagonalization with overlap
     ethr =  1.84E-11,  avg # of iterations =  1.0

     negative rho (up, down):  5.900E-02 0.000E+00

     total cpu time spent up to now is    59329.2 secs

     total energy              =  -11682.10462299 Ry
     estimated scf accuracy    <       0.00000046 Ry

     iteration #207     ecut=    80.00 Ry     beta= 0.10
     Davidson diagonalization with overlap
     ethr =  1.84E-11,  avg # of iterations =  1.0

     negative rho (up, down):  5.900E-02 0.000E+00

     total cpu time spent up to now is    59612.0 secs

     total energy              =  -11682.10462299 Ry
     estimated scf accuracy    <       0.00000078 Ry

     iteration #208     ecut=    80.00 Ry     beta= 0.10
     Davidson diagonalization with overlap
     ethr =  1.84E-11,  avg # of iterations =  1.0

     negative rho (up, down):  5.900E-02 0.000E+00

     total cpu time spent up to now is    59895.5 secs

     total energy              =  -11682.10462299 Ry
     estimated scf accuracy    <       0.00000097 Ry

     iteration #209     ecut=    80.00 Ry     beta= 0.10
     Davidson diagonalization with overlap
     ethr =  1.84E-11,  avg # of iterations =  1.0

     negative rho (up, down):  5.900E-02 0.000E+00

     total cpu time spent up to now is    60178.5 secs

     total energy              =  -11682.10462299 Ry
     estimated scf accuracy    <       0.00000043 Ry

     iteration #210     ecut=    80.00 Ry     beta= 0.10
     Davidson diagonalization with overlap
     ethr =  1.84E-11,  avg # of iterations =  1.0

     negative rho (up, down):  5.900E-02 0.000E+00

     total cpu time spent up to now is    60462.0 secs

     total energy              =  -11682.10462300 Ry
     estimated scf accuracy    <       0.00000016 Ry

     iteration #211     ecut=    80.00 Ry     beta= 0.10
     Davidson diagonalization with overlap
     ethr =  8.56E-12,  avg # of iterations =  1.0

     negative rho (up, down):  5.900E-02 0.000E+00

     total cpu time spent up to now is    60745.6 secs

     total energy              =  -11682.10462300 Ry
     estimated scf accuracy    <       0.00000020 Ry

     iteration #212     ecut=    80.00 Ry     beta= 0.10
     Davidson diagonalization with overlap
     ethr =  8.56E-12,  avg # of iterations =  1.0

     negative rho (up, down):  5.900E-02 0.000E+00

     total cpu time spent up to now is    61028.8 secs

     total energy              =  -11682.10462300 Ry
     estimated scf accuracy    <       0.00000038 Ry

     iteration #213     ecut=    80.00 Ry     beta= 0.10
     Davidson diagonalization with overlap
     ethr =  8.56E-12,  avg # of iterations =  1.0

     negative rho (up, down):  5.900E-02 0.000E+00

     total cpu time spent up to now is    61312.3 secs

     total energy              =  -11682.10462299 Ry
     estimated scf accuracy    <       0.00000071 Ry

     iteration #214     ecut=    80.00 Ry     beta= 0.10
     Davidson diagonalization with overlap
     ethr =  8.56E-12,  avg # of iterations =  1.0

     negative rho (up, down):  5.900E-02 0.000E+00

     total cpu time spent up to now is    61595.4 secs

     total energy              =  -11682.10462299 Ry
     estimated scf accuracy    <       0.00000063 Ry

     iteration #215     ecut=    80.00 Ry     beta= 0.10
     Davidson diagonalization with overlap
     ethr =  8.56E-12,  avg # of iterations =  1.0

     negative rho (up, down):  5.900E-02 0.000E+00

     total cpu time spent up to now is    61879.8 secs

     total energy              =  -11682.10462300 Ry
     estimated scf accuracy    <       0.00000044 Ry

     iteration #216     ecut=    80.00 Ry     beta= 0.10
     Davidson diagonalization with overlap
     ethr =  8.56E-12,  avg # of iterations =  1.0

     negative rho (up, down):  5.900E-02 0.000E+00

     total cpu time spent up to now is    62163.3 secs

     total energy              =  -11682.10462300 Ry
     estimated scf accuracy    <       0.00000039 Ry

     iteration #217     ecut=    80.00 Ry     beta= 0.10
     Davidson diagonalization with overlap
     ethr =  8.56E-12,  avg # of iterations =  1.0

     negative rho (up, down):  5.900E-02 0.000E+00

     total cpu time spent up to now is    62446.7 secs

     total energy              =  -11682.10462300 Ry
     estimated scf accuracy    <       0.00000058 Ry

     iteration #218     ecut=    80.00 Ry     beta= 0.10
     Davidson diagonalization with overlap
     ethr =  8.56E-12,  avg # of iterations =  1.0

     negative rho (up, down):  5.900E-02 0.000E+00

     total cpu time spent up to now is    62729.4 secs

     total energy              =  -11682.10462300 Ry
     estimated scf accuracy    <       0.00000100 Ry

     iteration #219     ecut=    80.00 Ry     beta= 0.10
     Davidson diagonalization with overlap
     ethr =  8.56E-12,  avg # of iterations =  1.0

     negative rho (up, down):  5.900E-02 0.000E+00

     total cpu time spent up to now is    63012.0 secs

     total energy              =  -11682.10462300 Ry
     estimated scf accuracy    <       0.00000043 Ry

     iteration #220     ecut=    80.00 Ry     beta= 0.10
     Davidson diagonalization with overlap
     ethr =  8.56E-12,  avg # of iterations =  1.0

     negative rho (up, down):  5.900E-02 0.000E+00

     total cpu time spent up to now is    63295.1 secs

     total energy              =  -11682.10462300 Ry
     estimated scf accuracy    <       0.00000017 Ry

     iteration #221     ecut=    80.00 Ry     beta= 0.10
     Davidson diagonalization with overlap
     ethr =  8.56E-12,  avg # of iterations =  1.0

     negative rho (up, down):  5.900E-02 0.000E+00

     total cpu time spent up to now is    63578.7 secs

     total energy              =  -11682.10462300 Ry
     estimated scf accuracy    <       0.00000010 Ry

     iteration #222     ecut=    80.00 Ry     beta= 0.10
     Davidson diagonalization with overlap
     ethr =  5.50E-12,  avg # of iterations =  1.0

     negative rho (up, down):  5.900E-02 0.000E+00

     total cpu time spent up to now is    63862.8 secs

     total energy              =  -11682.10462300 Ry
     estimated scf accuracy    <       0.00000011 Ry

     iteration #223     ecut=    80.00 Ry     beta= 0.10
     Davidson diagonalization with overlap
     ethr =  5.50E-12,  avg # of iterations =  1.0

     negative rho (up, down):  5.900E-02 0.000E+00

     total cpu time spent up to now is    64146.3 secs

     total energy              =  -11682.10462300 Ry
     estimated scf accuracy    <       0.00000015 Ry

     iteration #224     ecut=    80.00 Ry     beta= 0.10
     Davidson diagonalization with overlap
     ethr =  5.50E-12,  avg # of iterations =  1.0

     negative rho (up, down):  5.900E-02 0.000E+00

     total cpu time spent up to now is    64429.6 secs

     total energy              =  -11682.10462300 Ry
     estimated scf accuracy    <       0.00000032 Ry

     iteration #225     ecut=    80.00 Ry     beta= 0.10
     Davidson diagonalization with overlap
     ethr =  5.50E-12,  avg # of iterations =  1.0

     negative rho (up, down):  5.900E-02 0.000E+00

     total cpu time spent up to now is    64713.3 secs

     total energy              =  -11682.10462300 Ry
     estimated scf accuracy    <       0.00000018 Ry

     iteration #226     ecut=    80.00 Ry     beta= 0.10
     Davidson diagonalization with overlap
     ethr =  5.50E-12,  avg # of iterations =  1.0

     negative rho (up, down):  5.900E-02 0.000E+00

     total cpu time spent up to now is    64996.8 secs

     total energy              =  -11682.10462300 Ry
     estimated scf accuracy    <       0.00000019 Ry

     iteration #227     ecut=    80.00 Ry     beta= 0.10
     Davidson diagonalization with overlap
     ethr =  5.50E-12,  avg # of iterations =  1.0

     negative rho (up, down):  5.900E-02 0.000E+00

     total cpu time spent up to now is    65280.4 secs

     total energy              =  -11682.10462300 Ry
     estimated scf accuracy    <       0.00000023 Ry

     iteration #228     ecut=    80.00 Ry     beta= 0.10
     Davidson diagonalization with overlap
     ethr =  5.50E-12,  avg # of iterations =  1.0

     negative rho (up, down):  5.900E-02 0.000E+00

     total cpu time spent up to now is    65563.4 secs

     total energy              =  -11682.10462300 Ry
     estimated scf accuracy    <       0.00000067 Ry

     iteration #229     ecut=    80.00 Ry     beta= 0.10
     Davidson diagonalization with overlap
     ethr =  5.50E-12,  avg # of iterations =  1.0

     negative rho (up, down):  5.900E-02 0.000E+00

     total cpu time spent up to now is    65847.4 secs

     total energy              =  -11682.10462300 Ry
     estimated scf accuracy    <       0.00000031 Ry

     iteration #230     ecut=    80.00 Ry     beta= 0.10
     Davidson diagonalization with overlap
     ethr =  5.50E-12,  avg # of iterations =  1.0

     negative rho (up, down):  5.900E-02 0.000E+00

     total cpu time spent up to now is    66131.0 secs

     total energy              =  -11682.10462300 Ry
     estimated scf accuracy    <       0.00000020 Ry

     iteration #231     ecut=    80.00 Ry     beta= 0.10
     Davidson diagonalization with overlap
     ethr =  5.50E-12,  avg # of iterations =  1.0

     negative rho (up, down):  5.900E-02 0.000E+00

     total cpu time spent up to now is    66412.9 secs

     total energy              =  -11682.10462300 Ry
     estimated scf accuracy    <       0.00000012 Ry

     iteration #232     ecut=    80.00 Ry     beta= 0.10
     Davidson diagonalization with overlap
     ethr =  5.50E-12,  avg # of iterations =  1.0

     negative rho (up, down):  5.900E-02 0.000E+00

     total cpu time spent up to now is    66695.9 secs

     total energy              =  -11682.10462300 Ry
     estimated scf accuracy    <       0.00000006 Ry

     iteration #233     ecut=    80.00 Ry     beta= 0.10
     Davidson diagonalization with overlap
     ethr =  3.43E-12,  avg # of iterations =  1.0

     negative rho (up, down):  5.900E-02 0.000E+00

     total cpu time spent up to now is    66979.1 secs

     total energy              =  -11682.10462300 Ry
     estimated scf accuracy    <       0.00000005 Ry

     iteration #234     ecut=    80.00 Ry     beta= 0.10
     Davidson diagonalization with overlap
     ethr =  2.59E-12,  avg # of iterations =  1.0

     negative rho (up, down):  5.900E-02 0.000E+00

     total cpu time spent up to now is    67262.9 secs

     total energy              =  -11682.10462300 Ry
     estimated scf accuracy    <       0.00000013 Ry

     iteration #235     ecut=    80.00 Ry     beta= 0.10
     Davidson diagonalization with overlap
     ethr =  2.59E-12,  avg # of iterations =  1.0

     negative rho (up, down):  5.900E-02 0.000E+00

     total cpu time spent up to now is    67546.3 secs

     total energy              =  -11682.10462300 Ry
     estimated scf accuracy    <       0.00000007 Ry

     iteration #236     ecut=    80.00 Ry     beta= 0.10
     Davidson diagonalization with overlap
     ethr =  2.59E-12,  avg # of iterations =  1.0

     negative rho (up, down):  5.900E-02 0.000E+00

     total cpu time spent up to now is    67829.5 secs

     total energy              =  -11682.10462300 Ry
     estimated scf accuracy    <       0.00000007 Ry

     iteration #237     ecut=    80.00 Ry     beta= 0.10
     Davidson diagonalization with overlap
     ethr =  2.59E-12,  avg # of iterations =  1.0

     negative rho (up, down):  5.900E-02 0.000E+00

     total cpu time spent up to now is    68113.2 secs

     total energy              =  -11682.10462300 Ry
     estimated scf accuracy    <       0.00000006 Ry

     iteration #238     ecut=    80.00 Ry     beta= 0.10
     Davidson diagonalization with overlap
     ethr =  2.59E-12,  avg # of iterations =  1.0

     negative rho (up, down):  5.900E-02 0.000E+00

     total cpu time spent up to now is    68396.1 secs

     total energy              =  -11682.10462300 Ry
     estimated scf accuracy    <       0.00000028 Ry

     iteration #239     ecut=    80.00 Ry     beta= 0.10
     Davidson diagonalization with overlap
     ethr =  2.59E-12,  avg # of iterations =  1.0

     negative rho (up, down):  5.900E-02 0.000E+00

     total cpu time spent up to now is    68679.1 secs

     total energy              =  -11682.10462300 Ry
     estimated scf accuracy    <       0.00000013 Ry

     iteration #240     ecut=    80.00 Ry     beta= 0.10
     Davidson diagonalization with overlap
     ethr =  2.59E-12,  avg # of iterations =  1.0

     negative rho (up, down):  5.900E-02 0.000E+00

     total cpu time spent up to now is    68962.4 secs

     total energy              =  -11682.10462300 Ry
     estimated scf accuracy    <       0.00000015 Ry

     iteration #241     ecut=    80.00 Ry     beta= 0.10
     Davidson diagonalization with overlap
     ethr =  2.59E-12,  avg # of iterations =  1.0

     negative rho (up, down):  5.900E-02 0.000E+00

     total cpu time spent up to now is    69245.7 secs

     total energy              =  -11682.10462300 Ry
     estimated scf accuracy    <       0.00000016 Ry

     iteration #242     ecut=    80.00 Ry     beta= 0.10
     Davidson diagonalization with overlap
     ethr =  2.59E-12,  avg # of iterations =  1.0

     negative rho (up, down):  5.900E-02 0.000E+00

     total cpu time spent up to now is    69528.8 secs

     total energy              =  -11682.10462300 Ry
     estimated scf accuracy    <       0.00000006 Ry

     iteration #243     ecut=    80.00 Ry     beta= 0.10
     Davidson diagonalization with overlap
     ethr =  2.59E-12,  avg # of iterations =  1.0

     negative rho (up, down):  5.900E-02 0.000E+00

     total cpu time spent up to now is    69812.3 secs

     total energy              =  -11682.10462300 Ry
     estimated scf accuracy    <       0.00000003 Ry

     iteration #244     ecut=    80.00 Ry     beta= 0.10
     Davidson diagonalization with overlap
     ethr =  1.50E-12,  avg # of iterations =  1.0

     negative rho (up, down):  5.900E-02 0.000E+00

     total cpu time spent up to now is    70096.4 secs

     total energy              =  -11682.10462300 Ry
     estimated scf accuracy    <       0.00000007 Ry

     iteration #245     ecut=    80.00 Ry     beta= 0.10
     Davidson diagonalization with overlap
     ethr =  1.50E-12,  avg # of iterations =  1.0

     negative rho (up, down):  5.900E-02 0.000E+00

     total cpu time spent up to now is    70379.5 secs

     total energy              =  -11682.10462300 Ry
     estimated scf accuracy    <       0.00000003 Ry

     iteration #246     ecut=    80.00 Ry     beta= 0.10
     Davidson diagonalization with overlap
     ethr =  1.42E-12,  avg # of iterations =  1.0

     negative rho (up, down):  5.900E-02 0.000E+00

     total cpu time spent up to now is    70662.8 secs

     total energy              =  -11682.10462300 Ry
     estimated scf accuracy    <       0.00000002 Ry

     iteration #247     ecut=    80.00 Ry     beta= 0.10
     Davidson diagonalization with overlap
     ethr =  1.24E-12,  avg # of iterations =  1.0

     negative rho (up, down):  5.900E-02 0.000E+00

     total cpu time spent up to now is    70945.8 secs

     total energy              =  -11682.10462300 Ry
     estimated scf accuracy    <       0.00000002 Ry

     iteration #248     ecut=    80.00 Ry     beta= 0.10
     Davidson diagonalization with overlap
     ethr =  8.59E-13,  avg # of iterations =  1.0

     negative rho (up, down):  5.900E-02 0.000E+00

     total cpu time spent up to now is    71228.8 secs

     total energy              =  -11682.10462300 Ry
     estimated scf accuracy    <       0.00000008 Ry

     iteration #249     ecut=    80.00 Ry     beta= 0.10
     Davidson diagonalization with overlap
     ethr =  8.59E-13,  avg # of iterations =  1.0

     negative rho (up, down):  5.900E-02 0.000E+00

     total cpu time spent up to now is    71511.6 secs

     total energy              =  -11682.10462299 Ry
     estimated scf accuracy    <       0.00000004 Ry

     iteration #250     ecut=    80.00 Ry     beta= 0.10
     Davidson diagonalization with overlap
     ethr =  8.59E-13,  avg # of iterations =  1.0

     negative rho (up, down):  5.900E-02 0.000E+00

     total cpu time spent up to now is    71794.6 secs

     total energy              =  -11682.10462299 Ry
     estimated scf accuracy    <       0.00000006 Ry

     iteration #251     ecut=    80.00 Ry     beta= 0.10
     Davidson diagonalization with overlap
     ethr =  8.59E-13,  avg # of iterations =  1.0

     negative rho (up, down):  5.900E-02 0.000E+00

     total cpu time spent up to now is    72078.4 secs

     total energy              =  -11682.10462299 Ry
     estimated scf accuracy    <       0.00000013 Ry

     iteration #252     ecut=    80.00 Ry     beta= 0.10
     Davidson diagonalization with overlap
     ethr =  8.59E-13,  avg # of iterations =  1.0

     negative rho (up, down):  5.900E-02 0.000E+00

     total cpu time spent up to now is    72361.9 secs

     total energy              =  -11682.10462299 Ry
     estimated scf accuracy    <       0.00000006 Ry

     iteration #253     ecut=    80.00 Ry     beta= 0.10
     Davidson diagonalization with overlap
     ethr =  8.59E-13,  avg # of iterations =  1.0

     negative rho (up, down):  5.901E-02 0.000E+00

     total cpu time spent up to now is    72644.1 secs

     total energy              =  -11682.10462300 Ry
     estimated scf accuracy    <       0.00000002 Ry

     iteration #254     ecut=    80.00 Ry     beta= 0.10
     Davidson diagonalization with overlap
     ethr =  8.59E-13,  avg # of iterations =  1.0

     negative rho (up, down):  5.901E-02 0.000E+00

     total cpu time spent up to now is    72926.8 secs

     total energy              =  -11682.10462300 Ry
     estimated scf accuracy    <       0.00000004 Ry

     iteration #255     ecut=    80.00 Ry     beta= 0.10
     Davidson diagonalization with overlap
     ethr =  8.59E-13,  avg # of iterations =  1.0

     negative rho (up, down):  5.901E-02 0.000E+00

     total cpu time spent up to now is    73209.8 secs

     total energy              =  -11682.10462300 Ry
     estimated scf accuracy    <       0.00000002 Ry

     iteration #256     ecut=    80.00 Ry     beta= 0.10
     Davidson diagonalization with overlap
     ethr =  8.59E-13,  avg # of iterations =  1.0

     negative rho (up, down):  5.901E-02 0.000E+00

     total cpu time spent up to now is    73493.4 secs

     total energy              =  -11682.10462299 Ry
     estimated scf accuracy    <       0.00000002 Ry

     iteration #257     ecut=    80.00 Ry     beta= 0.10
     Davidson diagonalization with overlap
     ethr =  8.59E-13,  avg # of iterations =  1.0

     negative rho (up, down):  5.901E-02 0.000E+00

     total cpu time spent up to now is    73776.6 secs

     End of self-consistent calculation

          k = 0.0000 0.0000 0.0000 (****** PWs)   bands (ev):

   -58.1502 -56.3671 -56.0247 -55.9971 -55.7713 -55.7561 -55.1936 -55.1463
   -54.9231 -54.6677 -54.0291 -30.0768 -30.0596 -30.0216 -28.3179 -28.2752
   -28.2339 -27.9580 -27.9504 -27.9337 -27.9152 -27.9105 -27.8922 -27.7238
   -27.7043 -27.6768 -27.6580 -27.6394 -27.6295 -27.2952 -27.1644 -27.1043
   -27.0988 -27.0696 -27.0384 -27.0179 -26.9156 -26.8640 -26.8234 -26.6441
   -26.6054 -26.5502 -26.4185 -26.2919 -26.0354 -25.9798 -25.9519 -25.9340
   -25.9321 -25.9213 -25.7859 -25.7421 -25.7229 -25.7157 -25.6174 -25.5306
   -25.4617 -25.4008 -25.3519 -25.2948 -25.2741 -25.2201 -25.1957 -25.1784
   -25.1658 -25.1591 -25.1100 -25.0704 -25.0618 -25.0498 -25.0150 -25.0138
   -24.9636 -24.9499 -24.9214 -24.8980 -24.8719 -24.8329 -24.8086 -24.7909
   -24.7731 -24.7693 -24.7357 -24.7144 -24.6994 -24.6752 -24.6518 -24.6184
   -24.6049 -24.5698 -24.5659 -24.5415 -24.5277 -24.5012 -24.4900 -24.4684
   -24.4553 -24.4290 -24.4222 -24.4085 -24.3809 -24.3748 -24.3482 -24.3372
   -24.3155 -24.2893 -24.2691 -24.2610 -24.2448 -24.2255 -24.2112 -24.1848
   -24.1534 -24.1392 -24.1264 -24.1048 -24.0886 -24.0622 -24.0333 -24.0299
   -23.9764 -23.9555 -23.9521 -23.9361 -23.9195 -23.9039 -23.8947 -23.8822
   -23.8677 -23.8620 -23.8552 -23.8474 -23.8392 -23.8289 -23.7995 -23.7855
   -23.7714 -23.7649 -23.7521 -23.7252 -23.7200 -23.7064 -23.6876 -23.6780
   -23.6666 -23.6544 -23.6372 -23.6054 -23.5796 -23.5694 -23.5523 -23.5500
   -23.5225 -23.5084 -23.5044 -23.4714 -23.4646 -23.4546 -23.4424 -23.4238
   -23.4134 -23.3834 -23.3756 -23.3580 -23.3484 -23.3191 -23.3101 -23.2885
   -23.2879 -23.2636 -23.2519 -23.2439 -23.2251 -23.2156 -23.2145 -23.1990
   -23.1816 -23.1732 -23.1585 -23.1211 -23.0932 -23.0733 -23.0688 -23.0528
   -23.0451 -23.0222 -23.0090 -22.9962 -22.9907 -22.9634 -22.9558 -22.9378
   -22.9302 -22.9122 -22.8760 -22.8700 -22.8660 -22.8598 -22.8292 -22.8238
   -22.8028 -22.7256 -22.6928 -22.6817 -22.6387 -22.6154 -22.5673 -22.5578
   -22.5520 -22.5479 -22.5440 -22.4889 -22.4276 -22.4072 -22.4012 -22.3815
   -22.3708 -22.3356 -22.2752 -22.1923 -22.1477 -22.1390 -22.0967 -22.0002
   -21.8128 -21.7432 -21.7390 -21.7175 -21.6690 -21.6160 -21.5940 -21.5563
   -21.4940 -21.4696 -20.8042 -20.7590 -20.7258 -20.7167 -20.7148 -20.6883
   -20.6858 -20.6337 -20.6300 -20.5245 -20.5238 -20.3268 -20.2435 -20.2361
   -20.1762 -19.9912 -19.8976 -19.8953 -19.8932 -19.8807 -19.8760 -19.8752
   -19.8716 -19.8453 -19.8372 -19.8297 -19.7654 -19.0598 -18.6860 -17.8370
   -17.0838 -16.2845 -15.5124 -15.3728 -15.3109 -15.2397 -15.1311 -15.0511
   -15.0160 -14.9475 -14.9124 -14.8688 -14.8190 -14.7514 -14.7429 -14.6927
   -14.6674 -14.5813 -14.5033 -14.4467 -14.3728 -14.3438 -14.2909 -14.2603
   -14.1918 -14.1738 -14.1682 -14.1192 -14.0818 -14.0654 -14.0399 -13.9765
   -13.9568 -13.9118 -13.9059 -13.8496 -13.8211 -13.7665 -13.6981 -13.6842
   -13.6555 -13.6069 -13.6019 -13.5836 -13.5349 -13.4837 -13.4593 -13.4484
   -13.4039 -13.3794 -13.3730 -13.3140 -13.2910 -13.2500 -13.2424 -13.2136
   -13.1700 -13.1529 -13.1241 -13.0886 -13.0673 -13.0455 -13.0109 -12.9878
   -12.9630 -12.9350 -12.8962 -12.8854 -12.8294 -12.8103 -12.7885 -12.7110
   -12.7001 -12.6802 -12.6436 -12.6025 -12.5756 -12.5360 -12.5215 -12.4882
   -12.4785 -12.4604 -12.4512 -12.3902 -12.3721 -12.3273 -12.3073 -12.2871
   -12.2461 -12.2025 -12.1829 -12.1605 -12.1388 -12.1092 -12.0772 -12.0486
   -12.0272 -12.0139 -11.9880 -11.9693 -11.9457 -11.9102 -11.9024 -11.8672
   -11.8628 -11.8536 -11.8072 -11.7957 -11.7632 -11.7588 -11.7433 -11.7278
   -11.7058 -11.6967 -11.6786 -11.6557 -11.6425 -11.6249 -11.6208 -11.6045
   -11.5850 -11.5738 -11.5461 -11.5354 -11.5317 -11.4931 -11.4718 -11.4559
   -11.4348 -11.4260 -11.4094 -11.3761 -11.3574 -11.3360 -11.3334 -11.3264
   -11.3041 -11.2996 -11.2807 -11.2594 -11.2448 -11.2302 -11.2267 -11.2014
   -11.1518 -11.1478 -11.1227 -11.1111 -11.0881 -11.0616 -11.0549 -11.0413
   -11.0403 -11.0370 -11.0167 -11.0125 -10.9909 -10.9836 -10.9721 -10.9410
   -10.9384 -10.9007 -10.8799 -10.8701 -10.8537 -10.8505 -10.8222 -10.8139
   -10.7753 -10.7521 -10.7435 -10.7244 -10.7082 -10.7003 -10.6792 -10.6506
   -10.6356 -10.6223 -10.5914 -10.5511 -10.5396 -10.4938 -10.4717 -10.4568
   -10.4432 -10.3943 -10.3726 -10.3673 -10.3424 -10.3248 -10.2716 -10.2363
   -10.2332 -10.2084 -10.1913 -10.1510 -10.1312 -10.0725 -10.0587 -10.0356
   -10.0210  -9.9961  -9.9754  -9.9599  -9.9459  -9.9243  -9.8996  -9.8826
    -9.8280  -9.8090  -9.7522  -9.7477  -9.7299  -9.6993  -9.6901  -9.6735
    -9.6564  -9.6451  -9.6265  -9.6178  -9.5806  -9.5592  -9.5338  -9.5250
    -9.5214  -9.4992  -9.4964  -9.4856  -9.4853  -9.4726  -9.4644  -9.4513
    -9.4083  -9.3922  -9.3845  -9.3510  -9.3394  -9.3312  -9.3082  -9.3025
    -9.2829  -9.2691  -9.2392  -9.2200  -9.2037  -9.1799  -9.1768  -9.1374
    -9.1297  -9.1037  -9.0738  -9.0710  -9.0426  -9.0262  -9.0178  -9.0092
    -8.9995  -8.9845  -8.9663  -8.9445  -8.9328  -8.9239  -8.8992  -8.8965
    -8.8842  -8.8702  -8.8612  -8.8462  -8.8263  -8.8216  -8.8166  -8.8036
    -8.8000  -8.7833  -8.7545  -8.7479  -8.7360  -8.7325  -8.7316  -8.7300
    -8.7129  -8.7010  -8.6943  -8.6751  -8.6718  -8.6614  -8.6510  -8.6345
    -8.6245  -8.6183  -8.6046  -8.5934  -8.5787  -8.5566  -8.5521  -8.5468
    -8.5346  -8.5278  -8.5220  -8.5079  -8.4945  -8.4886  -8.4729  -8.4650
    -8.4584  -8.4463  -8.4302  -8.4271  -8.4243  -8.4099  -8.3979  -8.3834
    -8.3771  -8.3648  -8.3545  -8.3382  -8.3329  -8.3247  -8.3071  -8.3026
    -8.3014  -8.2897  -8.2699  -8.2515  -8.2443  -8.2326  -8.2252  -8.2102
    -8.1990  -8.1964  -8.1895  -8.1809  -8.1776  -8.1665  -8.1576  -8.1494
    -8.1418  -8.1201  -8.1110  -8.1048  -8.1010  -8.0781  -8.0734  -8.0696
    -8.0466  -8.0428  -8.0302  -8.0193  -8.0122  -8.0003  -7.9960  -7.9840
    -7.9830  -7.9675  -7.9617  -7.9528  -7.9389  -7.9347  -7.9244  -7.9108
    -7.9073  -7.9009  -7.8946  -7.8791  -7.8772  -7.8635  -7.8551  -7.8412
    -7.8342  -7.8336  -7.8143  -7.8074  -7.8021  -7.7877  -7.7830  -7.7748
    -7.7599  -7.7574  -7.7457  -7.7348  -7.7330  -7.7147  -7.7122  -7.6991
    -7.6970  -7.6736  -7.6664  -7.6619  -7.6545  -7.6432  -7.6291  -7.6275
    -7.6116  -7.6071  -7.6019  -7.5866  -7.5798  -7.5740  -7.5683  -7.5618
    -7.5462  -7.5392  -7.5332  -7.5246  -7.5190  -7.4892  -7.4753  -7.4606
    -7.4539  -7.4516  -7.4469  -7.4358  -7.4234  -7.4167  -7.4081  -7.3928
    -7.3853  -7.3721  -7.3646  -7.3487  -7.3455  -7.3435  -7.3348  -7.3242
    -7.3137  -7.3011  -7.2910  -7.2806  -7.2740  -7.2553  -7.2454  -7.2373
    -7.2249  -7.2211  -7.2093  -7.1999  -7.1888  -7.1817  -7.1693  -7.1656
    -7.1550  -7.1504  -7.1424  -7.1266  -7.1187  -7.1135  -7.0982  -7.0845
    -7.0674  -7.0593  -7.0486  -7.0361  -7.0252  -7.0150  -7.0059  -7.0022
    -6.9904  -6.9872  -6.9695  -6.9521  -6.9448  -6.9379  -6.9266  -6.9161
    -6.9047  -6.8958  -6.8843  -6.8777  -6.8665  -6.8571  -6.8475  -6.8422
    -6.8350  -6.8208  -6.8131  -6.7984  -6.7876  -6.7828  -6.7775  -6.7685
    -6.7587  -6.7513  -6.7508  -6.7444  -6.7159  -6.7144  -6.6937  -6.6754
    -6.6676  -6.6535  -6.6529  -6.6470  -6.6418  -6.6304  -6.6293  -6.6144
    -6.6099  -6.5968  -6.5931  -6.5815  -6.5676  -6.5629  -6.5494  -6.5407
    -6.5349  -6.5179  -6.5116  -6.5081  -6.4899  -6.4812  -6.4669  -6.4588
    -6.4436  -6.4409  -6.4273  -6.4147  -6.4080  -6.3999  -6.3852  -6.3807
    -6.3730  -6.3546  -6.3418  -6.3382  -6.3270  -6.3059  -6.3031  -6.2689
    -6.2582  -6.2443  -6.2376  -6.2236  -6.2182  -6.1973  -6.1938  -6.1723
    -6.1543  -6.1487  -6.1341  -6.1176  -6.1118  -6.1011  -6.0978  -6.0860
    -6.0786  -6.0686  -6.0471  -6.0401  -6.0286  -6.0085  -6.0058  -5.9998
    -5.9895  -5.9719  -5.9586  -5.9430  -5.9371  -5.9287  -5.9081  -5.8923
    -5.8859  -5.8817  -5.8778  -5.8627  -5.8478  -5.8443  -5.8375  -5.8138
    -5.8098  -5.7910  -5.7827  -5.7696  -5.7618  -5.7475  -5.7350  -5.7279
    -5.7070  -5.6792  -5.6582  -5.6413  -5.6269  -5.6165  -5.6080  -5.5986
    -5.5745  -5.5625  -5.5499  -5.5383  -5.5045  -5.5012  -5.4965  -5.4945
    -5.4858  -5.4757  -5.4358  -5.4282  -5.4115  -5.3881  -5.3876  -5.3778
    -5.3328  -5.3159  -5.2989  -5.2723  -5.2256  -5.2208  -5.2148  -5.1913
    -5.1656  -5.1317  -5.0286  -5.0141  -5.0005  -4.9943  -4.9884  -4.9763
    -4.9283  -4.9228  -4.8842  -4.8753  -4.8459  -4.8255  -4.7712  -4.7665
    -4.7481  -4.6696  -4.6411  -4.6201  -4.6170  -4.6074  -4.6017  -4.5892
    -4.5066  -4.4135  -4.3678  -4.3664  -4.3092  -4.2728  -4.2057  -4.2010
    -4.1936  -4.1834  -4.1707  -4.1372  -4.1170  -4.0974  -4.0817  -4.0728
    -4.0634  -4.0589  -4.0464  -4.0129  -4.0097  -4.0038  -3.9990  -3.9950
    -3.9884  -3.9794  -3.9742  -3.9659  -3.9619  -3.9585  -3.9508  -3.9479
    -3.9440  -3.9392  -3.9242  -3.9095  -3.9047  -3.8965  -3.8868  -3.8828
    -3.8736  -3.8734  -3.8393  -3.8303  -3.8115  -3.7936  -3.7926  -3.7799
    -3.6975  -3.6143  -3.5494  -3.5016  -3.4822  -3.4431  -3.3424  -3.2714
    -2.8889  -2.7906  -2.3924  -2.1615  -1.7391  -0.8042  -0.7824  -0.6419
    -0.5854  -0.5674  -0.4355  -0.4056  -0.3285  -0.2736  -0.1926  -0.1717
    -0.1203  -0.0139   0.0879   0.1541   0.2295   0.3031   0.3672   0.4626
     0.5166   0.5502   0.5755   0.6079   0.6602   0.7173   0.7666   0.7774
     0.8165   0.8590   0.8948   0.9218   0.9538   0.9783   0.9865   1.0467
     1.0524   1.0803   1.1215   1.1300   1.1868   1.1984   1.2101   1.2338
     1.2587   1.2739   1.2975   1.3176   1.3378   1.3466   1.3605   1.3825
     1.4088   1.4609   1.4666   1.4896   1.5134   1.5322   1.5696   1.5844
     1.5944   1.6200   1.6335   1.6409   1.6714   1.6773   1.7074   1.7248
     1.7398   1.7590   1.7796   1.7998   1.8097   1.8296   1.8539   1.8775
     1.8812   1.8962   1.9161   1.9329   1.9537   1.9663   1.9758   2.0051
     2.0129   2.0209   2.0370   2.0409   2.0536   2.0567   2.0684   2.0761
     2.0880   2.1161   2.1328   2.1497   2.1598   2.1681   2.1830   2.1918
     2.2135   2.2179   2.2280   2.2303   2.2636   2.2713   2.2894   2.3118
     2.3218   2.3327   2.3477   2.3676   2.3784   2.3867   2.3982   2.4052
     2.4142   2.4243   2.4358   2.4526   2.4611   2.4691   2.4746   2.4921
     2.4967   2.5126   2.5169   2.5199   2.5439   2.5507   2.5620   2.5675
     2.5807   2.5960   2.5971   2.6021   2.6150   2.6174   2.6266   2.6282
     2.6399   2.6438   2.6513   2.6675   2.6808   2.6818   2.6867   2.7003
     2.7052   2.7185   2.7333   2.7394   2.7465   2.7600   2.7662   2.7750
     2.7846   2.7995   2.8080   2.8111   2.8232   2.8287   2.8354   2.8424
     2.8508   2.8592   2.8744

     the Fermi energy is    -3.8480 ev

!    total energy              =  -11682.10462298 Ry
     estimated scf accuracy    <          6.9E-09 Ry
     smearing contrib. (-TS)   =      -0.11097917 Ry
     internal energy E=F+TS    =  -11681.99364381 Ry

     The total energy is F=E-TS. E is the sum of the following terms:
     one-electron contribution = -364613.95415754 Ry
     hartree contribution      =  182758.88070579 Ry
     xc contribution           =   -2470.89588935 Ry
     ewald contribution        =  175003.68068077 Ry
     one-center paw contrib.   =   -2359.70498348 Ry

     convergence has been achieved in 257 iterations

     negative rho (up, down):  5.901E-02 0.000E+00

     Forces acting on atoms (cartesian axes, Ry/au):

     atom    1 type  1   force =     0.01199524    0.01350909    0.05506161
     atom    2 type  1   force =     0.02829939    0.02473431   -0.00011326
     atom    3 type  1   force =     0.00760027    0.00108358   -0.00347667
     atom    4 type  1   force =    -0.01245740   -0.01522753   -0.01030923
     atom    5 type  1   force =     0.01479708   -0.02244920   -0.02704031
     atom    6 type  1   force =     0.00349702   -0.00150011    0.00477653
     atom    7 type  1   force =    -0.00851197    0.01188609    0.01212957
     atom    8 type  1   force =    -0.01215241   -0.03111799    0.00345271
     atom    9 type  1   force =    -0.00149600    0.00641507    0.01348536
     atom   10 type  1   force =     0.01823251   -0.00179927    0.01769280
     atom   11 type  1   force =    -0.01120530   -0.00522835   -0.01230569
     atom   12 type  2   force =     0.00696594    0.12282991   -0.04037225
     atom   13 type  2   force =     0.13681475    0.10056579   -0.00111493
     atom   14 type  2   force =     0.08062350    0.03194095   -0.06289548
     atom   15 type  2   force =     0.14701083   -0.03951410   -0.15272695
     atom   16 type  2   force =     0.02148222    0.03841115    0.04012805
     atom   17 type  2   force =     0.15427844    0.01508131    0.25446427
     atom   18 type  2   force =    -0.01247827   -0.04664223   -0.04945559
     atom   19 type  2   force =    -0.01070176    0.03864380   -0.10068525
     atom   20 type  2   force =    -0.02585983   -0.01329446   -0.04178726
     atom   21 type  2   force =    -0.05465484    0.13496522   -0.03938632
     atom   22 type  2   force =     0.03558016   -0.13293252    0.09238864
     atom   23 type  2   force =    -0.03933894   -0.06824615   -0.05871008
     atom   24 type  2   force =     0.03247593    0.02647389    0.01012956
     atom   25 type  2   force =     0.06550878    0.00680398    0.07210580
     atom   26 type  2   force =    -0.01640702   -0.00954826   -0.01104542
     atom   27 type  2   force =     0.04182592    0.11795564   -0.07344665
     atom   28 type  2   force =    -0.00193531   -0.05840509   -0.01136585
     atom   29 type  2   force =    -0.03140490   -0.05047666    0.08153451
     atom   30 type  2   force =     0.03232850   -0.03167438   -0.03952622
     atom   31 type  2   force =     0.03575648    0.02200527    0.00225241
     atom   32 type  2   force =    -0.00990844   -0.06580565    0.08801564
     atom   33 type  2   force =    -0.05573518    0.01800915   -0.05539130
     atom   34 type  2   force =     0.06104698   -0.02693388   -0.02229782
     atom   35 type  3   force =    -0.01331399   -0.07802137    0.00316750
     atom   36 type  3   force =    -0.16444165    0.08798750   -0.04859566
     atom   37 type  3   force =    -0.06763551    0.03586872   -0.01401091
     atom   38 type  3   force =    -0.05433153   -0.00011305   -0.00932906
     atom   39 type  3   force =     0.07404605    0.00716273    0.01037015
     atom   40 type  3   force =     0.08667616    0.02283541   -0.04332550
     atom   41 type  3   force =    -0.10900508   -0.09029789   -0.13255840
     atom   42 type  3   force =     0.01186298   -0.06042945    0.06468166
     atom   43 type  3   force =     0.01844337   -0.02227712   -0.04846464
     atom   44 type  3   force =     0.06109001    0.10575730    0.04122968
     atom   45 type  3   force =    -0.03240182   -0.00090922   -0.03153372
     atom   46 type  3   force =    -0.03634372    0.12449593    0.05981139
     atom   47 type  3   force =    -0.05594764    0.00756713   -0.14730226
     atom   48 type  3   force =    -0.02875710   -0.12205246   -0.13758091
     atom   49 type  3   force =     0.06188942    0.18235522    0.05228303
     atom   50 type  3   force =     0.04378456   -0.02204281   -0.09766478
     atom   51 type  3   force =    -0.01915516    0.04788181    0.07063121
     atom   52 type  3   force =    -0.12114793   -0.10574103    0.11944774
     atom   53 type  3   force =    -0.12316977   -0.10992922   -0.05464582
     atom   54 type  3   force =    -0.03653137   -0.02308091    0.10032196
     atom   55 type  3   force =    -0.14984939    0.03087162    0.03098186
     atom   56 type  3   force =    -0.02262748    0.01122647    0.12158160
     atom   57 type  3   force =     0.00706122   -0.09506466   -0.04893652
     atom   58 type  3   force =     0.06102567   -0.00844516    0.04777552
     atom   59 type  3   force =    -0.03557458   -0.01076474    0.03898615
     atom   60 type  3   force =     0.07904065   -0.07455153   -0.00355213
     atom   61 type  3   force =     0.01543239    0.19122924    0.03558252
     atom   62 type  3   force =    -0.01925687   -0.01656267   -0.00614532
     atom   63 type  3   force =     0.01625513    0.01189455   -0.00636402
     atom   64 type  3   force =     0.00300432    0.05905521    0.08279356
     atom   65 type  3   force =    -0.00791286    0.02316313    0.02020639
     atom   66 type  3   force =    -0.01590438    0.00338740   -0.01872426
     atom   67 type  3   force =     0.03153015    0.00059267    0.10193815
     atom   68 type  3   force =    -0.06482739   -0.03465850    0.07981564
     atom   69 type  3   force =     0.04496230    0.03724345    0.03187110
     atom   70 type  3   force =    -0.05034580   -0.06710797   -0.05576902
     atom   71 type  3   force =     0.04846638   -0.03741931    0.05251010
     atom   72 type  3   force =     0.01423752    0.11139501    0.19923902
     atom   73 type  3   force =    -0.07868891    0.05105187   -0.07639628
     atom   74 type  3   force =     0.00534429   -0.06455909   -0.04795114
     atom   75 type  3   force =    -0.06311605    0.00863502   -0.00229350
     atom   76 type  3   force =     0.04453261   -0.10614576   -0.06057274
     atom   77 type  3   force =    -0.03079216    0.07740482    0.03347692
     atom   78 type  3   force =    -0.09862798   -0.02063394   -0.06888394
     atom   79 type  3   force =    -0.00398042   -0.04279890    0.03498079
     atom   80 type  3   force =    -0.03155344    0.03986235   -0.00620835
     atom   81 type  3   force =     0.03052640    0.01864585   -0.03975431
     atom   82 type  3   force =    -0.04201958    0.01743304   -0.05418591
     atom   83 type  3   force =    -0.05123049    0.09450947    0.02438477
     atom   84 type  3   force =    -0.02490249    0.04023032   -0.04041887
     atom   85 type  3   force =    -0.01126783   -0.09864556    0.07704301
     atom   86 type  3   force =    -0.02854712   -0.07921410   -0.10455404
     atom   87 type  3   force =     0.02217040   -0.00715159   -0.06809732
     atom   88 type  3   force =    -0.00062814    0.05375265   -0.11882304
     atom   89 type  3   force =    -0.04870535   -0.02050897    0.06482853
     atom   90 type  3   force =     0.05368941   -0.04773940   -0.04652751
     atom   91 type  3   force =     0.06646165    0.04065669   -0.01538859
     atom   92 type  3   force =    -0.00908956   -0.00582518   -0.02088792
     atom   93 type  3   force =    -0.08709365   -0.10490574   -0.00534676
     atom   94 type  3   force =     0.07176540    0.08987521    0.05022591
     atom   95 type  3   force =    -0.01085916   -0.01076343   -0.06890894
     atom   96 type  3   force =    -0.09370311   -0.01180547    0.15325951
     atom   97 type  3   force =    -0.02818613   -0.04657598   -0.00175030
     atom   98 type  3   force =     0.10435679    0.01082406    0.09550288
     atom   99 type  3   force =    -0.05541219   -0.00677585    0.03651330
     atom  100 type  3   force =     0.02258660   -0.07807281    0.07966155
     atom  101 type  3   force =    -0.06015372    0.02731863   -0.01091105
     atom  102 type  3   force =     0.03020146    0.01707988    0.03127566
     atom  103 type  3   force =     0.04697311    0.03112664    0.09744996
     atom  104 type  3   force =    -0.08244197   -0.07742213   -0.00516998
     atom  105 type  3   force =     0.02909437    0.05417362   -0.00658208
     atom  106 type  3   force =     0.03828746    0.11429415   -0.01546231
     atom  107 type  3   force =    -0.02837654   -0.00300997    0.02822636
     atom  108 type  3   force =     0.04674327   -0.01027750    0.04571677
     atom  109 type  3   force =     0.10906342    0.02061636   -0.03996107
     atom  110 type  3   force =     0.13934609    0.00801653   -0.06093177
     atom  111 type  3   force =    -0.02035629   -0.01790042    0.01777626
     atom  112 type  3   force =    -0.06696790    0.09518686   -0.01068082
     atom  113 type  3   force =     0.02128601   -0.01983063   -0.05616299
     atom  114 type  3   force =    -0.03897742    0.02175273    0.08107888
     atom  115 type  3   force =     0.01333597   -0.02841239    0.07658857
     atom  116 type  3   force =     0.08473926    0.00791309   -0.04835155
     atom  117 type  3   force =    -0.06882694    0.00329544    0.03777841
     atom  118 type  3   force =    -0.11812004    0.11160449    0.02568582
     atom  119 type  3   force =     0.07046248   -0.00672761    0.03244874
     atom  120 type  3   force =     0.00918489    0.02808290    0.10531313
     atom  121 type  3   force =     0.12994767    0.07611221    0.01651090
     atom  122 type  4   force =     0.03930154    0.01292404    0.02858091
     atom  123 type  4   force =    -0.06150323   -0.04009129   -0.00948251
     atom  124 type  4   force =     0.00360904    0.02432482   -0.04631768
     atom  125 type  4   force =     0.01813487   -0.00579146   -0.00430584
     atom  126 type  4   force =    -0.13136518   -0.14924274   -0.01140507
     atom  127 type  4   force =    -0.09950828   -0.12885854   -0.07374171
     atom  128 type  4   force =     0.01054761   -0.04946046    0.05951766
     atom  129 type  4   force =     0.00880029   -0.06144476   -0.01156197
     atom  130 type  4   force =     0.00890316   -0.02172713    0.00935606
     atom  131 type  4   force =     0.00672823   -0.01824926   -0.01304015
     atom  132 type  4   force =     0.04931767   -0.03836508   -0.01677493
     atom  133 type  4   force =    -0.03659087   -0.05918384    0.03629772
     atom  134 type  4   force =    -0.09349454    0.00757463   -0.04010496
     atom  135 type  4   force =     0.02241082   -0.02688434    0.12452715
     atom  136 type  4   force =     0.01794682   -0.01015396   -0.01839695
     atom  137 type  4   force =     0.05383876    0.04126707   -0.03420692
     atom  138 type  4   force =     0.01576161    0.00198719   -0.01532325
     atom  139 type  4   force =    -0.00674632    0.02803481   -0.02078572
     atom  140 type  4   force =     0.02154380   -0.06866715    0.02200579
     atom  141 type  4   force =     0.05844899   -0.01197407    0.00211766
     atom  142 type  4   force =    -0.10497217   -0.05310190    0.04674891
     atom  143 type  4   force =    -0.15048261   -0.03715247   -0.09755465
     atom  144 type  4   force =    -0.00562854   -0.01755249    0.02992548
     atom  145 type  4   force =    -0.04010557    0.03666778    0.01599330
     atom  146 type  4   force =    -0.02192518    0.01688436   -0.02251207
     atom  147 type  4   force =    -0.13171913   -0.04974841    0.03207215
     atom  148 type  4   force =     0.01368810   -0.02071542   -0.01296939
     atom  149 type  4   force =     0.06869603    0.03542981    0.01729068
     atom  150 type  4   force =    -0.06352588   -0.05298882   -0.02003542
     atom  151 type  4   force =     0.05092410    0.03694976    0.02446753
     atom  152 type  4   force =    -0.05808007    0.02464392    0.01510346
     atom  153 type  4   force =     0.07627885    0.01869439    0.07641336
     atom  154 type  4   force =    -0.09645714    0.00591256    0.00664934
     atom  155 type  4   force =    -0.01244978   -0.01454159   -0.00925207
     atom  156 type  4   force =    -0.05024360    0.04124161   -0.02248952
     atom  157 type  4   force =     0.04244838   -0.01055484   -0.00374243
     atom  158 type  4   force =     0.01334713    0.01209251   -0.02431232
     atom  159 type  4   force =     0.06700813    0.00748147   -0.05884384
     atom  160 type  4   force =     0.03929842   -0.08922602    0.01382370
     atom  161 type  4   force =     0.00300342   -0.02877403    0.07140619
     atom  162 type  4   force =     0.05271787    0.09512554    0.01490944
     atom  163 type  4   force =    -0.01543996    0.05817414   -0.01561823
     atom  164 type  4   force =     0.02452051    0.02904006    0.06696827
     atom  165 type  4   force =    -0.07481677    0.00936354    0.04935407
     atom  166 type  4   force =    -0.00155627   -0.10196958    0.00500803
     atom  167 type  4   force =    -0.03917815   -0.04008261   -0.01523299
     atom  168 type  4   force =     0.01689031   -0.18430511    0.05838635
     atom  169 type  4   force =     0.05231885    0.04495612   -0.09520421
     atom  170 type  4   force =     0.02789464   -0.04777169   -0.03584184
     atom  171 type  4   force =     0.01258326   -0.01692211    0.00344413
     atom  172 type  4   force =    -0.07005665    0.01228151   -0.04397437
     atom  173 type  4   force =    -0.03891414    0.00705316   -0.02550195
     atom  174 type  4   force =     0.05690092    0.08617395    0.01852505
     atom  175 type  4   force =     0.01310942    0.04179891    0.00303783
     atom  176 type  4   force =     0.03803912   -0.00537773    0.02575408
     atom  177 type  4   force =     0.06436101   -0.00474042   -0.00862476
     atom  178 type  4   force =    -0.00356301    0.03680164    0.04531317
     atom  179 type  4   force =    -0.01188046    0.02841659    0.00297064
     atom  180 type  4   force =    -0.05734663    0.00564208   -0.00722339
     atom  181 type  4   force =    -0.00000081   -0.00052959    0.09592089
     atom  182 type  4   force =    -0.02452901   -0.06135604    0.05014275
     atom  183 type  4   force =    -0.03307230    0.10665011   -0.05858662
     atom  184 type  4   force =     0.01826753   -0.01127126    0.05175808
     atom  185 type  4   force =     0.04934754   -0.03494059   -0.01726597
     atom  186 type  4   force =    -0.01141183   -0.01734076    0.00164781
     atom  187 type  4   force =    -0.02756285   -0.01186208    0.05025029
     atom  188 type  4   force =    -0.02038410   -0.01787333   -0.04716000
     atom  189 type  4   force =    -0.01988103    0.03539863   -0.00032783
     atom  190 type  4   force =     0.05860786   -0.03610939    0.00663808
     atom  191 type  4   force =    -0.01851256   -0.00335423   -0.00671544
     atom  192 type  4   force =    -0.03514497    0.02414544   -0.03100126
     atom  193 type  4   force =     0.03626361   -0.06461654    0.02161818
     atom  194 type  4   force =    -0.04962948    0.00127152   -0.00628934
     atom  195 type  4   force =    -0.01022228   -0.00653859    0.01842861
     atom  196 type  4   force =     0.00242965   -0.02551775   -0.06110281
     atom  197 type  4   force =     0.00927504    0.01571508   -0.00014141
     atom  198 type  4   force =    -0.03843004    0.04138564   -0.01355390
     atom  199 type  4   force =     0.00813664   -0.02588958    0.00624611
     atom  200 type  4   force =    -0.00958951   -0.03603726    0.05783330
     atom  201 type  4   force =    -0.01078531   -0.04759302   -0.02854635
     atom  202 type  4   force =     0.01619949    0.01501736    0.04153464
     atom  203 type  4   force =    -0.05688676   -0.05915231   -0.10309373
     atom  204 type  4   force =    -0.00238654    0.01815941    0.06243997
     atom  205 type  4   force =     0.01019321    0.07388501   -0.01371468
     atom  206 type  4   force =    -0.04069656   -0.03139886   -0.04467795
     atom  207 type  4   force =    -0.00466503   -0.03032855    0.03531411
     atom  208 type  4   force =    -0.00081658    0.01181018   -0.01006478
     atom  209 type  4   force =    -0.04446940    0.03169310   -0.05088605
     atom  210 type  4   force =    -0.01136344    0.01308112   -0.05118836
     atom  211 type  4   force =    -0.00048345   -0.03480528   -0.05646941
     atom  212 type  4   force =     0.04246594   -0.03952667   -0.03323682
     atom  213 type  4   force =     0.04284398   -0.14884230   -0.08362120
     atom  214 type  4   force =     0.05166945    0.06497969   -0.05762544
     atom  215 type  4   force =    -0.02678444   -0.02905425    0.00518792
     atom  216 type  4   force =    -0.02211617    0.07575999    0.04091194
     atom  217 type  4   force =    -0.02413776    0.03766246   -0.04189415
     atom  218 type  4   force =     0.01496232    0.02513148   -0.00789492
     atom  219 type  4   force =    -0.04401766   -0.04014376   -0.00919786
     atom  220 type  4   force =     0.01252321   -0.04160760    0.02308132
     atom  221 type  4   force =    -0.00426902    0.03038381    0.06498099
     atom  222 type  4   force =     0.10391304   -0.01656366    0.00584940
     atom  223 type  4   force =     0.02183097    0.08580871   -0.05094325
     atom  224 type  4   force =     0.03971304    0.02492727   -0.01339201
     atom  225 type  4   force =     0.06108028    0.04951415   -0.00338966
     atom  226 type  4   force =     0.02005776   -0.02508703    0.02080374
     atom  227 type  4   force =    -0.02257491    0.05200609    0.04176568
     atom  228 type  4   force =     0.00322291   -0.01709035   -0.02722971
     atom  229 type  4   force =     0.01370191    0.00003198    0.05414832
     atom  230 type  4   force =     0.05286502    0.04915239   -0.00147171
     atom  231 type  4   force =     0.04242688   -0.02099839    0.07127454
     atom  232 type  4   force =     0.04274619   -0.06426191   -0.00879755
     atom  233 type  4   force =     0.03888223    0.05820126    0.02902218
     atom  234 type  4   force =    -0.03304601   -0.05983966   -0.11439300
     atom  235 type  4   force =    -0.01907287    0.15897657   -0.01451323
     atom  236 type  4   force =     0.08808636   -0.01639158   -0.04575650
     atom  237 type  4   force =     0.00620039    0.00678433    0.01214037
     atom  238 type  4   force =    -0.01093626   -0.01289652    0.04262047
     atom  239 type  4   force =     0.01909854   -0.03604065    0.00735347
     atom  240 type  4   force =     0.07765106    0.03085645    0.02820858
     atom  241 type  4   force =     0.03139936   -0.01974291   -0.00500032
     atom  242 type  4   force =    -0.20433078   -0.02978380    0.07891006
     atom  243 type  4   force =     0.02974747    0.00104564    0.02042736
     atom  244 type  4   force =    -0.05117698   -0.00159005   -0.04531809
     atom  245 type  4   force =    -0.01912439   -0.02914563   -0.09481369
     atom  246 type  4   force =     0.02448910   -0.00895612   -0.03126956
     atom  247 type  4   force =    -0.00635731   -0.01715491   -0.06720238
     atom  248 type  4   force =    -0.01645536    0.03018239    0.05872789
     atom  249 type  4   force =     0.03809061    0.02613991   -0.06222380
     atom  250 type  4   force =    -0.08195152   -0.01671624    0.00421424
     atom  251 type  4   force =    -0.00777576   -0.00391782   -0.01948749
     atom  252 type  4   force =    -0.07088929    0.01901466   -0.05214233
     atom  253 type  4   force =     0.00125959   -0.04522518   -0.11037422
     atom  254 type  4   force =    -0.09102782    0.01338510   -0.01477054
     atom  255 type  4   force =     0.01623384   -0.01882302    0.02038597
     atom  256 type  4   force =     0.03194733   -0.00800456    0.03525111
     atom  257 type  4   force =     0.02693193   -0.02500832    0.03378945
     atom  258 type  4   force =     0.00067423    0.01269990   -0.02909555
     atom  259 type  4   force =     0.04802242    0.01503181   -0.00891272
     atom  260 type  4   force =    -0.04570108   -0.01159393   -0.06093756
     atom  261 type  4   force =     0.04154772    0.02785678   -0.03933325
     atom  262 type  4   force =    -0.05478777   -0.01076382    0.04593201
     atom  263 type  4   force =     0.09632973   -0.02623311    0.01764941
     atom  264 type  4   force =    -0.04573560    0.04262902   -0.02251381
     atom  265 type  4   force =     0.02500231    0.01555549   -0.03982465
     atom  266 type  4   force =     0.02701084    0.02036671   -0.04800230
     atom  267 type  4   force =     0.07739546   -0.00410221   -0.04255771
     atom  268 type  4   force =     0.02718980   -0.04396460   -0.03136759
     atom  269 type  4   force =    -0.01663282   -0.06671697    0.00511091
     atom  270 type  4   force =    -0.07175305   -0.01326881   -0.02964188
     atom  271 type  4   force =     0.06961256    0.01181009    0.00867648
     atom  272 type  4   force =     0.02760981    0.05490463   -0.01276814
     atom  273 type  4   force =     0.00244183   -0.00628413    0.04766418
     atom  274 type  4   force =    -0.02440359    0.00276115    0.02711085
     atom  275 type  4   force =    -0.01179626   -0.02054260    0.01816920
     atom  276 type  4   force =     0.04365436    0.07911773    0.06965513
     atom  277 type  4   force =     0.02661069   -0.01173315   -0.07657661
     atom  278 type  4   force =    -0.02163979    0.06300547    0.04433050
     atom  279 type  4   force =    -0.01201417   -0.02156187    0.00405737
     atom  280 type  4   force =    -0.02689881    0.05668817    0.00940719
     atom  281 type  4   force =     0.04153610    0.03160168    0.04327666
     atom  282 type  4   force =     0.03678728   -0.05140766    0.01537147
     atom  283 type  4   force =     0.00388464   -0.06518827   -0.03214257
     atom  284 type  4   force =     0.07177003   -0.05364782   -0.03052681
     atom  285 type  4   force =     0.01850514   -0.01659309    0.01459408
     atom  286 type  4   force =    -0.11831269   -0.02981700   -0.06917381
     atom  287 type  4   force =    -0.01600168   -0.00144583    0.04440764
     atom  288 type  4   force =     0.06708720   -0.00402025   -0.05574286
     atom  289 type  4   force =     0.02102613    0.09116010   -0.02695003
     atom  290 type  4   force =     0.10199744   -0.05837051   -0.11031897
     atom  291 type  4   force =    -0.03028261    0.01406572   -0.01560368
     atom  292 type  4   force =    -0.01963118   -0.01140418    0.01442856
     atom  293 type  4   force =    -0.00649175   -0.02628394   -0.04963024
     atom  294 type  4   force =     0.08007215   -0.02996257    0.16774169
     atom  295 type  4   force =    -0.05388101    0.06401735    0.06796795
     atom  296 type  4   force =    -0.05990329    0.01920995    0.03731387
     atom  297 type  4   force =    -0.01792001    0.01395140   -0.02438425
     atom  298 type  4   force =     0.01299612    0.01344396    0.01805604
     atom  299 type  4   force =    -0.06668980   -0.14466897   -0.02719312
     atom  300 type  4   force =    -0.01170280   -0.05289133   -0.03412521
     atom  301 type  4   force =    -0.07375554    0.03965756    0.02584765
     atom  302 type  4   force =     0.00579211    0.12646001    0.11048638
     atom  303 type  4   force =    -0.01421541   -0.02295892   -0.03987186
     atom  304 type  4   force =    -0.03900277   -0.00164221    0.01125904
     atom  305 type  4   force =    -0.03630225   -0.01653043    0.00696800
     atom  306 type  4   force =     0.00812226    0.01577260   -0.05869911
     atom  307 type  4   force =     0.02342349    0.02015861    0.04235477
     atom  308 type  4   force =     0.00975354    0.00088622   -0.05118813
     atom  309 type  4   force =     0.00197255   -0.02056845    0.01389484
     atom  310 type  4   force =     0.09237470   -0.00427338    0.11082957
     atom  311 type  4   force =    -0.03280327   -0.01344845    0.01140601
     atom  312 type  4   force =    -0.02337927    0.02160176    0.01457938
     atom  313 type  4   force =     0.01446890   -0.08752701    0.01935405
     atom  314 type  4   force =    -0.04557343    0.01302990   -0.02396976
     atom  315 type  4   force =    -0.01720970   -0.00381429   -0.02791776
     atom  316 type  4   force =    -0.00560269   -0.00390692    0.01814956
     atom  317 type  4   force =    -0.00159544    0.06903644    0.04015047
     atom  318 type  4   force =     0.04039566    0.00254297   -0.01762419
     atom  319 type  4   force =    -0.02971059   -0.01473242   -0.06109520
     atom  320 type  4   force =     0.04268767   -0.01855778   -0.02679349
     atom  321 type  4   force =    -0.02612248    0.12889388    0.03818892
     atom  322 type  4   force =     0.02391083    0.01095853   -0.06530593
     atom  323 type  4   force =     0.03521015   -0.03550817    0.04974340
     atom  324 type  4   force =     0.05183633    0.00480523   -0.02338369
     atom  325 type  4   force =     0.03439699   -0.02324640   -0.02835283
     atom  326 type  4   force =    -0.00823959    0.11665861    0.05597889
     atom  327 type  4   force =     0.04740800    0.04959781   -0.03981946
     atom  328 type  4   force =     0.02044696    0.00101064   -0.01989490
     atom  329 type  4   force =     0.10558058    0.01069100    0.01855064
     atom  330 type  4   force =     0.02363642   -0.03640775   -0.05435456
     atom  331 type  4   force =     0.03238738    0.04217305   -0.00806796
     atom  332 type  4   force =     0.02199431    0.05078644   -0.01242640
     atom  333 type  4   force =    -0.05390370   -0.05586254    0.02738399
     atom  334 type  4   force =     0.02372151    0.04555031   -0.02801475
     atom  335 type  4   force =     0.06795420    0.02174259   -0.02188375
     atom  336 type  4   force =    -0.03961333   -0.03104743   -0.04415823
     atom  337 type  4   force =    -0.00504024   -0.00463825   -0.02307029
     atom  338 type  4   force =    -0.05723795    0.04313587   -0.01902573
     atom  339 type  5   force =    -0.02047850    0.02372208    0.03467677
     atom  340 type  5   force =     0.00635399   -0.02889571    0.02847401
     atom  341 type  6   force =     0.02475640    0.00371369    0.00414242
     atom  342 type  6   force =    -0.02469308   -0.00363347   -0.00445235
     atom  343 type  6   force =     0.00291689   -0.04244210    0.00365741
     atom  344 type  6   force =     0.00770333   -0.04189737    0.00422243
     atom  345 type  6   force =    -0.00730164    0.04193350   -0.00438885
     atom  346 type  6   force =    -0.00358550    0.04236956   -0.00338801
     atom  347 type  6   force =     0.02932209    0.02294420    0.00407935
     atom  348 type  6   force =    -0.03411583    0.01395464   -0.00716175
     atom  349 type  6   force =     0.03408839   -0.01384737    0.00727645
     atom  350 type  6   force =    -0.02936619   -0.02311614   -0.00362747
     atom  351 type  7   force =     0.00298493    0.00581033    0.00005706
     atom  352 type  7   force =    -0.00419002    0.00474425   -0.00125449
     atom  353 type  7   force =     0.00414482   -0.00465021    0.00107733
     atom  354 type  7   force =    -0.00273610   -0.00574625   -0.00022585
     atom  355 type  7   force =     0.00384816   -0.00338274    0.00089344
     atom  356 type  7   force =    -0.00279829   -0.00424079   -0.00030246
     atom  357 type  7   force =     0.00294379    0.00421657    0.00030796
     atom  358 type  7   force =    -0.00378752    0.00323375   -0.00098980

     Total force =     1.686598     Total SCF correction =     0.000165


     Computing stress (Cartesian axis) and pressure


     negative rho (up, down):  5.901E-02 0.000E+00
          total   stress  (Ry/bohr**3)                   (kbar)     P=        7.98
   0.00005256   0.00000157  -0.00000259            7.73        0.23       -0.38
   0.00000157   0.00006096   0.00000341            0.23        8.97        0.50
  -0.00000259   0.00000341   0.00004926           -0.38        0.50        7.25


     Writing all to output data dir ./outputs/pwscf.save/ :
     XML data file, charge density, pseudopotentials, collected wavefunctions
 
     init_run     :    145.36s CPU    148.67s WALL (       1 calls)
     electrons    :  72350.80s CPU  73630.09s WALL (       1 calls)
     forces       :     92.77s CPU     95.74s WALL (       1 calls)
     stress       :    350.44s CPU    355.36s WALL (       1 calls)

     Called by init_run:
     wfcinit      :    129.49s CPU    131.50s WALL (       1 calls)
     potinit      :      1.18s CPU      1.28s WALL (       1 calls)
     hinit0       :      1.42s CPU      1.47s WALL (       1 calls)

     Called by electrons:
     c_bands      :  60480.17s CPU  61207.97s WALL (     257 calls)
     sum_band     :  10667.75s CPU  10976.17s WALL (     257 calls)
     v_of_rho     :    113.93s CPU    120.14s WALL (     258 calls)
     newd         :    864.41s CPU   1095.65s WALL (     258 calls)
     PAW_pot      :    145.66s CPU    146.66s WALL (     258 calls)
     mix_rho      :     64.05s CPU     66.95s WALL (     257 calls)

     Called by c_bands:
     init_us_2    :    565.63s CPU    574.15s WALL (     516 calls)
     cegterg      :  59716.80s CPU  60432.46s WALL (     257 calls)

     Called by *egterg:
     cdiaghg      :    854.48s CPU    865.03s WALL (     557 calls)
     h_psi        :  33300.68s CPU  33648.86s WALL (     558 calls)
     s_psi        :   9931.34s CPU  10014.41s WALL (     558 calls)
     g_psi        :     40.92s CPU     41.48s WALL (     300 calls)

     Called by h_psi:
     h_psi:calbec :   9955.36s CPU  10023.11s WALL (     558 calls)
     vloc_psi     :  13346.12s CPU  13486.63s WALL (     558 calls)
                                        0.00s GPU  (     558 calls)
     add_vuspsi   :   9935.44s CPU  10014.26s WALL (     558 calls)

     General routines
     calbec       :  15221.99s CPU  15325.60s WALL (     832 calls)
     fft          :    114.06s CPU    122.41s WALL (    3377 calls)
     ffts         :      9.97s CPU     10.75s WALL (     515 calls)
     fftw         :  13034.65s CPU  13158.87s WALL ( 1450899 calls)
     interpolate  :     13.95s CPU     14.89s WALL (     258 calls)
 
     Parallel routines
 
     PWSCF        :     20h16m CPU     20h38m WALL

 
   This run was terminated on:   7:29:25   6Mar2026            

=------------------------------------------------------------------------------=
   JOB DONE.
=------------------------------------------------------------------------------=
