Glass Wafer Phenanthrene Adsorption Energy Experiment
1.0
       14.7448987961         0.0000000000         0.0000000000
       -7.3724493980        12.7694569336         0.0000000000
        0.0000000000         0.0000000000        20.4313011169
   Si    O    C    H
   27   54   14   10
Cartesian
     1.305141252         6.252400334         1.000000000
    -1.152341878         6.517056600         1.000000000
    -3.609825016        10.773542253         1.000000000
     6.220107512         2.260570959         1.000000000
     3.762624382         6.517056600         1.000000000
     1.305141245        10.773542253         1.000000000
    11.135073788         2.260570959         1.000000000
     8.677590657         6.517056600         1.000000000
     6.220107520        10.773542253         1.000000000
    -1.152341878         1.995914681         4.620867429
    -3.609825016         6.252400334         4.620867429
    -6.067308146        10.508885974         4.620867429
     3.762624382         1.995914681         4.620867429
     1.305141245         6.252400334         4.620867429
    -1.152341886        10.508885974         4.620867429
     8.677590657         1.995914681         4.620867429
     6.220107520         6.252400334         4.620867429
     3.762624389        10.508885974         4.620867429
     2.304683757         0.000000000         2.810433688
    -0.152799374         4.256485640         2.810433688
    -2.610282511         8.512971293         2.810433688
     7.219650032         0.000000000         2.810433688
     4.762166902         4.256485640         2.810433688
     2.304683764         8.512971293         2.810433688
    12.134616292         0.000000000         2.810433688
     9.677133162         4.256485640         2.810433688
     7.219650024         8.512971293         2.810433688
     0.307313011         1.759606865         5.262979256
    -2.150170119         6.016092505         5.262979256
    -4.607653249        10.272578146         5.262979256
     5.222279272         1.759606865         5.262979256
     2.764796141         6.016092505         5.262979256
     0.307313011        10.272578146         5.262979256
    10.137245532         1.759606865         5.262979256
     7.679762402         6.016092505         5.262979256
     5.222279272        10.272578146         5.262979256
     0.779962393         3.642823082         1.642111827
    -1.677520744         7.899308735         1.642111827
    -4.135003874        12.155794376         1.642111827
     5.694928654         3.642823082         1.642111827
     3.237445516         7.899308735         1.642111827
     0.779962386        12.155794376         1.642111827
    10.609894914         3.642823082         1.642111827
     8.152411777         7.899308735         1.642111827
     5.694928647        12.155794376         1.642111827
    -1.087275397         3.110541346         3.452545569
    -3.544758527         7.367026986         3.452545569
    -6.002241658        11.623512626         3.452545569
     3.827690863         3.110541346         3.452545569
     1.370207733         7.367026986         3.452545569
    -1.087275397        11.623512626         3.452545569
     8.742657138         3.110541346         3.452545569
     6.285174008         7.367026986         3.452545569
     3.827690878        11.623512626         3.452545569
     1.370207740         1.145944307         2.168321861
    -1.087275390         5.402429947         2.168321861
    -3.544758520         9.658915588         2.168321861
     6.285174001         1.145944307         2.168321861
     3.827690871         5.402429947         2.168321861
     1.370207740         9.658915588         2.168321861
    11.200140261         1.145944307         2.168321861
     8.742657131         5.402429947         2.168321861
     6.285174001         9.658915588         2.168321861
     3.237445524         0.613662558         3.978755548
     0.779962393         4.870148198         3.978755548
    -1.677520744         9.126633851         3.978755548
     8.152411784         0.613662558         3.978755548
     5.694928654         4.870148198         3.978755548
     3.237445516         9.126633851         3.978755548
    13.067378045         0.613662558         3.978755548
    10.609894914         4.870148198         3.978755548
     8.152411777         9.126633851         3.978755548
     2.764796134         2.496878788         5.789189290
     0.307313004         6.753364428         5.789189290
    -2.150170126        11.009850068         5.789189290
     7.679762409         2.496878788         5.789189290
     5.222279279         6.753364428         5.789189290
     2.764796149        11.009850068         5.789189290
    12.594728670         2.496878788         5.789189290
    10.137245539         6.753364428         5.789189290
     7.679762409        11.009850068         5.789189290
    2.966686329		5.755000257	7.78918929
    4.405663122 	5.755000257 	7.78918929
    2.274682216 	6.997479097 	7.78918929
    5.097667236 	6.997479097 	7.78918929
    2.990872490 	8.199949145 	7.78918929
    4.381177124 	8.199949145 	7.78918929
    2.171641166 	4.578601094 	7.78918929
    5.200708286 	4.578701366 	7.78918929
    0.870485534 	7.031672091 	7.78918929
    6.501863918 	7.031672091 	7.78918929
    0.775739731 	4.626731995 	7.78918929
    6.596709675 	4.626832267 	7.78918929
    0.125111950 	5.853969395 	7.78918929
    7.247437386 	5.853969395 	7.78918929
    2.472868837 	9.159659023 	7.78918929
    4.899280730 	9.159759294 	7.78918929
    2.626381028 	3.588709152 	7.78918929
    4.746068378 	3.588809424 	7.78918929
    0.340889091 	7.984964519 	7.78918929
    6.931660825 	7.985064791 	7.78918929
    0.202367767 	3.701917013 	7.78918929
    7.170001709 	3.702017284 	7.78918929
    -0.959167747 	5.896685564 	7.78918929
    8.331617153 	5.896685564 	7.78918929