Na B  Si O  Al
 1.0000000000000000
    50.0000000000000000    0.0000000000000000    0.0000000000000000
     0.0000000000000000   50.0000000000000000    0.0000000000000000
     0.0000000000000000    0.0000000000000000   50.0000000000000000
 Na  B   Si  O   Al 
 108 324 1026 2673  54
Cartesian
  8.3634323555088610 -38.9443215171407573 96.7120686243749645
 -43.9907799914979520 39.5749279725859822 -207.5070396153512036
 79.6397437038088185  3.8542293603925852 -7.0933598443316317
  9.4310638344576070 42.4462157544123642 -8.7982906498065230
 13.1301013276604017 91.5935866399391045 -101.2293134141641957
 -33.9437508125347591 -4.1645972671652434 -58.4402653609250464
 -25.1418083228683642 -58.1862206971195519 -7.5863038890955750
 -39.3120105789806189 109.1320362111590612 -80.8614011076495558
 22.9982068544971199 41.1649265378584630 149.9631737857468750
 -12.7030146560265518 42.8011577991447467 -28.7258338520349206
 -50.6507671930027641 -72.7563908339638630 -0.8006409334653464
 29.4569273789592572 -94.1037284516287400 151.1030692877277204
 28.1261145381929936 37.7772078069420232 -59.1086729681235852
 -56.4139680014442675 -26.2492285281579250 74.8934959226683077
 83.8644529579665203 -26.7555990670958685 100.9991504068925394
 -26.4128004492695787 -55.9078146222254517 59.0737254521000210
 34.8867270244248289 -94.6485650994089838 89.1826764523908366
 -47.2478646184433160 69.5315621483370876 -22.5968198800068123
 37.5778491488915947 68.3391814413155174 170.1607632903836418
 37.6472672680411975 133.7563620270184117 35.0371484367407291
 -65.1329697469367801 69.0874211593118304 105.9400965760556801
 -16.5818379074807112 31.2054137918524148 105.5999136808013503
 59.3128346173554704 -62.0875971888441356 94.9547790116409516
 76.4777311129151087 56.3789700196564354 61.3538139498010082
 57.9074932294917488 95.1190489827263832 26.4083725836690419
 64.7129900269944898 144.9652107359110573 150.0644738178327771
 -18.5502837430240923 37.9802739100541444 -93.2878087280889048
 65.9709284765131514 54.3139595141377569 137.9492541409175601
 39.2811675016641146 49.5247882753526838 23.9466646099125278
 -44.8935158559097829 190.9429657621855085 117.0359537127991842
  6.3098535364675596 117.5221408280432200 -71.1438256569291951
 41.1866362695593438 -29.9232139017417644 -67.6884841030203575
 65.1696751518221333  8.4967714256807980 105.0852089891853041
 -48.5940789223120149 74.1631125492965992 -111.2997341986945230
 79.2449532581298399 -46.2871978614973898 111.5009871625648969
 70.9821955965903868 -58.1206548052634915 45.3055907146478276
 35.4577049167659197  4.9595504998687563 -16.8511444549768683
 51.4130769883573748 116.4415601535970808 20.7981365636557776
  7.4615790694415329 41.0317612342093341 -21.1400417905669826
 34.3348813353704401 -55.1675088993638028 -35.6255363641095570
 55.6813865805056452 130.1943667752626652 100.4893034610771423
 136.7725677840305423 -128.3724250035571117 21.0955482233981968
 31.6137613377719227 58.8199334246346268 -47.7115363327040924
 52.1496907166050789 72.7904581393601973  8.9188345803370712
 61.4001946024170664 -25.3502029718425739  3.7751695034601211
  1.6094502958409893 126.3703359033468274 -115.5290292822263751
 56.4926053469965410 140.8945361819169193 14.1280684428855920
 32.0492781745274371 46.0423127128249163 28.9077687876884433
  0.9556826001503645 -29.3863842468905290 -25.8546455815368894
  7.5378824090691650 -9.1331487516598031 -10.7672636745924759
 51.1645954880097094 72.1622918217021265 21.0286765948471448
 92.4204630446740225 118.2638585557286888 -47.9445683657914543
 36.8465080826053963 -26.4582730910725594 116.4769346320879038
  5.7893360722449136 179.7046421953356514 92.2589423438216443
 54.1373456015698551 -63.6072104093069726 33.3101427133767416
 55.9028160964687189 63.1070334204905521 -26.8513905135839828
 -16.9620263487720209 -59.5969089239982068 214.5400281671558389
 33.5536343801249402 105.3980140882379857 -27.4231700225869517
 -9.1301915969936314 15.0945839467337724 -1.9598529935484554
  5.8697049100831933 15.5549068464657321 -38.1874482736174272
 -48.4014949337419225 30.2728401183221152 -116.1228642537069931
 -90.0884482023352859 95.2311990816490379 134.3869441591181726
 97.9940389558451130 -9.6796596096430925 185.7226253012764801
 32.8629601657265340 70.8573426307852969 -107.6084699842693908
 -27.3282391572634005 -102.1677479896877685 10.7622052090381874
 55.2101555280213319 16.2410724574798309 -35.4755737746000506
 60.8475803945410902 -7.4659358279874075 86.6540568864045326
 89.5764267868522950 166.9636503344399046  8.6967772924268889
 46.8494160719747228 -123.7068262039797304 73.6373049805383175
 49.2757541075264385 92.6083714148909536 18.7316145239598306
  6.2593817272449854 62.2098587975343804 117.3045457021944884
 32.7416619072857742 -74.5835921966606890 54.3795697777208744
 35.0370538073053481 98.1034296772246677 66.9145533090365348
 101.3014944442040246 -20.3673188167601928 -34.3189968141453292
 35.5394148745133762 36.8799737059207615 -83.5561266679213759
 18.5541546530235060  3.7368855234219169 150.6893215066270102
 158.2055574619814138 154.5344449906158388 21.1167068904661583
 88.6551634359074114 64.9796318377451882 87.2266231256794526
 30.5456105115349992 -68.2924186464853875 -3.4952782084367584
 83.3805030023444971 82.6479242535330627 151.1737616369238992
 62.4510501472905233 159.8149209182969344 181.7236487080606935
 37.9638798298216713 157.5254222741025103 81.7264278098611499
 38.2059512417798004 -170.1324619012042092 67.8473198691355464
 13.8835231579616032 94.9421737268939268 15.5023382818803430
 138.2868379291418535  8.2458278577617374 76.8237216631456761
 -61.7816362698354382 -22.9593899612757433 -36.0874021192748344
 -44.5379924321868828  6.7229076936769454 22.6714835597347424
 -100.2124983005012666 133.7581081565549823 -76.3020705478881069
  2.9320723398549031 -1.9123969018041753 67.6479288592315839
 11.2835032587253430 156.0512959110885163 -11.7981268617091128
 -13.3883848923497535 -18.8135344250639669 -8.1244259842357724
 66.5046477772880138 102.1961904878546932 -8.3211285878710406
 82.8116124238113258 56.5015267489618367 -89.0491199311204866
 -40.6886520294484768 -21.4320710661362703 -103.7240794607936891
 107.5179098527419654 12.7659406842801086 192.1011879635430262
 -22.5207170421657707 92.4149523005791735 86.8582650499110258
 30.5001989619030702 -98.3183490297307259 45.9361184406330025
 12.5167343066967032 88.1277851069629463 -99.4627203118928662
 38.3888737936119142 -31.8333390702113306 123.7235077603583875
 -43.4196718107004216 13.8112771617296879 -72.2673016164116149
 -43.7514375346734852 84.4982217044728117 155.2776519012722929
 140.8220571423405829 -15.3143811993893699 -14.1356693313870192
 37.2358527354878248 37.0888620140941327 -15.6577776922300966
 -7.3611895526701163 30.6324171393579832 77.6709765441808742
 53.1430954746214681 -62.3298655659041003 16.7852959409595499
 26.1368401820444838 103.5187645602256197 -101.0754167323084260
  0.4124794371967074 82.2868406363320020 19.5207957770851905
 15.1034882396560217 -46.4146931049942779 98.9417414094215530
  9.7072788114640876 -4.6200054434796911  9.9280523179591675
 -4.0536733768154480  9.8187861143938822 27.7038554512724176
 -10.6501887642688526 -1.0874287991552489 51.9106915119862862
 -7.0276459452495725 46.9579195875732438 11.5301248203988145
 -7.2742263740035504 53.4748513746399539 45.6348595210255610
  0.2159396996825040 16.3583259752446857 53.8524922990293007
  1.4840669590017019 54.5169425914681014 18.5086144386593219
 -11.1460854513829641 39.9672658006468708 30.4642478611646013
 -10.4866741424141434 34.3108159093012191 -5.8040468064639805
  1.3663356842149834 29.2329292501818720 -9.5571394558242488
 31.2441439349715893 -10.7047632961596531 47.5306510282926098
 42.4453277944668912  4.8009705047089906 40.7644243484360729
 18.1336680820757579 -0.6028088739536308  8.8682113693741904
 -7.2828482864152893 20.0291854149070510 25.9165907018464807
 -10.6572291555876717 11.6231942981773351 17.7930401556578381
  4.7579149177833324 22.5588363667343259 -0.2267828348075707
 -3.9290305392573890 -6.8292108073293338 15.8644772954103210
 27.9544223351760834 45.7389586154598362 -7.8095284511040308
 47.9504353095550613 -16.8003080034237584 15.6635565424922110
 51.1767805923150405 -7.4103797617832088 30.2246726594476840
 56.2017452538079212 -24.4797434594672332 44.8495364016654037
 39.4455503680038078 36.0428112114750121 13.4344157849195600
 -7.6593740141389528  6.4957022103458755 35.7417816117025140
  2.7551294901528767 52.6329995560158892 61.7133995377129878
 33.9550289318223406 38.1911978082428263 -2.6698386924245976
 45.1888452388192334 39.4484413470377788 31.8747454639381935
 48.9775709860432471 25.7872852187612231 63.8191658838461109
 -11.1347348192887772  3.8278547168950219 13.3343970501495122
 -0.5775510719624510 28.3190577950574998 -3.6560528172058016
  0.2275021151102915 27.8886852362981230 43.9690342427809213
 -7.3497445249460061 17.7610856547320495 -6.8291683414585025
 -6.5449690633019975 24.1830465664206571  6.1949993174397822
 -1.5221896100686416 44.4952922930665906 55.9491349721593849
 -6.4307729438906227 67.8281742810979154 -18.6645427963673782
 -1.4551159941472991 42.0218561214445785 30.7038702519510878
 -10.5958085988770492 68.6328553633029088 41.9923500104691385
 29.0366962393755657 47.0473876054000684  6.8557774879330875
 36.3833979497637756 10.5274684708591337 23.7117767905790124
 34.1869003808615588 10.9864028051254330 19.9818226337877114
  5.8428703258652117 -0.5501438587920793 21.0604836205152424
 35.5682818152623952 49.0659097779245243  1.2709073216314433
 -1.1408308679974444 41.5908428144446987 50.1425313104923873
 38.5809108247568062 30.9750566919122932  2.8417098772104326
 -2.0267289459557469 67.5182911754677235 38.5763609722527292
  6.5399735226788529 43.9976767759241270 65.9221747198177894
 40.8776339709388452 11.2957326779993803 -4.6891463115655174
  2.5713013861137624  6.3191268191203189 50.0982749332847348
 53.4634163102265489 40.9854398483650471 30.5252151387385524
 47.4674066685749807 41.8784671104826458 -2.0146579116951724
  6.1139437480020726 47.0201664036012659 38.5044825908278128
 39.7044021485286649 47.3728387227984769 44.4502619057347559
  4.8628020103211576 47.4441325919995336 -3.4060193018223384
 35.2885569262204299 55.2391369807487820 57.8146165364356008
 45.9776186949597445 62.6182016795853400 67.7896627785553676
 31.6987546770284894 -5.8882571298998210  0.3408517460782391
 36.3542490622729773  9.0894707875388292  1.8052846063278245
 -2.9362190860629189 14.4394760911444937 26.4326511662113397
 37.1492828109637259 37.5472683625491612 13.1403411879730641
 -13.1573327327188014 -5.4083934678626324 30.1228032274230344
 -3.4388356035287728 25.2228407735200655 48.7114564071335252
 19.8063890023456395 48.5410140984121270 47.9467285051035788
 -3.6392720985595206 41.2750083804301724 29.4961978704663572
 -2.8636840892319713  1.3962373898426954 44.3999749426632420
 40.6736081818934636 17.7288746480701818 20.1627386251649696
 46.3719785506530400 13.2010587481020156 31.0375205985318026
  3.6418993631874015 12.0028664961940112 66.5991324383736298
 42.6524485097816921 22.6812441920823815 -15.1697300705350653
 44.0633401346130071 35.7254365251191928 14.1243904659301922
  4.8389086038329356 27.1784162950700967 53.7738715002326728
 50.2883139625075231 42.7100968124812468 35.3143887598537418
 48.2153575984280707 77.9169189361699495 42.2733693911108190
 52.3478415645377879 33.6050990434081740 31.8513517849393359
 36.5209515077727573 -2.0875323824765255 -0.8912909803472702
 53.0302539067057168 -5.4527282874602516 55.5247927611222565
 49.7648733815223068  4.6683010148019308 38.0708728581403051
 48.0385760547850680 21.8048443427130607 -15.4437878040541428
 40.8610972944872088 26.4833115996012403 -0.8293386820844295
 39.7458374987793306 52.8179753433041270 35.5411280448692537
 58.5894459672796941 47.5175148692101601 35.3314034930143563
 43.6268012987753480 34.5430537678337117 30.1624404567338473
 52.7024706892597692 35.7013992435409619 14.0604174681590859
 -4.8624088673713430 17.2955398051746769 19.4603003575886824
  5.4043002297994782 -11.9083127604263197  8.3506308697718694
 -4.8922925573199656 -10.2303985045520296 27.9665386788503483
  0.1302546581452637 63.9090548983721547  6.6319741150836418
 31.0058321381159061 49.1679457149886119 -11.1420981020283971
  6.6678316167678986 36.9490681911446401 50.7857519322263187
  1.9760656107361978  3.0776677640427672 -5.8170438475148245
 -3.5863394377308841 82.8529728688674538  0.7414180429058543
 12.3141616923291988 52.7515726832587433 49.7332031815846349
 -2.6339266442460652 -7.6669470727331266 13.5546568275806365
 40.9462111007699079 35.6163318540692728 15.6264841729965998
 41.8708847885762268  2.4176731390945996 36.5390671199049706
  3.3865994062918356 45.9866281610829049 44.7948824013848608
 45.2132638254472070 31.5743575110716250 36.6751132681988423
 51.1243020859449970 24.7185600572195909 50.0718443212591637
 44.1864532310400264  9.2385977984921190 20.8069883134383922
 47.2772943226108850 53.0260635870646766 36.9442379813181745
 36.8063486163133859 50.9215032320013776 47.9674256209180854
 49.0133447889294587 12.7379312053736307 -18.3538510178968899
 67.2281519964387968 48.6183793865633262 -2.7878284773798390
 47.6081432063067638 17.6042355765536769 -4.8542107028842709
 48.3797488746670510 40.8334051773694711 26.9182046739955894
 51.0710021871900963 10.5485849118074100 38.3234975527119772
 47.1925092954888541 28.3009770885294181 39.8069201119898821
 43.0980142553105239 48.1758028822948816  0.2272750002792848
 46.9249062339947685 51.0698184887932953 20.5656580321980726
 36.5774597287536594 40.9179022265247170 42.2132167053289606
 37.0082467720926758 -9.2363176114449725 -13.2233379273904603
 -1.8062780112045318 -27.5880768463670698 23.0849864309236743
 -7.5957479899860125 -7.8052226712648940 57.6527327730255479
  8.5970174268663815  0.3338175851875431 -32.3397541385753371
  2.0677499291524812  4.8730582807518132 33.5945729157758493
  2.7664307267676733 32.0243817957728112  3.8444476716687213
 -7.1807724566793905 54.8799661693820227  7.1897582228891199
 -15.6229129759815670 41.6205026441054926 57.7507911195362453
 -3.9415644855665679 59.1893213986286781 40.9847023060767910
 -15.2502643604624453 26.3828553921253999  2.2955184475794810
 -4.1778091237313850  0.6619599635407800 27.7419078281792402
 49.2414047539994613 -26.8790176897766315 42.3332121667909220
 25.0490454896949331  0.4761991403090138  2.9554689490042794
 45.2280582178705544 34.5805020056637105 32.4287279479491133
 35.2982311566763940  3.8960050022784869 63.3416535784606083
 42.7751254047155527 58.9544516992662295 38.2360098742235692
 46.3331827068638447 44.5881157069362430 -4.3514704623148939
 49.4746160173850882 16.9206833214638479 41.9139119219104899
 39.6365763711729215 15.2296405063981268  6.0252716863251434
 35.8346624819086585 -2.5244773413422350 43.8919497580203668
 52.5799846394607400 -35.8010453775680872 24.1250505638318877
 41.8592940346035292 54.7411968172754086  1.1743600195765052
 38.8952892442911491 -3.3983502926287104 36.8719597655617193
 78.3366246295519773 50.3063699742917336 43.4549624643467780
 39.1517556926283063 40.2920956559162278 33.0836211642341453
 54.9423916029787804 53.1636369426198883 19.8554886990671555
 55.0063616723819209  8.0373774150578701 31.1097756486893431
 -0.4434485481907835  9.9479760276068578 -1.5137840000700287
 -4.1935679154147643 47.5944416058837874 17.9678183347683174
 -3.7680235122202754 -1.7108855399811496 28.9733495447637530
  2.4333985852650097 13.1782360809115406  5.2991167748757295
 -12.9550861426732276 22.8702955319093348  3.6630337477891968
 -14.6457401600471933 13.3545948569050577 52.7300645488269950
 -5.7431401964676336 36.1992901684013688  3.2753836754450649
 -15.5856313304067964 57.7510679432916803  0.4107809833334857
  2.0344643108012983 49.1607611980439003 12.2942126479649598
 52.7203127397476692 48.5130502961313397  3.6935494380026253
 56.4791411373530821  0.7280062372632483 23.4439883715166673
 34.7680908126050099 -1.5463001626884687 61.0016284517664573
 34.6241930265056652 37.0713016231724595 43.3252879863910891
  7.1649398066200192  4.8889273659768957 41.5906678885746786
  4.3428949769033247 15.1658929207823068 30.2756365302345181
 27.5601184845809826 43.1271265952925660 -0.6615515263110716
  5.7009149282529048  4.6326311159625861 34.6349920440575332
 45.8892191696485483 42.8937007326751427 34.4491430490119157
 57.7472799834559467 -0.4493621251641322  7.7070446010763991
 39.3722207014157277 23.9935963334053213  8.0996211779836127
 81.2748722529539549 -9.5306968210830671 39.3556174270752948
 41.3935937731349171 17.7750819317314850 -1.1573692062153917
 41.3444457880455190 46.3496723630429983 37.7461745946130591
 39.4186103394411234  3.5093754858567410 66.0477219897605465
 49.8741611100743825 51.8899382455721536 -7.2729928807063251
 38.9194052688334580 46.6891320116258370 60.1196113580722695
 43.0837671937978399 63.3231499322796552 29.4735097182042978
 37.6658776322935296 -13.6474568737379336 -10.1522631171761191
  2.5578285752540055 12.8485407922184081 21.7411287134005882
 11.7681914051951537  2.2657088726843271 60.3356549841419962
  8.7438082405620943 43.9387085715016497 -11.7056165717067451
 -2.6844513116193349 24.2214203553170400 16.9960838118653363
  1.3414492042259485 35.4107890574916269 52.9241226587604316
 -8.6696254311703296 25.7689433338221470 14.3654946950147515
  0.8084567921159244 45.8177421850755877 39.8315951655642948
 -7.0743280025916793 15.0396259675268382 58.8450425645408828
 -7.9162695799005425  7.7399040940497006  4.2312733383166803
 -1.1662796871761361 -4.0992870759219482 20.7659907819287426
 -8.8268033165939901 25.2527773145133310 17.5144234854135128
 34.9122999739784987 -3.4780436395814074  8.1177066030011940
 41.8581911523511252 20.1207184513401494 45.7547855082193990
 -2.3601145942785893 17.3264288632002135 48.4599947420569634
  2.1814630876492203 11.0595120745267650  0.1904438423804328
 -10.3283078763262370  2.9929171341549434 25.1058484713725925
 -4.1815315836181259 64.9093261466126705 33.0107249979955526
 41.6335156694067123 -15.2869120243882666 -18.3963838371660025
 37.2945280783682662  1.9586754960198831 13.3585530347622274
 53.3898684136406843  5.6488568795482612 85.7259336749021941
 36.8398667820093593 -15.1668550804435256 -0.0421636306339290
 -3.2654695142794177 -6.3150494853400518 23.8392591520323052
 50.4547169400839337 22.6967120946460028 55.6735640164935006
  1.2558871528837598 62.6543068810091910 15.4735171814246595
 15.0128437083604673 47.9754856508290786 -1.7127758814460436
 39.7914543493117705 50.9181460286226155 45.5665857592205512
 38.1324539635632505 -17.9360288933887553  7.2765285104878581
 10.0657984362967436 -7.2073803206212315 -3.0951037380036905
 44.3397556116298830 39.4491923420814601 48.4741918151978481
 -4.4940861566895141 11.2233464806628120 15.4520093152698692
 40.7050393909349353 52.3021304613359632 53.1095213528467980
 -8.4099177392435891 14.6299344309029582 54.5623735295856633
 15.8716171673364705 -2.6472421654444576  5.2568354859380388
 -4.6910668604587702 17.8738257188130447 24.4260290219741414
 34.3281052613403475 -2.8013725474131501 37.7270434562425763
 44.6727910063857721 -19.8141364250508119 -2.5748556021570943
 57.9057457504893449  4.6593403047907431 37.0265264815330966
 52.2097970131812232 -3.0152648752802436 32.7380970761729060
 49.8847082751207509 28.0018821668591862 -11.4400127942477052
 52.3452947917575884 -2.7863432212862138 49.3730971603012350
 44.3762058938749036 25.0834195959820718 31.0783957539563787
 -2.0482289332488577 17.9774594390462141 21.2178451466211158
 46.9379778204661235 51.6670310878098675 18.3163416502306617
 60.4089842607649530 54.4788519335318142 14.6499877523233284
 58.3254576148800368 -4.5617932353718302 -8.6391969623503648
 45.3949469318571985 -10.9669902429301249  7.8143096173091635
 58.9293674659897206  6.3136151777147971 11.5059028771052301
 46.4253234704149094 92.3726269234406772 26.1892244179006752
 82.1690467451440156 43.3991738425635489 47.7936878945958696
 52.9344365102661598 -4.9742088726389300 51.7757687524852983
 48.7448842065445263 15.0518287737051395 -12.2914649538969698
 42.8879762908756490 35.0320820609191728  1.2439664549253309
 45.8903664050588347 26.9285170023788218 63.5053516203419903
 -3.4037697075860072 15.3455113090602868  8.9508642446424709
  0.4090110556001557  8.0404983741194584  9.2456459058760103
  3.7521051247051700 -5.5986457266209602 21.5643023263594529
  3.0259137385365098 33.4878901428094125 -0.7865934849177803
 43.4315575901674649 34.1314612721227206 12.3005919411896514
  6.6022086245574441 27.2318187150096094 49.0272283982466064
 -0.6249472030852687 32.8305506967590119 -7.9883283308243511
 47.9574197408388230 34.7988052752183066 39.9035847838194258
 12.9644037917722024 53.8408577175961582 55.9004139480572846
 43.5843819297883215  2.9406019301881803 32.0372820968956589
 42.4393559420803399 -13.0950730174741565  8.7835960308911858
 -12.8012274022094648 -0.0219326111910112 19.2846889530375769
 58.0492008874269914 57.0263759817842413 46.5468808831391172
 35.3081863862591447 38.8625915245787681 14.3712830604584987
 37.7031394544148526 15.7715682637823171 49.6863785597892473
 -4.6333776251976042 64.5194167072736633 -0.4469842118732692
 38.2498728750376600 61.2970803784453864 20.3183876066610054
 36.4652253143016836 58.2361303491696560 42.0760103910344014
 44.4080271015944419  5.9490320132324319  8.9270018712663077
 44.1412722435102651 21.5547835371668981  6.3348434646377907
 46.1676254582991561 -30.4291835032286180 22.5349909581285921
 40.4156748226239557 10.8091256907659776 27.2530992566945578
 46.0181902565519323 45.4849091815478204 34.9972412948591227
 56.1912760979544004 20.3311768881141752 48.0403877618391704
 57.1173648486892205 89.9402251032376228  4.3720219503140161
 41.2881646706877419 43.9431798809744336 35.2538749195079362
 40.4401038223791929 39.7295752179745350 38.9392571442186721
  8.2641376034808118 -0.2812836980179922 46.8619927121479520
 -14.3177568106830524 25.3401283620302351  6.7033548932227074
 -2.1530356199271350 13.9116419716095088 68.7236484568525441
 43.9611749013340471 44.2638831575653739 23.6179977483773911
  8.5013551808887318 44.1446854406501146 64.0050275226443119
 32.5081897832482625 59.1197243711511931 57.6381981821837286
  6.8742820363883013 48.0099380389242825 -6.7787190604107153
 38.5488840251448366 10.7352034902301217 49.8422904888869311
 -3.2051773743209111 58.8289827513391401 30.0981924000153427
 42.8048344704937165 11.0612067227251654 36.3697546237596683
 51.7676305666757486 37.5780623920255508 41.4471067428517728
 37.9701695455424115 22.5570675708730093 44.7940690385661071
 55.8584841865693349 -0.1528167014803239 -38.0265029590289458
 82.4869007492729907 50.2664994381049155  8.1316587394236777
 54.5569562206944383 28.2600664668139530 56.2576920537469789
 42.9438201244433486 39.4144845436064486 11.3879799719508057
 40.0032394150511124 66.4077745947906379 50.8985206896605789
 48.7762052261970993 28.5047094530295304 56.0614833175597269
 53.2458246422258270 -8.4226448389587532 -5.6696857865674968
 52.9716348941326913 -16.5361849998264461  6.2352812551317687
 41.6786816377190874  0.3777665113603637 28.7079683610766132
 94.7418313366744940  6.4249862468540382 16.2311182384184534
 40.5888903245911408 -8.0997191339621679 12.3029512921303752
 47.2644282900449682 49.2284448470439955 81.3479214589175399
 52.1228970888699337 38.8001826911090788 -23.6008041292026363
 92.2800087584135298 43.1948744258368720  4.0110160442808018
 44.1204219765357806 33.7449150983336494 56.6143379476263036
 -55.1057687903386864 -0.7557639003231920 16.0382597670732672
  0.7843163454915478 -2.9256767732462774 45.0518285451197258
 -2.7831161871018528 24.2362891407347796 64.2756700843787456
 -2.9298228686903349  8.7999034442768860  7.0382962316789062
 -8.4731331357156598 28.7941137004334777 11.7494564119065465
 40.9931445348080388 29.8802601721538110 41.6939019088575193
  3.6581866148343725 31.1066413977664276 -2.1591125760457519
 -4.3206986775764840 42.3758975425274897 44.3333460347410551
  1.5060151502066246 39.7431574629860265 43.0198573036176697
 -11.2147445418222080 14.0837247448498868 24.6810791489566377
  1.7907205951017837 15.2477232360168831 33.5766928705311187
 -13.7754274026818280 -7.4947949857950888 34.8091573595959076
 35.6487821514287120 48.2282706484427024 31.5172410092233051
 -2.2621062780234178  8.8430827933732434 43.1223089183870840
 54.1566646205366098 40.1605162942066585 39.2871849703198137
 -12.8985736869968175 57.8589203244210069 18.6210640324083450
 -0.8833610799430569 60.4674426079929290 32.5355125879669416
 42.5263436583056986 23.7912757257866332 38.9957172476890221
 37.2267859624754678 -5.4560067995209680 13.8138739566452760
 43.7548181815451755 21.8466212468594065 51.2454792999226001
  8.7634704366353553 56.9878822424618861 36.5118619848150843
 41.2469028444937535  9.2957341103829698 29.3167720397584830
 38.5201220590916975 47.8110166741461597 70.3973910922676964
 37.5453289987669194 52.1534258944325728 46.0490253326871439
 38.8575268124436874 40.4725114340752512 19.5520487890882961
 40.4087031440144742 55.1896866061368101 59.7469830793579533
 31.6041765615489254 51.6455232046917772 92.7778348871828342
 -0.5099297692262694  8.7278104472274762 13.7690538037067967
 -2.6407995078371158  9.0278594833402597 18.6277601310308540
  6.1758775460601312 10.2214631450158180 65.0881162695801692
 -1.8769963766859632 19.1098298835180920 29.0725472033490817
  4.4131557576106921 12.4615887842491730 36.0405119949271082
  2.8446101726299005 42.6641837907220420 34.7483241171917001
 -26.6913056044260522 93.6556528762653215 -5.9772679092732650
 -7.5129473621273481 55.4865503894694925 53.6571890444183524
  5.5036268545772966 34.7867595373302905 46.1900941995712770
  4.6238633782315421 -3.5049668404131040 24.3273342490484303
 -1.6679520502514922 17.0142221242986267 51.4932641168588958
  5.8063621544883963  8.1912894826003395 -24.5966106419602752
 41.7905930035881212 52.3907460119028769 41.9621450113504082
 40.3263528057881899  9.6554058054823813 32.5371674541879798
 55.2434098325067708 50.8451080046746853 52.4729966606910097
 41.0385464657040799 44.2444309869800421  8.8393904925509350
 49.1981826151374406 34.8283463368577983 37.5796451736986299
 -6.2952108366595425 68.6766351400695214 46.9885960075213944
 48.3679925427620176 14.6935990184744352  4.7891906059278337
  8.8493609356855618  0.7879911698095314 11.2184371119430661
 49.6827860484291222 -13.5371520767296190 41.3644829972344681
 50.2345023726531537 22.6186141482633936 -1.4524641387201997
 36.3808420316572594 19.1299660403333931 45.7348686619285516
 45.8996634673881587 -14.3428313282841060 48.0778802542890347
 54.2823778659068310 41.0313317903694852  3.0298708764444782
 32.3824331594880306 35.3114933714907906 -3.2796412839199873
 50.4401707357093017 35.4513595429544779 55.4045435508044193
  7.9097045577370722 -5.1244498007179340 -3.4696789755273016
  7.0390431533651698  0.3439718221686393 39.7665632322720057
  0.1346476696265269 -5.6955399190069089 24.7781554906881460
 -6.8193427718267809 29.5040370077767129 16.7197033995399664
 -9.8512283958862135  9.0916879999166014 42.4523893720794661
 -5.6429550172400589 28.8467173518780271 56.0972119621058454
 -9.4667078398527948 38.7748029641797984  4.6711114744321867
  0.0518135577077764 58.4184162265583140 21.0141011123939556
 32.0081822964947165 49.3144809803075432 -0.7943729643148156
 43.9019498696692736 -7.0495674424617629 13.8801574786964341
 -8.5196112262406523 -13.0577532121916189 33.2293367369178156
 29.5334544295198569  3.5252628347525619 54.9106836065484956
 40.1814721344761239 16.2770990029758913 42.5334802210217191
 34.4830739293992252  1.6840501478558010 40.1972492351501955
 40.9768903703593281 27.2460772273795619 42.8946492157065080
 58.9347642460134367 46.4935017353372473 -12.1819404434671537
 -0.4388065666712015  6.0507187461046730 16.9064174239251486
 36.0405245679819615 40.3659094277298962 46.6890068821403972
 49.4799749302419869 -19.6733389863648966 36.8496885996741028
 51.9500678723556462 -7.7084925074723420 52.0186578627355161
 46.9223927871495405 -0.1935713024866448 39.7847066248071002
 41.4345806384294235 11.0033024580313761 50.4332378963918018
 49.5656756652638109 62.6626293833635089 21.7961684900139723
 41.1738922491222468 15.0604991498876295 25.1556091835900766
 52.9122510849956882 10.9922635994161855 -26.2723973390477923
 34.4610465194056346 43.1567992567035290 39.5141650735502594
 52.3757997042511718 44.6602799446829408 58.4982475313577055
  1.7148463778600194  9.5883779957705304 -5.0461029867204186
 35.2048257079580296 28.4874492707538245  3.7034395924133641
 -8.0814917659787273 -0.2747903077075842 55.5117065587776324
 38.9349999858995304 43.7813535799214364 36.5730529317881761
 -9.0625472240111193 -6.7009681564902168 27.0292868041913152
 10.0210801036211947 45.6060945172741725 49.9070002131011350
  4.9573197653745451 96.8742343395819319 20.5561557558926538
  1.8960997509160744 55.8912634015853556 42.2214962141178276
  5.9015302414245738 48.7357426476551865 59.6826199497342031
 58.0548844113326226 23.6304679913668458  1.6478145177754828
 50.0657499147654548  7.7287953198407564 32.2636891850713496
 45.0394432736992982  4.7880370870577691 53.7403899652209773
  7.3410744177489216 22.7996996729367396 -1.2494105310128900
 42.4929647527753076 32.9713583630068783 24.7345580367004629
 50.2962370935595260 24.1026309805020986 62.3514605559865345
 27.4332835251038532 44.8374293579663998  6.0197648011327223
 56.8509604599402252 43.8060476318453880 11.7820162905935071
 41.7286791874127587 34.8025688794472359 57.0101070371838574
 40.6059327729705544 27.7462391601283436 16.3015638452860294
 44.9948322740104913 20.8106779651824247 40.0234582170909121
 52.0483638523900680 15.9687993509277835 43.0544247660720458
 39.7533881561131679 32.1255660247509525 -11.9440607260280558
 43.9941064384562210 21.4636576898006233 18.5908378547674751
 82.0976957881153737 36.0450775633371379 53.8256046278910674