Na B  Si O  Al C  H 
 1.0000000000000000
    18.7797262657589350    0.0000000000000000    0.0000000000000000
     0.0000000000000000   18.7797262657589350    0.0000000000000000
     0.0000000000000000    0.0000000000000000   58.0794186851823682
 Na  B   Si  O   Al  C   H  
  11  23  87 217   2  10   8
Cartesian
  4.6504743517007245  2.4174416976912463 27.0463769352835968
  4.4077339676353784  7.4457834744449860 34.4740533686403339
  4.8466077936416321  8.3705672885661340 31.0832843769261018
  0.9107115161065623  0.5218745286884772 30.5693513414272360
  4.4175801578330542  1.5269087446135214 24.1566430433276835
  1.4033010363984584  4.4535424308865830 22.5027555117149234
  2.1283181190799993 14.4584389510684890 34.9517629658250968
 16.9714460774381095  3.6699511353955248 23.8517168525407399
  9.7313561850932029  1.9043622546133787 28.0582887523324729
  7.1431023643482963  0.2633883978419896 34.3718506598835276
  6.6577499201362240  9.3696228045050969 25.8637111534945561
 17.9644232449708774 12.3194803013782828 27.5342331855584135
  7.0969313308658881  5.9911318202237975 34.7541997095349373
 11.9390852387810220 14.5686923933326344 25.1192892962327079
 18.7015309118240793  1.5547308810414546 34.6979218788936876
 13.1217315252864744 10.4921929959758202 26.1847029109979985
  1.6963335328675884 11.2632071489722119 22.9113439195262316
 17.7672078309068979  9.4234335901960318 27.7088832549234567
  0.0607476964442289  0.9899305336509248 24.1121107613752201
  2.3305865190146950 11.1554718183459158 30.0791888986900062
  7.8400276672722127 17.2737269199852541 29.1864647836523190
  8.7104642001587624 17.1032256852775788 23.1417512913881467
  9.5702489072734007 13.3203608513306353 28.1697444075858030
  7.5783248281832503 17.5922193739271364 31.7382453125504824
 13.3949659645363681 16.0758537984150678 23.5839488358311584
  4.8447428013183043  7.9208776531715923 24.1777478107677339
  3.4982741917900060  4.3922252732612961 25.4963656186836474
  4.0093201352757770  6.8825095964362051 28.3069734504163364
  6.6597644693000140  0.8687683435153205 28.7215134393554834
 15.1781609706883511 17.8491587629160193 30.4577847551080438
  9.2303155963485786 10.1563750592724897 24.2503101852918590
  4.6413833803149238 17.7479767894464580 26.4778990754158130
 13.3134091145252249  2.9410749449569717 31.3049737000293504
  9.1248968923965528  3.2783639499430151 25.3502586598216411
 10.7809928541219673  6.9228466532686452 28.1350234949662763
 18.0293187425885293 12.2472784277314997 23.8760605372001109
 15.0794935768987202 17.3474996560496706 26.4617691736030523
 12.3740114424716463  0.2093298237950579 26.8619690642031372
 13.4238057775708768 15.9978740160152455 31.2846070717031708
  7.6299104439579990  8.2079976382800837 31.9264334085093253
 16.2487797675969610  0.3647013461448261 24.1634237286582874
 16.5120030567589779  8.8722149285631069 25.0031885768952478
 18.3309104840553232 15.3830848306356103 24.4220758589499880
  1.7419698526130212 11.2685217041778909 27.2908143322579662
 15.9478156360547860 12.7734690197203857 34.6108398835825781
 14.3639331595250326 18.3283399365254276 35.2711510968796702
 15.5548135982627738 16.9120904340766813 32.9243170563366405
  4.5087708529536821  4.9119581875078149 30.0650090491024997
  1.4688747796446009 16.1102175682880073 32.1394227432596367
  3.3690514756779990 10.1816098907347143 24.8444421915798017
  5.7195320172697972  5.9244277609010370 26.0226694702931667
  3.5086954354577289 17.8343868305854905 34.0746080492082370
 10.5119188820359408 18.6708299310967050 34.8618197805229428
  6.1661453287181853 16.2536938089413070 33.7645488573437262
  7.4072922579687184  2.5207772392349104 23.5840158868996639
 10.4342333078994027  7.5682198790313695 33.2179035437232173
 16.6894510978783863  0.9748764418558709 29.1385818710765463
 17.2357954629456849 15.5241442507837739 34.9340808627651640
  9.6557681686175574 14.1103194587474245 32.4980407925623069
 11.6447073793046307 13.7019054769048871 30.0018052104851591
  8.5105410837351343  4.9838672758931226 27.3266874605037060
 17.8972523539397557  3.5888033746484318 30.4289382838515081
 18.4159963710002650  4.8722433589113709 27.5968901905833874
  3.3995458870908188 10.6266360991743252 32.5244520873725804
  4.2752742734495124 12.4402704156145969 23.1161268113654614
 13.3074374957382684  5.7634188223728113 27.4652694398004300
 14.2230447260936863  9.4061565423448226 22.7285058032018696
  1.1845766702574918  9.4879342520573129 33.9330863786060419
 17.9004210092451537  7.9042760728590640 32.5501941837026934
 15.8304075833192304 11.9083034131133196 26.0377252918196618
 15.5027963527540358  4.7206920450030232 32.1001717926480268
  8.7521116979755416  5.9468679396864639 30.0473002846749466
  6.0434801531637268  3.1860579050597297 32.1044513309372235
 11.3708818047073397  1.6230657163910849 24.2818347332631319
  8.2679800625391078  1.5434407238449888 31.0974049247782247
  7.0809546244749058  0.5970214457654029 26.1821948487005116
  9.5023769490796628 15.1598882348098254 24.8709369540276128
 11.3981325375378155  9.4738108345529248 31.1930452897004784
 11.9633418011918771  7.9711179854934029 25.8059150918740912
 12.8747683152401606 13.2928612323060840 35.0153969438743999
  1.4368924828487999 17.4629686855106137 23.1265330213574174
 18.5237290247306490  7.6140187938308594 22.9773784533370673
  9.2971485793999094  4.8553010403741839 32.9554165343800491
 10.7409340253071655  2.1795348827146350 32.5964628334398867
  6.6976795576529522 13.8772324505411326 31.9763176889441425
 11.0568001004258551 12.1657604371233976 32.8323517052926803
  7.0957369872176690  8.8296762371254474 22.5000000000000000
 14.4711798084964993 14.5464216772693664 25.4400217071898354
 11.9308651902447842  7.3228899217393053 22.9014944002599492
  6.0081916815374612 11.3195648898775669 33.8711220800171375
 12.9603517115718123 10.8683575423634977 29.1025199013082698
  2.0823246794528294 18.5112563333076103 27.2010316283211040
  0.1637998511901352 15.2135966593145735 27.4117055416229292
  8.7564927934026926 10.9713376918379009 27.0197636710853146
  2.8124573536238757  2.1603167059608137 34.1636732465185844
 17.1267649512653364 17.0402968951779172 28.7031042983431419
  9.5434377849651071 17.5541999265803383 27.0308873490402277
 18.2795429640066160 17.8045914833014223 33.6719082611931100
  4.6008629023159253 14.5288879987590924 29.9700451456518309
  4.8231929993401090 14.7249135268277840 25.0423191767370739
  3.0057755080807946 14.2280709757436963 27.3391791131399131
 17.2598641668980548  5.5866646439728713 34.3440493848418882
 15.9613971320941701  7.0342362709318653 30.2438359204887135
 15.8585227236163995 10.0829362887931833 33.1903816791868991
  2.2595516430712168  3.2540691165256592 31.1687337451849089
 11.8719533606448859 11.2783647868407719 23.8161453153217408
 11.7105194124313563 15.9078006123106412 33.8946435284869665
 14.0869202383627581  2.2586684907019730 23.1160705643707090
  5.1578212361068134  3.8440221551336000 35.0633692885113106
  4.2691182139943633  1.2149592541557011 30.4545658947592059
  1.3695570427030628  7.5910646191275353 27.3791874092643681
 12.4710479540845931  3.0075349335936297 28.4744500627927195
  2.3039292233060364 13.2057864265302722 31.7146236039443039
 15.7868007978924894  9.9092844144276686 29.8130606622241245
 15.7552518094511242  5.9143279915075491 26.1071898787526564
  3.2352338380307128 17.2982507995164490 29.9603673340656513
  1.4338391399865373  2.5831904228648743 26.1603207337027683
  6.1150715618564009 17.1189194462865792 23.5657038329619510
  7.4289757644074008 13.5682487582621736 26.3579087746660576
  8.7371131248910601 10.3281194121327449 29.9404315140382025
  2.2772626974589376  6.8572525630672008 24.4981583224827517
  0.5543183617174605  8.4154223950485108 34.9875659626615416
 16.2112331496533457 14.3866419997723654 34.4632305519411659
 14.7709659496774606  9.7629728058983787 34.3520794271414402
 14.4360492393231734 15.1468299579829413 23.8731927438571461
  4.9077359310994328  4.6238031085355820 25.5915112157872855
  8.2327327600979103  5.1100589168235118 28.8912206842697117
  7.6542487049653580 16.9798894073729372 30.5071332976115883
  5.4304060322340897 18.4438614545560000 23.0359153338271483
  5.6408016934746090  3.3742041720575524 33.6210703065458887
 11.2176541967154577  7.9347404684076439 24.3189752395759911
 10.0179091726219944  9.4276859950484191 30.3218802529119529
  5.1750460154455178  1.9882447750450218 31.5236853681227274
  2.9025849202456659  2.0191595984548507 30.3297562058521635
  2.2502647776964158 10.7481358540286198 28.7166590968033049
 10.9422107732274760 13.5426545805727745 31.5616032527615928
  8.2345725651338650 14.3110328431372693 31.8689887729815524
  7.1615384110456626  5.5916105413644557 26.6264902678786015
 17.8756166498775890  4.5626411145639540 29.1185015893486820
 12.5237621657175158  9.7235379473455463 30.1060371216079830
  2.8559649625096242  3.1839360981374538 25.5788728784022013
 13.0049769907076573 14.1026662327765884 25.8292433136184201
  2.6940802603367011 12.3587403658222588 22.7970325647744119
  8.9419406802221939 16.9551093556688315 28.4306052250099626
  1.1856690127723994 10.8585526977267648 34.7292619301341858
 11.0355905118650153  7.7866076102980903 34.7483616018957662
  2.0124748685601648 16.7187765609739607 30.7271421037145913
  0.6225219120377855  3.6953872589872407 27.0572853252470225
 17.7354629386567133 18.4234520040910184 29.2750996190010255
 10.3019840669856944 10.8447548524830832 23.7107626478863622
 11.4377707427373636 17.3247561037237823 34.5943959954606441
  5.9801225429710545 14.8879765740710504 32.9499773047026920
  5.5698180551430845  4.4303100814486607 31.1352955238619700
  6.3850090785760720  7.7918548540841943 32.7733283981305874
 12.3628798760102274  5.7781136160647222 23.2093429997288538
 10.5559450923332836 13.9776126593230519 28.8934391888158402
 10.4358487561749005  5.9632625846205150 33.2182956299378560
  6.6216797882365031 12.4547499567768476 32.8102547439291641
 18.0668696125209145  6.4728423616394011 33.2353079500104940
  9.9781802913680124  3.4708157815770617 33.2580608940534219
 17.7087060609846034  0.3441806767085355 24.8633704187646316
  9.1232008809986755 17.9030518931653049 35.2230477385715659
  6.8678839131771090 10.0069296078398082 34.4520809211786982
  8.2744997768869606  9.5152786155413320 23.4452168197066371
  5.8874966945179343  5.3233427875302430 35.1005628641306870
 14.8508413056102118 15.7003409387166162 32.1499946682069933
 13.6890868535790347 17.3427637945259150 23.1744131952395946
  2.7318710929651293  5.4192463958210135 24.9159189813754054
  7.3522454289551913 17.0261713859177739 33.0071084779436106
 13.2958119134206836  4.1746118172747124 27.6205350661325468
 18.2983974738041333 15.9912353433819039 28.6755186621763727
  2.4979015401655809 10.0680737055767562 23.4194766035331696
 10.9443270281934346  0.7906151467536627 23.0140456677843162
 16.1560298451128865 11.6811173955669148 33.4504026417473241
  9.8640186238845491 12.0534714660624775 27.5771520271272408
 12.3122501294061983 12.5659538815773644 33.6734007334787648
 17.8012033255606070  8.5545439735243338 24.0660222648505879
 18.2155413391413319  1.4403420332744052 22.8889809344892825
 10.2922771282203609 15.1895057137270939 33.4959637184292873
  5.9202653023671115 13.9867456262900536 26.0674246578803874
  2.7756264492247857 12.1325174816129930 32.7717087336539592
  7.9370165172436780  0.1570265784094567 31.8308422787939165
  9.3986024532478538 15.8907245198790701 23.3769753283318380
 14.7701046227365396 15.8186185645302153 26.3610584357425424
 16.9882724015796356 11.5238770932091708 24.9518682669091518
  2.4579886287209805 10.4502622575260826 26.1274752713447143
  0.3402758096825748 17.6320402839007286 34.9922275743985125
  9.8345060701227016  5.9583210182687223 27.1731743430316826
 12.7174477678674442  2.5609821286353252 23.9057579264883842
 10.6454097036661945 14.1237174686787128 25.1872795833941652
  8.2446456779541126  1.9811702058478398 35.5314831025792088
  5.2604405815857769  1.0447512940839305 29.1797127763052657
 17.8742292842234036  4.2066867838624074 34.7993260554306971
  7.6598490089228308  9.6416744069304485 31.0201794599323364
 12.6484571789414861 14.9131237186213443 34.8320773547015818
 14.8292489497286155  5.0219057269637615 25.1513923055101856
 17.1580964668652172  9.7922792402123200 28.9059840782579016
 11.0453442624436455  8.1693560321512422 27.1560104395950788
 14.5463163722002307 10.9715987885268760 26.0002713827543985
  3.8214790596961832 18.5214938632838226 30.8286478147991971
  2.3159552489268345 12.7958578101931462 27.2882259400850202
 14.9070221458624879  6.1459030394420058 27.4934369088714945
  8.4012297031411389 10.1346461759032334 28.3664078045021881
 12.2871965208899425  6.3926157391148903 28.5128577588262928
 15.4643009233173778 13.3585959762459243 25.5826986806851551
 15.2631981523396902  8.3227445598792009 29.7172085461376199
  9.6417108077545048 12.7040784299366347 33.3492646840328391
  3.4490023306247442 14.6170908085628284 25.8438607366037942
 15.2205289202186673  5.8322131216759310 30.9373519537031854
  5.7166102726133685 18.4981714095821310 25.9973086094060832
  2.4441886786355629 16.8363602449200407 33.2727717483434091
  6.0041424102350209  3.1049724067124913 23.0964259294963767
  8.8250315161648949  3.6323754112663948 26.6603976702325269
  5.2762720928645450 16.1735616525816077 24.5961053660379321
  8.0079813727997955  5.3047157249156527 33.8998448932715846
 12.3940167322419477 12.2804681887764993 29.6531982631478286
 13.8024262908162108 17.4484522689205583 30.7322616436249660
  0.1877248449504387  8.6614575254688475 27.7957174997118983
 11.0650615445081950  3.7158285526239778 28.7148015773949581
  0.9123968273018698 16.2386330945081383 23.9725280863305414
 18.2782101953512282 15.6298706214470311 26.0012921861560073
  7.5215191636119050  2.7562036831925272 31.9291487324293826
 16.0776333904864153  7.2882849826128222 25.4490871843604296
  3.5844917063690347 13.7477838143144666 30.9735760891317398
  9.9843566153906167  6.8065257984235110 29.5230184208813711
 12.0334357250756216  0.6412159562815559 25.3593055830081440
  4.7087534145608343  6.5611721831723955 27.1631590154382110
  9.6508893410068541 16.3553783203748289 25.9810860898300291
 17.0506765157330236  9.4147143375886486 26.4575694958740328
  8.2546362252407626  3.6379222327686302 24.3500959095214426
  4.3362368310162722 11.4615690429015711 24.3954512513746309
  6.9203539142554149 18.2169230829260762 28.6549458154717698
 15.9909087594040500 17.8307823825302165 31.6949791317812100
  0.3521171209254080  9.0593607897577080 32.6095694716962612
  4.5334660620865712  6.4247777556875452 29.5596069409934898
 11.4518210878495825  8.2888345000995969 32.2319504961342673
  8.9921348418925096  8.1742909594313886 32.8126574707852967
  2.6205280961016482 18.0858611513683201 28.6536147892075590
  7.1125545724699322  1.4729941491388145 24.7960863384376538
 10.9667820776367737 18.1898396869941976 27.3272505156016621
 17.1094704841112737 12.3153463927135522 22.5422335528294013
  1.2891785104367661  1.9601148448690418 34.6242506763510534
  2.7436721774991941  7.5115931186739591 28.2840527131491442
  7.8239430714545648  7.1028118622990917 30.7204957562242029
  0.1425997741059812 17.0601673382563739 32.4232674566818204
 15.9298285072783834 18.5699303527259225 22.6758835054967989
 12.7461523087057991  6.5270454277529373 26.1167049880088840
  5.2470085351795319 11.8664584035828398 35.1193800199459076
  3.2934656889586411 18.1457495635871808 26.2126993063229463
  0.1496446578069839 11.3421886381743828 27.2699579848582800
 12.7696544884064167 14.8673262677720022 30.3059023346444221
 15.4537321628389375  9.3210831513915959 23.8810749815973509
  3.1042544502767875 10.4285497537303904 30.9705154356863446
 12.2587285365658651 15.6750401960775747 24.2922921415007025
  0.6725323225056745  3.4005137869860338 30.8407088388074655
 10.5894405349824616  0.9107481937769737 33.6018789017522934
 13.7369733271528780 18.1612770213428760 26.9659505310458627
  4.8067611373860206 16.7128817829706975 27.2980713481556876
 14.6002009918482827 10.8426790757080269 29.2938820660843504
  1.6312775095283287 12.2366306945719181 30.5902646207421327
  4.9105739362964886 17.3001998970375190 33.6006203094568932
  3.6711189960721491  3.2594262735400918 35.0512206747176265
 18.6044810453908696 14.9262627323752906 34.6207494998866849
  8.5920391909834883 18.6956824493663589 26.3875871738677645
 14.5277287380280704  3.7778451438915295 22.7584159966685959
 16.5526198908409015 17.4302733390715971 27.2300195468331694
  7.6472381989357903 17.3830624913921810 23.9844059236274632
 15.7745273287386656 16.7852706808196217 29.5810658449281334
 18.4087814899198072 13.6574246941606283 27.6802566553346665
  7.5681807000089112 11.9324353189105814 26.4365436060510532
  9.8335739715176036  1.7667250622768096 31.2451689483979465
  4.3027025999994404 16.0873522214410904 30.1075183434206579
  2.5720664596215284  2.8729265198860126 32.6970505271427356
 16.8207035467327941  8.7970926468269077 33.2929160061358829
  0.5722447504128063  6.1905141533641794 27.5470095557950572
 17.3929060773913307  2.1158554523179709 29.9311170393089085
  6.0022064970077942 14.0349053800097128 30.5539632870500029
  4.4068738777037639  8.9300506164870956 25.1309042424579800
  0.5808955398574417 18.0635734267107573 26.8546041709445973
  1.9272509162284879  7.6006026824096748 25.8599165568148166
  1.8722419261929826  1.3528089790294737 27.0788552269893827
 18.3974060086917142 13.7777503613099022 24.3222935892198819
  9.0116147926215486  5.1114631874595711 31.3994196437083062
  2.7182936191353528  9.4693187404083510 33.4122155738783491
 12.3649613539070469  1.5973623141083171 27.6893433229847119
 15.8638015885581147  5.3647578905473772 33.5554255095654028
 17.3458115643693809  6.6348145352762806 35.5571640736591803
 13.3922806304300135  8.0011805269482430 22.7036513514840621
  3.4092234292712500  0.6593899837829491 33.9999731505138740
  0.6196835270407463 11.4507791467847664 23.8152292601693318
 16.8985139552534349 16.8099130090500140 33.8888295304821412
  5.6647232694604561  8.6261688705732684 23.1702049197530826
  4.9415682303395370 10.5792346939137865 32.8466333518711835
 13.1890838199758313  2.8910574508031353 29.8788101359616363
 10.2365430930403711  2.5338925149380422 24.9843705354810623
  3.0660155008936676  4.5885285437673708 30.7602892530453076
  3.5993978285883381  7.3146197182056767 23.6660179546563825
  1.1566404187989883  0.0824953332773574 23.8846289777885019
  7.4501779166089719  7.2787518899708337 35.2358423543316377
  9.1010065355497360 10.1610876021420573 25.6656854065413711
 15.3738799394454730  0.3157103856544551 29.7110851387355979
 11.2195725792243817 10.8216348189932088 31.9939378914083079
  8.1195564287599140 14.3996323851289567 25.1392670781075296
 14.4977296677301553 17.6045579174492204 33.8576995826479958
 14.4081486159938326  3.5684835078486969 31.8814164769139410
 16.8911966782027463  1.2214120837893137 27.5548871810026057
  8.3797410845619940 13.9460810714188455 27.6658611414002422
 17.2993684865333819  7.4397405917182402 31.0491648076302553
  4.5450737461903117  4.1317360629408419 28.6419825856629657
 16.6068416754033024 12.0883855581729183 27.3990169693137702
 12.1748799447285183 12.7436918603524258 23.1566605089152446
  9.0762089838979350 11.8782083826087401 30.1219535489685057
 13.8244110726236169  1.0737292923866042 35.1795663912599181
 12.4883764182625310 16.1329672678453697 32.5579899707422769
 17.1464457388226599  5.1100782109235405 26.5919859829760341
 12.2274960835581421 11.2484860461282228 25.3655927506051739
 15.2702464676397707  1.6877188179867428 24.0868209609924904
 12.2530101797627200  2.5107572839834185 32.1301385809465430
 12.7405622429743115 10.6965610738058370 27.5880499258489493
 16.9372844338703459  4.1006435831645280 31.6147716617799759
 18.1752622936498049  0.6727939324218755 33.6909322487843639
 15.7152170322814193 10.1244427838804132 31.5049487500757621
 14.4017356372997636 12.8766207645707773 35.1125194314508633
  2.8764361922481778 17.4685179626783835 35.5794186851823682
  4.0909787062481948 14.1638528197851699 28.5035633773145207
  6.7876017832732405  1.4696651875843090 27.4184458689670336
  7.6121142942670943  1.4392515644534640 29.6596725617236459
  6.2362571488036265 16.0841789966543587 35.3591159369515040
  1.7170386540741840 15.2605954346333448 27.5714269830516514
  4.5378142240715675 13.9815966270481820 23.6417291895687569
 15.4605654813812166 18.0621314287710000 25.1151859844333174
  0.4209915669235075  2.0731338019973191 25.0371055320433626
  1.5535734453032612 14.5424347575107280 32.2228858850106761
  5.7435393460068660  6.9440037937071226 24.8210771385220994
 13.0345269848921639  9.0965573240106625 25.8475212723465475
  0.9493520704984861  6.7036862675405748 23.6406879067527882
 13.0640085702218141 10.4342036322724052 23.0149273714387590
 17.2884614259971094 15.8581950780033711 23.3669259756497425
 17.7922237270688086 18.7515232146257453 26.6140624593061901
 13.7413822319700536  4.9791132265400382 23.7757264600422857
 10.6882497202893845  8.6721978243742193 36.6853925456014665
  9.2861687570437628  8.4819781103735803 36.7132579885307209
 11.5316422628839792  7.5526175287259214 36.5985119914381301
  8.7687028941308238  7.1777528279784413 36.6537202401606734
 11.2056165104065801  9.9764096651802028 36.7449322700346173
  8.4428725290050988  9.6015775055781969 36.8000367649299989
 11.0002779249400717  6.2639459316210164 36.5400397315493635
  9.6214845851677584  6.0768736751752996 36.5676404030581139
 10.3529311339256314 11.0773079175395459 36.8309103293730757
  8.9742313504695339 10.8902604186169345 36.8583094214167488
 12.6124337516907179  7.6751828829170741 36.5754902261939634
  7.6941684703248328  7.0078907486830486 36.6737875288031745
 12.2801403893225025 10.1463650173486233 36.7249707593503771
  7.3618773781273870  9.4789965841421964 36.8228628788982917
 11.6635572868904767  5.4065160953240952 36.4730990575276053
  9.2084476393242252  5.0733211397012861 36.5220619003194358
 10.7659786246591889 12.0807671801405618 36.8763830541535143
  8.3109386853893117 11.7477891857538008 36.9252560716957490
Cartesian
 -0.0045003781334321  0.0010280771034252 -0.0011860743578322
 -0.0066162928141695  0.0019768367921663  0.0039473682002390
 -0.0004110069628208 -0.0007631956064677 -0.0000032143157984
  0.0023546332121718  0.0023690603301960 -0.0020951967003523
  0.0030779626957240  0.0055920580791603  0.0013294396590194
  0.0020512573231051  0.0025570736877943 -0.0010951996874087
  0.0003288141522580  0.0037279134556310  0.0047887474039277
 -0.0009259505787297  0.0024524604574164  0.0025250441496134
  0.0002815014339872  0.0018955960366471  0.0054004559003274
 -0.0029218253827264  0.0028251036839092  0.0067750942515641
 -0.0041459921574179 -0.0008701270376762  0.0032472528456329
 -0.0110534183172279  0.0020049573875214 -0.0008909560962431
  0.0080610613268440 -0.0029583851359535 -0.0037506757285181
 -0.0013499758907325  0.0025369102888253  0.0032089328653110
  0.0055694460475209  0.0055574198910808  0.0037587040570905
  0.0057835056530613  0.0015385569804281 -0.0085976127533084
 -0.0060599252719169 -0.0114367494647978 -0.0029217147516548
  0.0017136006108680  0.0000184646606586 -0.0057320900552236
 -0.0077718664775967  0.0105133339919027  0.0042392978819921
 -0.0022600097636619  0.0064175665972398  0.0037860450451783
 -0.0050774567648536  0.0067754094475120  0.0048805305107632
  0.0023161292784727  0.0020451146607487  0.0025680063874054
 -0.0015748347561933 -0.0043227036597979  0.0016709386240128
  0.0018255482705568 -0.0014492469869882 -0.0064680683943920
  0.0015332558905185 -0.0014196669761673  0.0010324606225889
  0.0021498189774831  0.0017848830756351 -0.0017369489081332
  0.0004072950060641  0.0061088645747855 -0.0053273938904467
  0.0042839470416902  0.0011727678819191 -0.0134012865906600
  0.0030887886991891  0.0025175171934913  0.0034533876254557
 -0.0057080139314045  0.0002100424167532 -0.0016809681152505
  0.0045688084023027 -0.0009067826306021 -0.0016811952231133
 -0.0028886597667119 -0.0027067235482884  0.0001651235558045
  0.0008747441692021 -0.0016198990929531 -0.0020921133953133
 -0.0037972427017316 -0.0081569344276455 -0.0040080013629323
  0.0023582019347462  0.0030605401606099  0.0039855150934703
  0.0036232351867594 -0.0056581531681394  0.0005519744617839
 -0.0005010401753071  0.0023919127188144  0.0019424142585412
  0.0029176657495645 -0.0043211401766079  0.0034362854748617
 -0.0011370654564684 -0.0014512010243784  0.0070882556490761
  0.0002545586948811 -0.0004726139474769 -0.0017023438056441
  0.0016965295721132 -0.0007753891279361 -0.0029693764965844
 -0.0012077973397290  0.0047311283747274  0.0026045905212145
 -0.0018654731947028 -0.0020835180275174  0.0006692811312521
 -0.0001761026915377  0.0005145851687670 -0.0007088106609630
  0.0058107911505200 -0.0008963635892845  0.0023525679081184
  0.0002301991469061  0.0010938807773076 -0.0001360767632964
  0.0019644307156082 -0.0043205133327504  0.0057261112786151
 -0.0025827614592997  0.0062987146698378 -0.0018436245458532
 -0.0030850161494455  0.0008214639818513  0.0005771227491582
  0.0016712084311459  0.0017146998952110  0.0026472764838927
  0.0038118408924210 -0.0019773435406733  0.0025240420601051
  0.0019792948373115 -0.0011610999507092  0.0058603968259725
  0.0013171558954370 -0.0021108932234793  0.0013371853691748
  0.0006305303175594 -0.0006464163524928  0.0002112136202030
  0.0011924548527233 -0.0004821811389354 -0.0004494331795203
  0.0032426508544737  0.0004681224448580  0.0014592323280420
 -0.0028318027129544 -0.0006104137840668 -0.0025996925717567
  0.0032575889747195  0.0002948918981352 -0.0022404582442953
 -0.0003215317671597 -0.0010587272934331 -0.0018442259957161
 -0.0012459562228392  0.0011831585715079 -0.0027672064058128
  0.0080052806551242 -0.0005726575682383  0.0004672111007914
  0.0013483087890277  0.0050163816245706 -0.0000525651761057
 -0.0073284127684649 -0.0006379077573153 -0.0014794175152858
 -0.0010598450075625 -0.0038718942791316 -0.0008797755449708
  0.0025421925143344  0.0005882337119681 -0.0011126519856720
 -0.0032244120794926  0.0042198650590739 -0.0027484218564584
 -0.0034446576308585 -0.0031845107342990  0.0042447444978941
  0.0021526173564626 -0.0021633990677474  0.0000606442066408
  0.0044081469202550 -0.0049020074995716  0.0072622830235393
 -0.0016971715275132  0.0021426017364131  0.0021206425818404
  0.0026134207347513 -0.0032410004366491  0.0015818935317967
 -0.0009437132086113  0.0022264431845326 -0.0049981667189172
 -0.0013827508622483 -0.0034973862073729 -0.0059124271637481
 -0.0057170429020788  0.0033768188886697  0.0032629495697765
  0.0062089802314691  0.0024771587681953  0.0007175472273721
  0.0020265709346861  0.0018355361333148  0.0001548854783718
  0.0043944121031625  0.0003698340612884  0.0046035416921958
 -0.0011980288597016 -0.0000724144486694 -0.0003851502843016
  0.0004953179725858 -0.0025184941259003 -0.0007703722124647
  0.0010242839055998  0.0017681879873156  0.0009649937217666
  0.0026251455271484 -0.0043345810963091  0.0037113730773118
  0.0017801269892633 -0.0094483326970958 -0.0003664232918716
 -0.0037514303236862 -0.0031804921528519  0.0059489859532254
 -0.0000277659077696  0.0016933862173763 -0.0058334359066745
  0.0039452900811459  0.0015117033165062 -0.0052947084068490
 -0.0019479030314313  0.0025938406337299  0.0004791816712403
  0.0009476405616045 -0.0018861770603601  0.0000875598649502
  0.0047981798892411 -0.0002974729344053 -0.0036760652076057
 -0.0016232961135874 -0.0014852441896768 -0.0019451004393418
 -0.0024356552662724 -0.0029931307711679  0.0021525234270774
 -0.0007460617933555  0.0003324672654918 -0.0015483249143703
 -0.0008932246406283  0.0020972246549476 -0.0002596270742427
 -0.0019586900054555  0.0046647142532176 -0.0016842505703746
 -0.0006414904486019 -0.0055252533988615  0.0050014015854448
 -0.0003235998720227  0.0033535156568345  0.0053141483722435
  0.0003377609405639  0.0027730084828989 -0.0025839338813481
 -0.0002874861083362 -0.0019644863214513 -0.0019072245557720
 -0.0061619252234707 -0.0043871622946321 -0.0008169792378183
 -0.0021700785252536  0.0037440462172155 -0.0020962613853049
  0.0077477407984418 -0.0003529249752521 -0.0006831480743607
  0.0051750082739113 -0.0016298258947375  0.0014145423952956
  0.0065791107127347 -0.0020383108154151 -0.0060596632987850
 -0.0029879307214136 -0.0009596244768109  0.0025800584353423
 -0.0047087230122566 -0.0014381274911234 -0.0002678595040884
  0.0053734105599863 -0.0017019861516980  0.0063264240944173
  0.0027592017539281  0.0008267912487411 -0.0067031232389532
  0.0004846852808258  0.0006129760706350 -0.0012829434743702
 -0.0047639445437812 -0.0033020976753115 -0.0023742803924593
  0.0044206568846071  0.0009085998923491  0.0028088462318529
  0.0033809971295030  0.0043608691024361  0.0005061312031178
 -0.0017477180850047 -0.0013652186183167 -0.0006349267388217
  0.0007657226253910  0.0026732350257948 -0.0001233360905307
 -0.0062824969849474 -0.0028056333834774 -0.0041317685903315
  0.0008942308699349  0.0027514073077884 -0.0022260640371400
 -0.0019938607608957 -0.0041668198598954 -0.0014946765158656
  0.0002024201552750  0.0001551154219242  0.0009856436854727
  0.0017739315139957 -0.0030798832803991 -0.0028973930003679
  0.0030948497968277  0.0037696813775896 -0.0041955147277101
 -0.0017974239817344  0.0026397058237625  0.0035427604264010
 -0.0012747813320147  0.0001209192599311  0.0005223998561422
  0.0048415514035946 -0.0008152783588667 -0.0009934923951552
 -0.0007776659849994 -0.0044997308519276  0.0007009077575368
 -0.0000080830075731 -0.0007683392356709  0.0025667191920461
  0.0001611884577626  0.0056847671198523 -0.0005641113046774
  0.0026224096876648  0.0005215307459728  0.0033403346144373
  0.0014885145753635 -0.0004893958503508  0.0044119019935324
  0.0018862679493710  0.0017683927576545 -0.0012396402107252
 -0.0051479570878325  0.0000712927325873 -0.0030847326834761
 -0.0006334112185374  0.0023377637896147 -0.0024044478510278
  0.0011211959497789  0.0013218731886718 -0.0020098823062323
  0.0004056296160331  0.0045654901619189 -0.0025737370905891
  0.0033067588138562  0.0042229055042176 -0.0014032080089994
  0.0012538787169941  0.0036098688721662 -0.0038407850009760
 -0.0051508928301197 -0.0012218369778781 -0.0035884239841262
  0.0014212038376823  0.0092081674917489  0.0012961292912607
  0.0046014851435612 -0.0032469135068783  0.0047192444031256
 -0.0051729138160687  0.0005233598122534  0.0025226234609077
 -0.0013609626018738  0.0110611064985113 -0.0000664990262110
  0.0052618815458966  0.0019599780732286  0.0055872941731713
  0.0020128125863422  0.0059267839818292  0.0028987819492841
  0.0009293234616774  0.0045809371391111 -0.0026087532532839
  0.0033675312397277  0.0025357291966866  0.0032706170588167
  0.0006987787858097  0.0083214890486648 -0.0034534678805322
 -0.0001060364005665  0.0028196840314021 -0.0068885493450670
 -0.0047159171131218  0.0043363233747874 -0.0030942103196363
 -0.0010735012789378  0.0024038317795981 -0.0016113741444890
  0.0007749421421966  0.0002615720541460 -0.0048117543391166
  0.0007045180248312 -0.0007546803302301 -0.0002836986382051
  0.0023356667196322 -0.0076774312259693 -0.0064401169236853
  0.0032462441816088 -0.0082510090099528  0.0006239331379465
  0.0016625851031677  0.0048408038408721 -0.0013751704777687
 -0.0013234789399716  0.0070988533165422 -0.0024877072589933
 -0.0026406451780295 -0.0058141287045441 -0.0031871643072669
 -0.0006485335894697  0.0004639485338518 -0.0063831588312872
 -0.0030492706095205  0.0034379750384789  0.0020180022737628
 -0.0001717620079462  0.0019731049879989  0.0013291651499811
 -0.0045517413026636 -0.0027225298864826 -0.0007610090524354
  0.0023409992079881  0.0004959936566613  0.0019217958171547
  0.0062625434461789  0.0018469540156516 -0.0009416094899012
  0.0028106391528078 -0.0000245169963605 -0.0003826877304230
  0.0033025135690562 -0.0007456482333619  0.0046855964364979
 -0.0010781827830499  0.0078481219492008  0.0056439365752801
 -0.0004855121576822  0.0031295456825849 -0.0050105709631736
  0.0059173884417311  0.0006743132799231 -0.0023179970269684
 -0.0067119305055601 -0.0003000182775892  0.0016714732647118
 -0.0018810044431765 -0.0010305439826096 -0.0012284840929611
  0.0066517063540115 -0.0039023948766724  0.0015860242998489
 -0.0007449040640128  0.0032519750008327 -0.0071384867869605
 -0.0051836259556021  0.0051626751955898  0.0070442569185184
  0.0056078461837898  0.0015432460401951  0.0015974646695121
  0.0013954978059256 -0.0010874099329951  0.0008446647519028
 -0.0004456009725488  0.0000364064190726 -0.0007439949503263
 -0.0014144658005229  0.0031045623297762  0.0076126344462407
  0.0050234125855781 -0.0032221910937716 -0.0032513996294720
 -0.0011720318495996 -0.0030593793395091 -0.0049924985061565
 -0.0011349838889755  0.0032113347572231 -0.0028867729365939
  0.0039772208386913  0.0011471887541002  0.0006642071636540
  0.0006934153161556  0.0002343668746827  0.0023409370869742
  0.0025479341636070  0.0015899442786640 -0.0048029452764509
  0.0062790217366203  0.0022217690310093  0.0005533405198117
 -0.0040191038290315 -0.0053664421434484  0.0006370142293599
 -0.0033640189055381  0.0011600970729644  0.0005851035158650
 -0.0022001324412456 -0.0017151428347837  0.0024036907546430
  0.0018377476345869 -0.0106641138196221 -0.0074048234074360
  0.0031541333603934 -0.0047975603243170  0.0038314284222523
  0.0015535663710134  0.0019534520049335 -0.0017758742048960
 -0.0017316595420974  0.0045015746579390  0.0047218933896076
 -0.0010329771106718 -0.0080467428714241 -0.0068670881095079
 -0.0063645405325592  0.0027478176551777 -0.0009795654161862
 -0.0052296642605650  0.0019951313261947 -0.0054428247073615
 -0.0054765669215825 -0.0010665053755287 -0.0019143649132347
  0.0034760702661461 -0.0012428253908240  0.0015975001140516
 -0.0017103724871626 -0.0083454627844155 -0.0023853874104210
  0.0057785316990097 -0.0038906118427510 -0.0033633869717809
 -0.0027480080096969  0.0038012303548317 -0.0024961584630852
  0.0002166151472428 -0.0017993523533318  0.0001222947600947
  0.0032156717395088  0.0074591536693447 -0.0062444362991197
  0.0081183635252421 -0.0010600781971432 -0.0034871545213278
 -0.0054553931605293 -0.0022913934966977 -0.0003775094703218
 -0.0085153777187743 -0.0044443579523269 -0.0110041190543218
  0.0008397919390443 -0.0020441415773451  0.0032345005255790
 -0.0041605992586499 -0.0033209752085230  0.0005408362003758
  0.0015554004620071  0.0072451091825702  0.0001813249954693
 -0.0042948924678038 -0.0034404920245540 -0.0014215594096970
 -0.0049403833895886  0.0036386660484905 -0.0041096395588660
 -0.0028571370811155 -0.0006256933061439 -0.0045905702744515
  0.0003601296857134  0.0060304705486685 -0.0067620702580905
 -0.0010467399475831 -0.0051030834032577  0.0065406998643723
 -0.0019237767561076  0.0016674498712079  0.0030069840309385
 -0.0028777464915004 -0.0018489322023443 -0.0009277971606664
  0.0013639159159309 -0.0007110433420109  0.0025013669244682
 -0.0064717353236584  0.0031125564173750  0.0035426000953633
  0.0019652662100728 -0.0026461309062028  0.0037583522150480
  0.0048844455599495  0.0064681269074218 -0.0029395799261248
 -0.0044250758704602  0.0023836117487992 -0.0004897341648569
 -0.0038275922764403  0.0013863268775378 -0.0000677710074181
 -0.0010853399295545 -0.0007482779719271  0.0016819086952555
 -0.0045268530223071 -0.0001548292801572 -0.0010547757779900
 -0.0025563284289312  0.0028708249770402 -0.0038014288091601
  0.0053610079486565 -0.0005638147332027  0.0005020682828224
  0.0037753111372698  0.0032904525045781 -0.0027588205730984
  0.0050871689868232 -0.0012374984878479 -0.0025760135344809
 -0.0043380373135405  0.0023328389852792 -0.0024623735599864
  0.0004361599632570 -0.0007585796269009  0.0025111334871163
  0.0023123927929892 -0.0022600141094446  0.0037799350012795
 -0.0005523542410501 -0.0010827719066915 -0.0026906568447640
 -0.0051611677770755  0.0010457777904058 -0.0004820520116039
 -0.0060653657679294  0.0026433761592271 -0.0002839043101687
 -0.0045142084278151 -0.0019160943556068 -0.0032874801639369
  0.0021112663234552 -0.0024416199924086 -0.0007791807145884
 -0.0011587525543850 -0.0082428531564598  0.0020776655398771
  0.0041162215676169 -0.0078403698366497 -0.0007712498238735
  0.0027121519589947  0.0059049859970471 -0.0057355574848123
 -0.0007313590588660  0.0004930934578735 -0.0005720460082999
  0.0009712813170037  0.0009733900476430  0.0029420997443170
  0.0015306560922713  0.0084880407646177 -0.0023110012898374
 -0.0008329246866358  0.0028237133048684  0.0024417851357257
 -0.0003860748593179  0.0006371625195530  0.0029616619879197
 -0.0016216209014400 -0.0045271836952897  0.0009415393966401
 -0.0029914111575984 -0.0058491900416699 -0.0043603298012401
  0.0040133628375112 -0.0016221478240291 -0.0055295285596384
 -0.0011065744410682  0.0013647937331790  0.0024121390126743
  0.0008062527261636 -0.0009835948314965 -0.0041556725700127
 -0.0000882714650349 -0.0040093493602938 -0.0068519079765361
 -0.0032274625918397  0.0006885350199829  0.0011305963403739
 -0.0111034305538669 -0.0029826711155227  0.0088444082788372
  0.0026884779870221  0.0003124527018274  0.0009500623488496
 -0.0056575343819119  0.0018968221727898  0.0034274907210173
  0.0000512047979861  0.0034819415932374 -0.0031865909385017
  0.0022757109989857 -0.0038503728262137 -0.0060139072095896
  0.0036170875602618  0.0001380004004879 -0.0014407933695585
 -0.0001616533832686 -0.0006344356730060  0.0000599023769142
  0.0028469626883245  0.0025844078588123  0.0036301138691069
  0.0005083193748133  0.0050390947833059  0.0017593132544382
 -0.0003601499958472 -0.0041951385713938 -0.0035403183332286
  0.0071280385407296  0.0048134152072057  0.0026740467271327
 -0.0047838185379101 -0.0068995136600658  0.0022674239068371
 -0.0069352137264930  0.0023315969595881  0.0002620675583213
 -0.0022808730812322  0.0013194353897715 -0.0029707481475205
  0.0017703628883390  0.0048157481260296 -0.0014558332513330
 -0.0043132357968280 -0.0013775711917844  0.0021725722280337
 -0.0010588596048653  0.0003967178816831  0.0030601133694033
 -0.0090381735487071 -0.0025691996723468 -0.0021974002790697
 -0.0010632409169086  0.0058749679589473 -0.0116599186459461
  0.0091283447652927  0.0007623847074535 -0.0007147587008976
  0.0007197553480000  0.0017883470996227 -0.0006056190621556
 -0.0097391497982911 -0.0099959439870699 -0.0012863728424160
 -0.0033741535053627 -0.0053349808931657  0.0031298031455043
 -0.0033473721520909 -0.0026221588147537  0.0001244135327633
 -0.0021914576855232 -0.0016430759918472  0.0014064074550837
 -0.0005447093775032 -0.0039281688220693  0.0019805555879609
  0.0035899577370497 -0.0028905599374122 -0.0019844932831143
  0.0053738973412607  0.0023597496147136 -0.0012118714587506
 -0.0029274678155011 -0.0005416319672620 -0.0011416258280956
  0.0014241167530527  0.0019062051189302 -0.0001732614051433
 -0.0004585950459950 -0.0004297244910420  0.0025764857340137
  0.0013191652528797 -0.0061893222614711  0.0034714150060030
 -0.0014577914492416  0.0030631506268613 -0.0022360329979117
 -0.0026085698086780 -0.0003189047996011 -0.0039526376201860
 -0.0009571958425808  0.0064803122625420  0.0002568067381454
 -0.0014186792399971  0.0001601805917542  0.0000352909000121
  0.0042351115930027  0.0014618251873766  0.0000758689509032
  0.0016694554279662 -0.0054045396421308 -0.0004535908749404
 -0.0034497121288611 -0.0020439814985530 -0.0030070082594128
 -0.0006942866608671 -0.0008818310630180 -0.0018883213430441
  0.0071666086059683 -0.0044730495454021  0.0031255698753356
  0.0008589451696640 -0.0022819170554600 -0.0027768424653736
 -0.0063220000552981  0.0002176670457700  0.0056015532821395
  0.0004796156216437  0.0014024783091390  0.0027338139415690
  0.0015439221421272 -0.0004246840285888  0.0032776554144670
  0.0007367233133124 -0.0104387763221492 -0.0006883167516754
 -0.0009639036686158 -0.0056256284604486  0.0048621390056330
  0.0021101650289000 -0.0061487188249620  0.0028888542568011
  0.0012237981459949  0.0032343885859924  0.0014217535120444
 -0.0015932403754156 -0.0017900935202617  0.0003444101156734
  0.0025144993551077 -0.0084413991600609 -0.0019367386091437
  0.0032737561173916 -0.0003204393492047 -0.0036550757103616
 -0.0017231498410094 -0.0017621143002374 -0.0024359592806045
  0.0027266654415848  0.0033515952648666 -0.0011177503583941
  0.0014079286412068 -0.0021834310679631  0.0062509753410529
 -0.0059011550405251  0.0001023065314712 -0.0005452808705896
 -0.0011986922294654 -0.0018864060148950  0.0009233178421913
 -0.0043791340206484  0.0011892598455494  0.0020952953259669
 -0.0003542198642153 -0.0009651332462304  0.0050765250778215
 -0.0036637095551148 -0.0095861172976241 -0.0009990335470586
  0.0031652731943386  0.0002006309761939  0.0014357083791973
 -0.0055685060228379 -0.0014340999927191 -0.0072939644802804
 -0.0065843582605656  0.0015352863680755  0.0061388462787408
 -0.0015623348161041 -0.0041403690940770 -0.0013427515739682
 -0.0006219027982910 -0.0044785939012899 -0.0042536599361188
 -0.0020874489644088 -0.0022978460541632  0.0033663309149863
 -0.0032527323907413  0.0042121228187381  0.0033145246699733
  0.0017368322905876  0.0005888992839748 -0.0004518820348860
  0.0099323599131703  0.0013246678893291 -0.0014485536194369
  0.0021945703755496 -0.0005041630740473  0.0024551260397342
 -0.0016510491173588 -0.0007212604884631  0.0066377471890127
  0.0016974495154157 -0.0003746455627119 -0.0031694239640443
 -0.0022148311383561 -0.0014045881638100  0.0029398821675457
  0.0046763168260078  0.0016262829170308 -0.0007433258306005
 -0.0044413180894112 -0.0036248564271787 -0.0006783734985345
  0.0021767595272930  0.0021220108911413  0.0072842780234158
 -0.0016372759677005  0.0001781492055898  0.0030058042048781
  0.0002130833745320 -0.0005026419192809  0.0002012857651475
  0.0013791919215095  0.0015117177099334 -0.0023848541318527
 -0.0054235539741741 -0.0009770975374160  0.0001752358364348
 -0.0013579203929944 -0.0040104384027888  0.0059850391725356
  0.0057727913413087  0.0058816697729209  0.0059886474039074
  0.0012574442732236  0.0057665856942402 -0.0026006314918037
  0.0047224768389694  0.0034611304655286  0.0040430870048823
 -0.0068859913941240 -0.0051559398738092  0.0023195930998593
  0.0014300157712274  0.0065851520256018  0.0061264379299292
 -0.0005272436959103 -0.0012745106262394 -0.0021284490532929
 -0.0038635743706950  0.0017484772757974 -0.0078409227042440
  0.0042463878775934 -0.0027288120207301  0.0000765953448323
  0.0037624923693355 -0.0050530469617449 -0.0028869612059700
  0.0006473366306844  0.0028807104588816  0.0013380788068913
 -0.0096683876165242 -0.0078095930310447  0.0053099781230350
  0.0061278896564381  0.0028528003705402  0.0024712796569524
  0.0010770775996497  0.0022830216431998  0.0084570214713217
 -0.0022168451158366  0.0041473825684946 -0.0042024772518265
  0.0000000000000000  0.0000000000000000  0.0000000000000000
  0.0000000000000000  0.0000000000000000  0.0000000000000000
  0.0000000000000000  0.0000000000000000  0.0000000000000000
  0.0000000000000000  0.0000000000000000  0.0000000000000000
  0.0000000000000000  0.0000000000000000  0.0000000000000000
  0.0000000000000000  0.0000000000000000  0.0000000000000000
  0.0000000000000000  0.0000000000000000  0.0000000000000000
  0.0000000000000000  0.0000000000000000  0.0000000000000000
  0.0000000000000000  0.0000000000000000  0.0000000000000000
  0.0000000000000000  0.0000000000000000  0.0000000000000000
  0.0000000000000000  0.0000000000000000  0.0000000000000000
  0.0000000000000000  0.0000000000000000  0.0000000000000000
  0.0000000000000000  0.0000000000000000  0.0000000000000000
  0.0000000000000000  0.0000000000000000  0.0000000000000000
  0.0000000000000000  0.0000000000000000  0.0000000000000000
  0.0000000000000000  0.0000000000000000  0.0000000000000000
  0.0000000000000000  0.0000000000000000  0.0000000000000000
  0.0000000000000000  0.0000000000000000  0.0000000000000000
